LAMMPS data file via write_data, version 5 Jun 2019

12262 atoms
11 atom types
8160 bonds
1 bond types
4080 angles
1 angle types

0.4943789999999999 49.189513 xlo xhi
0.487692 49.180291 ylo yhi
0.49672099999999997 49.185479 zlo zhi

Masses

1 1.008
2 15.999
3 18.998
4 35.453
5 79.904
6 126.904
7 6.941
8 22.99
9 29.098
10 85.465
11 132.905

Atoms # full

1 1 1 0.4238 16.439651 7.947768 33.247523
2 1 2 -0.8476 16.290186 8.017555 34.233825
3 1 1 0.4238 16.561727 7.161426 34.673493
4 2 1 0.4238 24.894164 11.19322 28.744833
5 2 2 -0.8476 24.841891 12.13025 28.399518
6 2 1 0.4238 24.244832 12.671015 28.99205
7 3 1 0.4238 42.689403 6.726277 18.658844
8 3 2 -0.8476 43.262949 7.499342 18.929796
9 3 1 0.4238 43.352884 8.133063 18.16148
10 4 1 0.4238 33.819148 12.25782 24.717682
11 4 2 -0.8476 32.950328 12.40186 24.243969
12 4 1 0.4238 32.894689 11.788717 23.455959
13 5 1 0.4238 3.547024 18.252975 38.150813
14 5 2 -0.8476 2.756766 18.681688 37.71298
15 5 1 0.4238 1.940258 18.520129 38.267247
16 6 1 0.4238 18.32876 48.178 29.163841
17 6 2 -0.8476 18.53381 48.144443 28.185665
18 6 1 0.4238 19.524938 48.139772 28.052841
19 7 1 0.4238 39.987191 16.019785 4.264019
20 7 2 -0.8476 40.296232 15.148301 4.644821
21 7 1 0.4238 41.270743 15.028526 4.455135
22 8 1 0.4238 36.745968 29.848891 48.17087
23 8 2 -0.8476 36.45006 28.893694 48.164711
24 8 1 0.4238 36.684607 28.477753 47.286087
25 9 1 0.4238 34.244838 15.988803 27.578018
26 9 2 -0.8476 33.817609 16.845715 27.866423
27 9 1 0.4238 32.826325 16.723722 27.91616
28 10 1 0.4238 48.178005 12.9297 17.145801
29 10 2 -0.8476 48.015498 13.240433 18.082303
30 10 1 0.4238 48.178011 12.48501 18.717067
31 11 1 0.4238 6.393351 1.499552 38.989068
32 11 2 -0.8476 6.693366 2.447834 38.885375
33 11 1 0.4238 7.690373 2.490914 38.949562
34 12 1 0.4238 36.780837 43.742892 34.387888
35 12 2 -0.8476 36.660914 42.890886 33.878276
36 12 1 0.4238 37.531665 42.400752 33.838759
37 13 1 0.4238 29.128619 16.382063 7.608399
38 13 2 -0.8476 29.010058 16.866699 8.475042
39 13 1 0.4238 28.058407 16.789816 8.772448
40 14 1 0.4238 13.026752 14.397356 25.485989
41 14 2 -0.8476 13.722922 14.466008 26.200576
42 14 1 0.4238 13.278854 14.508449 27.095563
43 15 1 0.4238 14.82994 3.98244 46.647482
44 15 2 -0.8476 14.253714 4.084321 47.458398
45 15 1 0.4238 14.585219 3.477943 48.181177
46 16 1 0.4238 29.183596 32.636785 42.480475
47 16 2 -0.8476 28.984125 31.733199 42.859611
48 16 1 0.4238 29.773681 31.134144 42.72644
49 17 1 0.4238 1.586125 48.178039 12.677473
50 17 2 -0.8476 1.535468 47.92403 13.643347
51 17 1 0.4238 1.499976 46.927971 13.724628
52 18 1 0.4238 4.361365 48.175869 45.724933
53 18 2 -0.8476 4.349101 47.200904 45.946954
54 18 1 0.4238 4.997152 46.716963 45.358882
55 19 1 0.4238 26.193224 45.371935 39.906785
56 19 2 -0.8476 26.942871 45.897676 39.504757
57 19 1 0.4238 27.816577 45.498937 39.783405
58 20 1 0.4238 13.155766 23.96818 41.963595
59 20 2 -0.8476 13.901155 23.306184 41.885133
60 20 1 0.4238 13.534755 22.425831 41.583922
61 21 1 0.4238 24.184405 11.054337 22.495835
62 21 2 -0.8476 24.707272 11.890342 22.662284
63 21 1 0.4238 25.659363 11.654747 22.857265
64 22 1 0.4238 32.910308 43.128803 30.558684
65 22 2 -0.8476 33.269164 42.582785 29.801659
66 22 1 0.4238 33.396456 43.167156 29.000218
67 23 1 0.4238 21.995804 30.64053 48.178
68 23 2 -0.8476 21.929676 29.776937 47.678166
69 23 1 0.4238 20.972511 29.594314 47.453482
70 24 1 0.4238 45.911175 22.961806 43.852012
71 24 2 -0.8476 46.628195 22.608602 44.452952
72 24 1 0.4238 46.82611 23.280691 45.166482
73 25 1 0.4238 43.059259 13.115346 3.917284
74 25 2 -0.8476 43.46403 14.02243 3.801703
75 25 1 0.4238 43.226543 14.380817 2.898841
76 26 1 0.4238 19.479711 18.883325 19.230524
77 26 2 -0.8476 19.07413 19.786763 19.091588
78 26 1 0.4238 18.09426 19.689037 18.917505
79 27 1 0.4238 3.131031 29.810674 40.369614
80 27 2 -0.8476 3.498059 28.883363 40.442995
81 27 1 0.4238 4.471949 28.891433 40.216122
82 28 1 0.4238 13.965254 20.909429 39.041143
83 28 2 -0.8476 14.567623 20.779787 38.253523
84 28 1 0.4238 15.191509 20.019086 38.432689
85 29 1 0.4238 17.80118 17.37694 41.847301
86 29 2 -0.8476 18.132086 18.31953 41.892296
87 29 1 0.4238 18.964469 18.40705 41.34505
88 30 1 0.4238 42.54248 48.178023 9.274916
89 30 2 -0.8476 43.524931 48.020472 9.175079
90 30 1 0.4238 43.978355 48.176224 10.052659
91 31 1 0.4238 4.057132 11.392816 36.5085
92 31 2 -0.8476 3.703818 11.803804 35.668109
93 31 1 0.4238 4.06793 11.311361 34.877588
94 32 1 0.4238 12.981264 14.952999 31.404135
95 32 2 -0.8476 13.090766 15.946697 31.42808
96 32 1 0.4238 13.133123 16.254553 32.378569
97 33 1 0.4238 21.347396 36.943196 47.961883
98 33 2 -0.8476 20.41347 36.604329 48.075689
99 33 1 0.4238 19.788157 37.378105 48.176946
100 34 1 0.4238 48.074473 45.712042 34.874491
101 34 2 -0.8476 48.164378 46.186301 35.750273
102 34 1 0.4238 48.17809 47.174012 35.594583
103 35 1 0.4238 11.376421 10.931935 22.249994
104 35 2 -0.8476 10.613434 11.334393 21.744149
105 35 1 0.4238 9.858518 10.679856 21.703137
106 36 1 0.4238 12.511927 18.28062 11.201885
107 36 2 -0.8476 11.606728 17.85601 11.183999
108 36 1 0.4238 11.705432 16.860921 11.176488
109 37 1 0.4238 48.166122 22.987031 13.735409
110 37 2 -0.8476 47.906734 23.136851 12.781328
111 37 1 0.4238 48.162947 24.063995 12.507906
112 38 1 0.4238 37.498713 14.603403 18.608002
113 38 2 -0.8476 36.769008 15.270366 18.758642
114 38 1 0.4238 37.035684 15.896363 19.491452
115 39 1 0.4238 17.8016 12.539658 7.336781
116 39 2 -0.8476 16.909325 12.203014 7.035923
117 39 1 0.4238 16.84187 11.223256 7.224401
118 40 1 0.4238 16.032879 5.49382 32.49899
119 40 2 -0.8476 15.329478 4.874804 32.848341
120 40 1 0.4238 14.913152 4.379223 32.08606
121 41 1 0.4238 18.351492 40.564224 42.363999
122 41 2 -0.8476 18.928069 41.379529 42.41726
123 41 1 0.4238 19.701963 41.281935 41.791509
124 42 1 0.4238 13.76756 4.100087 22.518278
125 42 2 -0.8476 14.472587 4.139153 23.226383
126 42 1 0.4238 15.35519 3.882528 22.832486
127 43 1 0.4238 29.970678 40.729839 30.835796
128 43 2 -0.8476 29.803941 41.633866 31.229413
129 43 1 0.4238 30.657084 41.996725 31.604218
130 44 1 0.4238 22.320281 37.500672 1.5
131 44 2 -0.8476 21.602853 36.806683 1.560628
132 44 1 0.4238 21.32009 36.702007 2.514089
133 45 1 0.4238 36.113717 1.500031 33.285117
134 45 2 -0.8476 35.704143 1.510882 34.19733
135 45 1 0.4238 36.427736 1.520183 34.887494
136 46 1 0.4238 18.118027 31.259737 10.030694
137 46 2 -0.8476 18.434377 30.320121 9.900139
138 46 1 0.4238 17.740214 29.684689 10.238315
139 47 1 0.4238 5.116535 1.499492 42.925668
140 47 2 -0.8476 5.630225 2.074901 43.562087
141 47 1 0.4238 6.210992 1.499151 44.137605
142 48 1 0.4238 4.003654 32.297387 16.834116
143 48 2 -0.8476 4.763592 31.815268 17.27007
144 48 1 0.4238 4.576021 31.711486 18.246823
145 49 1 0.4238 27.61645 26.597322 29.107441
146 49 2 -0.8476 27.699173 27.003089 28.197216
147 49 1 0.4238 28.660681 27.012483 27.9226
148 50 1 0.4238 24.81147 8.69553 4.229414
149 50 2 -0.8476 23.959987 8.197017 4.392085
150 50 1 0.4238 24.013249 7.296565 3.960405
151 51 1 0.4238 26.176208 6.426498 22.258459
152 51 2 -0.8476 27.083912 6.393427 22.676765
153 51 1 0.4238 27.271164 5.463665 22.993748
154 52 1 0.4238 44.430119 4.644526 24.141252
155 52 2 -0.8476 44.992964 3.825062 24.03315
156 52 1 0.4238 45.854797 3.94526 24.525893
157 53 1 0.4238 5.566435 24.072051 25.400253
158 53 2 -0.8476 5.502608 24.946725 25.880743
159 53 1 0.4238 5.872594 24.847368 26.804452
160 54 1 0.4238 15.435105 26.077353 20.975539
161 54 2 -0.8476 16.10778 26.313303 21.67685
162 54 1 0.4238 15.646492 26.756557 22.445445
163 55 1 0.4238 12.71055 6.007121 23.914854
164 55 2 -0.8476 12.224596 5.99644 23.040935
165 55 1 0.4238 12.800385 6.407753 22.334333
166 56 1 0.4238 13.513294 22.492938 21.174117
167 56 2 -0.8476 13.619476 22.30534 22.150607
168 56 1 0.4238 12.778068 21.897436 22.505074
169 57 1 0.4238 24.105438 1.606948 13.449409
170 57 2 -0.8476 24.506326 2.458107 13.788258
171 57 1 0.4238 23.783991 3.043096 14.157065
172 58 1 0.4238 12.470692 33.264303 18.164486
173 58 2 -0.8476 12.268046 32.402294 18.629111
174 58 1 0.4238 12.747772 31.655009 18.169299
175 59 1 0.4238 34.442834 28.214626 20.570041
176 59 2 -0.8476 33.544248 27.78891 20.463692
177 59 1 0.4238 33.649316 26.890943 20.036358
178 60 1 0.4238 41.316622 3.478306 29.983913
179 60 2 -0.8476 41.684745 4.408065 29.978162
180 60 1 0.4238 42.684001 4.370856 29.967962
181 61 1 0.4238 27.311551 20.506885 7.163266
182 61 2 -0.8476 27.304181 19.506913 7.163001
183 61 1 0.4238 28.244001 19.166672 7.131773
184 62 1 0.4238 20.523362 1.879167 46.66837
185 62 2 -0.8476 19.759183 1.963425 47.307848
186 62 1 0.4238 19.988375 1.500284 48.163985
187 63 1 0.4238 27.562417 45.181211 48.108836
188 63 2 -0.8476 28.353901 45.788487 48.177893
189 63 1 0.4238 29.191746 45.261609 48.035009
190 64 1 0.4238 1.944755 9.52287 20.926715
191 64 2 -0.8476 2.863653 9.266721 21.22674
192 64 1 0.4238 3.315039 10.061022 21.633356
193 65 1 0.4238 39.339201 43.158264 38.61455
194 65 2 -0.8476 39.365032 43.808696 39.373674
195 65 1 0.4238 38.478614 43.816181 39.8365
196 66 1 0.4238 22.86736 48.178 20.581573
197 66 2 -0.8476 22.797155 47.180799 20.555848
198 66 1 0.4238 21.871807 46.904987 20.815963
199 67 1 0.4238 22.578903 45.151349 3.609541
200 67 2 -0.8476 23.306839 45.266192 2.933582
201 67 1 0.4238 23.726538 46.16693 3.045489
202 68 1 0.4238 42.652432 18.223266 41.63523
203 68 2 -0.8476 42.38171 18.081679 40.683041
204 68 1 0.4238 41.393792 18.209163 40.594916
205 69 1 0.4238 25.839247 2.694516 1.498973
206 69 2 -0.8476 25.923435 1.704333 1.610546
207 69 1 0.4238 26.722827 1.499317 2.175294
208 70 1 0.4238 28.748637 3.807747 42.542069
209 70 2 -0.8476 28.239822 4.249869 43.280741
210 70 1 0.4238 27.320988 4.480891 42.960783
211 71 1 0.4238 21.953695 14.019963 17.236396
212 71 2 -0.8476 22.857722 14.394871 17.031023
213 71 1 0.4238 23.212201 14.870247 17.836232
214 72 1 0.4238 37.424329 44.280934 5.259485
215 72 2 -0.8476 36.974848 43.628816 5.869984
216 72 1 0.4238 36.055819 43.956405 6.089235
217 73 1 0.4238 11.369701 6.221593 35.016978
218 73 2 -0.8476 10.613679 5.567056 35.020392
219 73 1 0.4238 10.978797 4.636095 35.021088
220 74 1 0.4238 17.962785 4.425467 42.648395
221 74 2 -0.8476 18.165833 4.908842 41.796856
222 74 1 0.4238 17.869992 4.353489 41.019643
223 75 1 0.4238 7.426226 1.538581 24.046726
224 75 2 -0.8476 7.449551 1.62508 25.042704
225 75 1 0.4238 6.527823 1.499984 25.409813
226 76 1 0.4238 24.062948 1.801748 40.438539
227 76 2 -0.8476 24.318038 1.52082 41.363747
228 76 1 0.4238 23.531364 1.624428 41.972359
229 77 1 0.4238 38.579017 39.691433 41.910411
230 77 2 -0.8476 39.559804 39.523512 41.811125
231 77 1 0.4238 39.721312 38.541864 41.709722
232 78 1 0.4238 27.031926 14.186538 13.452363
233 78 2 -0.8476 26.111469 14.569031 13.371998
234 78 1 0.4238 25.444081 13.825522 13.329716
235 79 1 0.4238 31.982933 4.124678 20.446824
236 79 2 -0.8476 32.391331 5.034631 20.374742
237 79 1 0.4238 33.377651 4.947185 20.235003
238 80 1 0.4238 5.676117 2.702468 6.763613
239 80 2 -0.8476 4.699799 2.49079 6.80828
240 80 1 0.4238 4.57134 1.499937 6.766953
241 81 1 0.4238 24.201322 21.885344 48.178
242 81 2 -0.8476 23.422518 21.500909 47.682346
243 81 1 0.4238 23.100997 20.679002 48.152552
244 82 1 0.4238 34.187289 34.709876 44.543511
245 82 2 -0.8476 34.748653 33.910762 44.758656
246 82 1 0.4238 34.1556 33.129846 44.95476
247 83 1 0.4238 46.465721 41.619222 39.244486
248 83 2 -0.8476 46.390847 41.588128 38.247778
249 83 1 0.4238 45.926186 40.745849 37.974546
250 84 1 0.4238 35.238995 34.381665 3.328561
251 84 2 -0.8476 35.538331 33.430249 3.400715
252 84 1 0.4238 36.476939 33.34978 3.065248
253 85 1 0.4238 14.689479 28.483021 10.11407
254 85 2 -0.8476 13.825119 28.041158 9.873991
255 85 1 0.4238 13.934619 27.048189 9.918961
256 86 1 0.4238 32.475408 37.209621 23.534747
257 86 2 -0.8476 32.634065 38.133304 23.883514
258 86 1 0.4238 31.756583 38.59206 24.023398
259 87 1 0.4238 45.75545 20.080029 1.499885
260 87 2 -0.8476 45.861676 21.073179 1.548542
261 87 1 0.4238 45.908902 21.356816 2.506311
262 88 1 0.4238 24.636838 36.347924 35.465846
263 88 2 -0.8476 24.659327 37.334928 35.624959
264 88 1 0.4238 23.724477 37.681512 35.701992
265 89 1 0.4238 27.596297 24.144253 43.454691
266 89 2 -0.8476 28.101909 24.791602 42.884344
267 89 1 0.4238 28.868921 25.166311 43.405195
268 90 1 0.4238 48.177997 15.612507 35.759507
269 90 2 -0.8476 47.671437 15.581855 36.621167
270 90 1 0.4238 46.749213 15.941275 36.478615
271 91 1 0.4238 9.449445 5.985939 42.380881
272 91 2 -0.8476 9.33593 5.020965 42.144365
273 91 1 0.4238 10.108404 4.496808 42.502893
274 92 1 0.4238 48.155693 29.314495 38.415555
275 92 2 -0.8476 47.817241 28.455731 38.030881
276 92 1 0.4238 48.178024 27.688124 38.560611
277 93 1 0.4238 12.312432 28.851444 12.015085
278 93 2 -0.8476 13.234859 28.957263 12.386476
279 93 1 0.4238 13.272713 29.778388 12.955967
280 94 1 0.4238 39.468197 33.854836 32.475307
281 94 2 -0.8476 40.340695 34.181311 32.111766
282 94 1 0.4238 40.251665 35.140219 31.842382
283 95 1 0.4238 6.559458 1.499564 47.972528
284 95 2 -0.8476 5.595233 1.703706 47.803424
285 95 1 0.4238 5.374798 2.604734 48.176998
286 96 1 0.4238 48.118346 47.188188 23.175606
287 96 2 -0.8476 48.178 48.132723 23.498554
288 96 1 0.4238 48.159811 48.144928 24.498313
289 97 1 0.4238 14.24617 30.761692 39.334123
290 97 2 -0.8476 13.37726 30.760676 39.82909
291 97 1 0.4238 13.086405 31.703153 39.993835
292 98 1 0.4238 22.321124 35.158809 20.819463
293 98 2 -0.8476 21.80554 34.567204 21.439283
294 98 1 0.4238 21.754506 34.994162 22.342113
295 99 1 0.4238 34.8995 13.449484 12.09366
296 99 2 -0.8476 35.127408 13.656129 13.045162
297 99 1 0.4238 35.871933 13.060417 13.346507
298 100 1 0.4238 28.589222 44.458436 21.920574
299 100 2 -0.8476 29.351839 43.922947 22.283433
300 100 1 0.4238 29.785623 44.425176 23.031495
301 101 1 0.4238 1.49899 1.499801 48.178226
302 101 2 -0.8476 2.315484 2.077154 48.178252
303 101 1 0.4238 3.13197 1.499789 48.178266
304 102 1 0.4238 18.515656 2.799501 3.787154
305 102 2 -0.8476 18.895124 3.658252 4.131465
306 102 1 0.4238 18.150971 4.297578 4.325107
307 103 1 0.4238 17.238931 38.792715 15.473007
308 103 2 -0.8476 17.97047 38.356994 14.948605
309 103 1 0.4238 18.573439 39.059451 14.570474
310 104 1 0.4238 48.137609 10.809458 6.945466
311 104 2 -0.8476 48.178432 11.635115 6.382773
312 104 1 0.4238 47.482941 12.283802 6.691801
313 105 1 0.4238 41.354762 25.15409 8.403805
314 105 2 -0.8476 42.120507 25.354836 7.792793
315 105 1 0.4238 41.859883 26.08424 7.160301
316 106 1 0.4238 23.979281 47.593611 17.553095
317 106 2 -0.8476 24.099342 48.178 18.355637
318 106 1 0.4238 24.85556 47.831101 18.91043
319 107 1 0.4238 48.178034 14.545858 46.665716
320 107 2 -0.8476 48.023137 13.722921 47.212325
321 107 1 0.4238 48.178102 13.930299 48.178234
322 108 1 0.4238 7.268933 41.580336 36.231181
323 108 2 -0.8476 7.023164 40.704758 35.815296
324 108 1 0.4238 6.028669 40.643667 35.73016
325 109 1 0.4238 38.75607 37.140987 32.974804
326 109 2 -0.8476 39.347088 37.730555 33.525354
327 109 1 0.4238 39.425468 37.354978 34.448825
328 110 1 0.4238 41.886668 42.88133 47.042398
329 110 2 -0.8476 42.254313 42.225628 47.701861
330 110 1 0.4238 41.500167 41.772816 48.177491
331 111 1 0.4238 22.85141 27.956922 15.986069
332 111 2 -0.8476 23.353912 27.564003 15.215935
333 111 1 0.4238 24.078913 26.967619 15.560463
334 112 1 0.4238 19.398366 14.976744 45.947544
335 112 2 -0.8476 20.349549 14.825139 45.678722
336 112 1 0.4238 20.482342 13.860051 45.452955
337 113 1 0.4238 12.125287 44.096153 45.996946
338 113 2 -0.8476 11.42277 44.59629 46.503239
339 113 1 0.4238 11.729074 45.535411 46.658894
340 114 1 0.4238 41.686314 48.170228 27.335876
341 114 2 -0.8476 42.14058 47.307439 27.113982
342 114 1 0.4238 43.128457 47.411654 27.229039
343 115 1 0.4238 6.160545 32.714301 1.499925
344 115 2 -0.8476 5.346004 32.771712 2.077183
345 115 1 0.4238 4.53141 32.826308 1.499727
346 116 1 0.4238 7.614729 29.607909 48.178003
347 116 2 -0.8476 8.307569 30.286513 47.93414
348 116 1 0.4238 8.667815 30.082747 47.023809
349 117 1 0.4238 40.765324 19.384288 21.575288
350 117 2 -0.8476 40.835486 18.457672 21.205882
351 117 1 0.4238 41.608793 17.987111 21.630816
352 118 1 0.4238 34.193781 38.411043 38.612422
353 118 2 -0.8476 33.477058 38.304162 37.923303
354 118 1 0.4238 33.391774 39.150233 37.3971
355 119 1 0.4238 2.02399 48.137587 22.213089
356 119 2 -0.8476 1.549794 47.74941 23.003314
357 119 1 0.4238 1.96784 48.092452 23.84448
358 120 1 0.4238 44.33445 12.825949 8.297591
359 120 2 -0.8476 45.333069 12.773507 8.29442
360 120 1 0.4238 45.61646 11.814528 8.287422
361 121 1 0.4238 10.224243 10.684523 16.701701
362 121 2 -0.8476 9.23619 10.749194 16.561814
363 121 1 0.4238 8.974724 11.710038 16.470087
364 122 1 0.4238 18.485545 21.391724 12.162202
365 122 2 -0.8476 17.989501 20.529522 12.0595
366 122 1 0.4238 17.215141 20.5131 12.692033
367 123 1 0.4238 32.992134 6.346675 33.101577
368 123 2 -0.8476 33.456126 5.712652 32.482928
369 123 1 0.4238 34.418221 5.635728 32.744567
370 124 1 0.4238 27.838896 41.447905 28.237683
371 124 2 -0.8476 27.813036 41.180506 29.200922
372 124 1 0.4238 26.939766 40.735825 29.400066
373 125 1 0.4238 1.499987 37.612115 10.019904
374 125 2 -0.8476 2.076674 38.428856 10.039061
375 125 1 0.4238 1.499971 39.242411 10.113512
376 126 1 0.4238 29.764126 17.908415 18.041993
377 126 2 -0.8476 29.800475 16.909169 18.028343
378 126 1 0.4238 28.87043 16.541948 18.015457
379 127 1 0.4238 14.89545 29.959652 43.886358
380 127 2 -0.8476 13.921259 30.173147 43.959652
381 127 1 0.4238 13.395138 29.323275 43.989868
382 128 1 0.4238 1.499744 35.361568 8.139602
383 128 2 -0.8476 2.044196 35.287853 8.975149
384 128 1 0.4238 1.499945 34.848727 9.689963
385 129 1 0.4238 13.088984 32.752294 43.982637
386 129 2 -0.8476 12.199097 32.964749 44.386325
387 129 1 0.4238 12.328021 33.300983 45.319237
388 130 1 0.4238 20.784863 1.49986 1.499939
389 130 2 -0.8476 19.80853 1.714435 1.52698
390 130 1 0.4238 19.686431 2.705522 1.580268
391 131 1 0.4238 48.09012 21.267458 45.974115
392 131 2 -0.8476 48.178292 20.644777 46.751607
393 131 1 0.4238 47.969954 19.712144 46.457004
394 132 1 0.4238 42.386423 27.149834 37.912204
395 132 2 -0.8476 42.265383 27.059743 36.923653
396 132 1 0.4238 42.612124 26.170581 36.625057
397 133 1 0.4238 16.477192 6.021473 39.783552
398 133 2 -0.8476 15.598039 6.153319 39.325616
399 133 1 0.4238 14.950142 6.57181 39.962087
400 134 1 0.4238 42.937531 10.200205 12.501196
401 134 2 -0.8476 43.251469 9.307136 12.178905
402 134 1 0.4238 44.212752 9.368757 11.910322
403 135 1 0.4238 40.272363 8.331434 14.620556
404 135 2 -0.8476 40.604768 7.851132 13.808881
405 135 1 0.4238 40.866345 8.517754 13.110888
406 136 1 0.4238 34.82282 26.688578 8.602872
407 136 2 -0.8476 35.611199 27.292768 8.718684
408 136 1 0.4238 36.439422 26.742952 8.827071
409 137 1 0.4238 31.716552 7.104454 7.264355
410 137 2 -0.8476 30.849134 7.570426 7.089841
411 137 1 0.4238 30.204914 7.362117 7.825767
412 138 1 0.4238 43.047238 36.933987 17.466544
413 138 2 -0.8476 43.517257 36.386641 16.774089
414 138 1 0.4238 43.992458 36.99271 16.136229
415 139 1 0.4238 37.162872 13.631653 8.042534
416 139 2 -0.8476 36.307973 13.743515 7.535943
417 139 1 0.4238 36.061179 14.712191 7.508364
418 140 1 0.4238 39.457692 39.699657 8.727476
419 140 2 -0.8476 40.118722 38.97831 8.934105
420 140 1 0.4238 39.632351 38.127435 9.132737
421 141 1 0.4238 46.078892 17.62865 31.745565
422 141 2 -0.8476 45.882267 16.984405 31.006453
423 141 1 0.4238 46.141423 17.39232 30.130987
424 142 1 0.4238 32.269047 25.241281 44.002272
425 142 2 -0.8476 32.881518 24.46428 44.147693
426 142 1 0.4238 33.83073 24.776955 44.112604
427 143 1 0.4238 42.239836 26.782691 11.850403
428 143 2 -0.8476 41.381798 26.271041 11.805864
429 143 1 0.4238 41.465567 25.537858 11.131012
430 144 1 0.4238 41.122451 45.741464 22.171598
431 144 2 -0.8476 40.327813 46.136888 22.632239
432 144 1 0.4238 39.70746 45.404925 22.914003
433 145 1 0.4238 13.969158 6.553144 34.313833
434 145 2 -0.8476 14.111706 6.091191 35.189207
435 145 1 0.4238 13.902468 5.118307 35.090635
436 146 1 0.4238 35.085193 19.546355 19.440466
437 146 2 -0.8476 34.70469 20.086407 20.191173
438 146 1 0.4238 34.726535 21.056276 19.948529
439 147 1 0.4238 31.025598 13.809257 16.279228
440 147 2 -0.8476 31.503876 12.945008 16.435186
441 147 1 0.4238 31.544297 12.427473 15.58048
442 148 1 0.4238 26.211583 18.093728 30.430716
443 148 2 -0.8476 26.41383 17.4182 31.13977
444 148 1 0.4238 25.561083 17.005409 31.459811
445 149 1 0.4238 4.903653 11.600081 29.860453
446 149 2 -0.8476 4.590927 11.927554 28.968845
447 149 1 0.4238 4.395061 12.90667 29.023324
448 150 1 0.4238 32.46125 44.220643 38.273147
449 150 2 -0.8476 32.739692 44.96017 38.885985
450 150 1 0.4238 33.589275 44.707376 39.348915
451 151 1 0.4238 19.468882 17.497083 47.472086
452 151 2 -0.8476 18.889804 17.087615 48.177071
453 151 1 0.4238 18.328073 16.367317 47.770096
454 152 1 0.4238 36.118124 29.740987 44.779526
455 152 2 -0.8476 36.346185 30.702158 44.62416
456 152 1 0.4238 35.808486 31.276321 45.241587
457 153 1 0.4238 32.196451 14.430954 43.60004
458 153 2 -0.8476 31.98288 13.457217 43.678925
459 153 1 0.4238 32.629139 13.024067 44.3072
460 154 1 0.4238 20.967511 42.340466 19.657066
461 154 2 -0.8476 20.384838 41.65616 19.21864
462 154 1 0.4238 19.589876 42.106442 18.812093
463 155 1 0.4238 43.510276 26.462306 40.036876
464 155 2 -0.8476 43.395625 26.470431 41.030248
465 155 1 0.4238 43.074831 25.574021 41.336092
466 156 1 0.4238 10.888008 29.808259 43.135562
467 156 2 -0.8476 11.02395 30.735315 42.786151
468 156 1 0.4238 11.889564 30.779954 42.287435
469 157 1 0.4238 28.208322 12.968288 1.905689
470 157 2 -0.8476 28.413667 13.92119 1.682504
471 157 1 0.4238 29.392138 14.017351 1.499894
472 158 1 0.4238 35.00489 33.917483 15.948869
473 158 2 -0.8476 34.394935 34.531615 15.448073
474 158 1 0.4238 34.862321 34.873877 14.632962
475 159 1 0.4238 27.621093 46.79388 41.914941
476 159 2 -0.8476 28.49248 47.17695 42.221441
477 159 1 0.4238 29.157043 46.439403 42.341352
478 160 1 0.4238 27.065005 10.699312 9.01188
479 160 2 -0.8476 26.774471 10.801187 8.060455
480 160 1 0.4238 26.620651 11.768887 7.860714
481 161 1 0.4238 34.496116 27.689778 42.026052
482 161 2 -0.8476 35.10059 28.359666 42.457168
483 161 1 0.4238 35.853562 27.884682 42.912607
484 162 1 0.4238 43.821538 34.063426 24.506961
485 162 2 -0.8476 44.554049 33.399114 24.655674
486 162 1 0.4238 44.780521 33.365004 25.629094
487 163 1 0.4238 3.701797 11.595168 15.066201
488 163 2 -0.8476 3.744198 11.648977 16.063851
489 163 1 0.4238 4.101184 10.789256 16.429147
490 164 1 0.4238 33.415597 14.922261 25.204777
491 164 2 -0.8476 32.695339 15.575221 24.97053
492 164 1 0.4238 31.948872 15.499448 25.631624
493 165 1 0.4238 38.481943 22.429732 7.24193
494 165 2 -0.8476 37.840074 21.980299 7.86323
495 165 1 0.4238 37.545328 22.629256 8.564643
496 166 1 0.4238 1.499983 24.661913 47.924099
497 166 2 -0.8476 2.490464 24.652868 48.061455
498 166 1 0.4238 2.81936 25.59 48.178114
499 167 1 0.4238 22.312557 41.578025 14.218327
500 167 2 -0.8476 21.854535 41.066521 13.491292
501 167 1 0.4238 20.903537 40.897992 13.750521
502 168 1 0.4238 5.641822 42.285921 29.039139
503 168 2 -0.8476 5.234039 41.648844 29.693238
504 168 1 0.4238 5.887133 41.460767 30.426787
505 169 1 0.4238 47.397917 7.878713 32.494133
506 169 2 -0.8476 48.178026 7.909731 33.119007
507 169 1 0.4238 48.078024 7.196405 33.812668
508 170 1 0.4238 47.842693 12.051826 38.275954
509 170 2 -0.8476 48.008255 13.026972 38.12871
510 170 1 0.4238 48.178076 13.193278 37.157369
511 171 1 0.4238 23.126081 15.55405 5.915632
512 171 2 -0.8476 22.234545 15.797508 5.533676
513 171 1 0.4238 22.364419 16.336459 4.701412
514 172 1 0.4238 37.373338 22.389544 28.437674
515 172 2 -0.8476 36.747906 21.62178 28.298482
516 172 1 0.4238 36.944421 20.906062 28.968652
517 173 1 0.4238 38.151354 14.828825 6.058704
518 173 2 -0.8476 37.850653 15.594924 5.490663
519 173 1 0.4238 37.380317 16.268311 6.061042
520 174 1 0.4238 20.292196 29.791247 30.93788
521 174 2 -0.8476 20.236674 28.799088 31.049854
522 174 1 0.4238 21.016335 28.368226 30.595446
523 175 1 0.4238 1.509739 24.313301 26.852377
524 175 2 -0.8476 1.776797 24.10968 25.910454
525 175 1 0.4238 1.5 24.863928 25.315061
526 176 1 0.4238 36.439553 12.442572 25.487904
527 176 2 -0.8476 36.729965 13.393073 25.377407
528 176 1 0.4238 35.971294 13.9332 25.013153
529 177 1 0.4238 24.775686 1.499827 44.699766
530 177 2 -0.8476 23.795325 1.668355 44.802189
531 177 1 0.4238 23.525419 1.499882 45.750222
532 178 1 0.4238 48.174199 14.035089 14.901593
533 178 2 -0.8476 47.196121 13.827051 14.892417
534 178 1 0.4238 46.744306 14.316154 15.638501
535 179 1 0.4238 27.193275 34.733025 8.653631
536 179 2 -0.8476 27.348614 34.13203 7.869619
537 179 1 0.4238 26.639924 33.426956 7.844551
538 180 1 0.4238 30.906689 44.296111 3.85737
539 180 2 -0.8476 31.845669 44.332988 3.51538
540 180 1 0.4238 32.263356 45.201807 3.781256
541 181 1 0.4238 28.191661 47.070073 14.77759
542 181 2 -0.8476 28.854685 46.537122 15.303292
543 181 1 0.4238 28.405179 45.72996 15.685958
544 182 1 0.4238 33.487658 36.996236 28.265169
545 182 2 -0.8476 34.083574 37.751354 27.991892
546 182 1 0.4238 33.892873 37.999539 27.042136
547 183 1 0.4238 21.804337 30.158904 28.688277
548 183 2 -0.8476 21.658649 30.420436 27.73414
549 183 1 0.4238 22.349301 29.981845 27.15913
550 184 1 0.4238 22.885822 29.977413 14.037592
551 184 2 -0.8476 22.844582 30.89927 14.42292
552 184 1 0.4238 22.199122 31.452208 13.896004
553 185 1 0.4238 18.893072 21.858032 34.299849
554 185 2 -0.8476 19.292703 22.572013 33.724936
555 185 1 0.4238 20.096485 22.209263 33.253398
556 186 1 0.4238 1.5 17.078688 23.009349
557 186 2 -0.8476 1.62604 17.468395 22.097075
558 186 1 0.4238 1.500001 18.459587 22.137716
559 187 1 0.4238 19.416359 4.122742 45.891488
560 187 2 -0.8476 18.859111 3.765073 45.142123
561 187 1 0.4238 19.455611 3.453735 44.402356
562 188 1 0.4238 12.079122 14.227375 5.57233
563 188 2 -0.8476 12.384334 15.163808 5.745358
564 188 1 0.4238 11.589376 15.749915 5.901945
565 189 1 0.4238 29.313014 15.329042 12.441759
566 189 2 -0.8476 29.685671 15.198111 11.523073
567 189 1 0.4238 29.620299 16.054936 11.011626
568 190 1 0.4238 48.053464 48.178003 19.739874
569 190 2 -0.8476 48.178005 47.60738 18.92816
570 190 1 0.4238 48.126856 48.178005 18.108543
571 191 1 0.4238 8.926118 48.080318 40.989564
572 191 2 -0.8476 8.09186 48.178026 41.532211
573 191 1 0.4238 8.324908 48.178326 42.504676
574 192 1 0.4238 47.704315 33.362132 10.556026
575 192 2 -0.8476 46.707815 33.307121 10.618967
576 192 1 0.4238 46.390133 32.477483 10.159861
577 193 1 0.4238 1.607688 4.498496 17.3611
578 193 2 -0.8476 2.44826 4.296209 17.863613
579 193 1 0.4238 3.074055 5.072975 17.792803
580 194 1 0.4238 40.432181 24.841787 30.204102
581 194 2 -0.8476 40.308125 25.736118 30.633964
582 194 1 0.4238 40.861045 25.785726 31.46572
583 195 1 0.4238 39.448088 7.776057 21.431955
584 195 2 -0.8476 38.597217 7.250853 21.445346
585 195 1 0.4238 37.819658 7.877308 21.499701
586 196 1 0.4238 13.7156 13.91784 15.696342
587 196 2 -0.8476 14.514975 13.750589 16.273427
588 196 1 0.4238 14.702691 14.562449 16.826279
589 197 1 0.4238 35.875358 8.999862 19.958892
590 197 2 -0.8476 35.898986 9.073742 18.961904
591 197 1 0.4238 35.322837 9.837381 18.670518
592 198 1 0.4238 3.018596 9.408633 26.448786
593 198 2 -0.8476 2.432101 9.538603 27.248243
594 198 1 0.4238 1.499993 9.741669 26.948345
595 199 1 0.4238 22.265929 16.856222 41.720562
596 199 2 -0.8476 21.509359 16.211707 41.6101
597 199 1 0.4238 21.873476 15.28976 41.478071
598 200 1 0.4238 8.289663 16.38408 26.107417
599 200 2 -0.8476 8.528608 16.195098 27.059883
600 200 1 0.4238 8.392377 17.020481 27.607773
601 201 1 0.4238 36.214637 42.390839 10.776283
602 201 2 -0.8476 37.040423 41.855371 10.599218
603 201 1 0.4238 36.785657 40.963887 10.224585
604 202 1 0.4238 7.568256 8.597949 20.071306
605 202 2 -0.8476 8.344666 7.972201 19.996294
606 202 1 0.4238 9.188541 8.459741 20.220301
607 203 1 0.4238 23.547885 46.905032 44.36567
608 203 2 -0.8476 23.575994 47.334783 43.46316
609 203 1 0.4238 22.954815 48.118297 43.447584
610 204 1 0.4238 42.602967 37.086643 10.37574
611 204 2 -0.8476 42.408781 37.644342 9.568731
612 204 1 0.4238 42.720839 38.580976 9.727898
613 205 1 0.4238 10.703395 46.673826 15.813894
614 205 2 -0.8476 10.395291 47.169445 15.001839
615 205 1 0.4238 10.554849 48.14849 15.128382
616 206 1 0.4238 33.214349 30.717641 24.6961
617 206 2 -0.8476 33.691464 31.596433 24.705436
618 206 1 0.4238 33.33701 32.160233 25.451419
619 207 1 0.4238 44.169442 5.31207 1.612605
620 207 2 -0.8476 44.575056 4.431594 1.858041
621 207 1 0.4238 43.990788 3.691222 1.525655
622 208 1 0.4238 25.506503 36.620664 26.574235
623 208 2 -0.8476 26.30961 37.178177 26.784467
624 208 1 0.4238 27.112044 36.587672 26.870503
625 209 1 0.4238 44.601629 22.075081 29.305348
626 209 2 -0.8476 43.897304 22.602641 28.830368
627 209 1 0.4238 43.809967 22.271841 27.890717
628 210 1 0.4238 16.091428 2.742476 16.234512
629 210 2 -0.8476 16.158037 1.747298 16.30651
630 210 1 0.4238 16.479151 1.500001 17.220693
631 211 1 0.4238 10.309487 38.420006 9.948721
632 211 2 -0.8476 11.02916 37.828274 10.311934
633 211 1 0.4238 10.669006 36.903822 10.437143
634 212 1 0.4238 11.408571 6.965672 39.636214
635 212 2 -0.8476 10.691696 6.537134 40.186163
636 212 1 0.4238 10.845132 5.549654 40.222775
637 213 1 0.4238 36.782932 1.5 10.174848
638 213 2 -0.8476 36.23944 1.98386 10.860775
639 213 1 0.4238 36.354696 1.541416 11.750133
640 214 1 0.4238 1.499912 44.734792 12.523408
641 214 2 -0.8476 1.939147 44.091087 11.896738
642 214 1 0.4238 1.500005 44.146603 11.000038
643 215 1 0.4238 25.698758 19.215571 33.071265
644 215 2 -0.8476 24.721548 19.380546 33.204851
645 215 1 0.4238 24.253752 18.509357 33.353832
646 216 1 0.4238 28.828745 24.13219 45.824857
647 216 2 -0.8476 28.187646 23.576717 46.354425
648 216 1 0.4238 27.264085 23.694789 45.989606
649 217 1 0.4238 17.655186 2.466005 37.1882
650 217 2 -0.8476 17.806598 1.567157 36.776925
651 217 1 0.4238 17.290255 1.499993 35.923181
652 218 1 0.4238 25.543243 9.458557 46.202568
653 218 2 -0.8476 24.753186 9.682815 45.632026
654 218 1 0.4238 24.840801 9.225833 44.746876
655 219 1 0.4238 39.079859 12.473734 17.955834
656 219 2 -0.8476 38.553504 11.890022 18.574083
657 219 1 0.4238 38.349946 11.02229 18.120646
658 220 1 0.4238 7.149397 44.965404 34.206691
659 220 2 -0.8476 6.259505 44.665852 34.550729
660 220 1 0.4238 6.381038 43.863969 35.135719
661 221 1 0.4238 12.30844 36.697299 12.63382
662 221 2 -0.8476 12.935374 36.652598 11.856031
663 221 1 0.4238 13.876243 36.592091 12.189354
664 222 1 0.4238 37.252547 38.972725 39.127801
665 222 2 -0.8476 38.012564 39.612177 39.24389
666 222 1 0.4238 37.658103 40.546019 39.291801
667 223 1 0.4238 10.235508 29.81361 34.391899
668 223 2 -0.8476 10.186242 30.798213 34.559617
669 223 1 0.4238 9.229361 31.088691 34.560606
670 224 1 0.4238 42.42809 2.405059 48.146557
671 224 2 -0.8476 42.853913 1.5008 48.178038
672 224 1 0.4238 43.841848 1.593093 48.053678
673 225 1 0.4238 35.46657 39.915153 25.005976
674 225 2 -0.8476 35.402379 40.906806 25.117793
675 225 1 0.4238 36.313662 41.310863 25.038421
676 226 1 0.4238 45.910045 26.534672 16.761812
677 226 2 -0.8476 45.647176 27.207822 16.070604
678 226 1 0.4238 45.904983 28.122696 16.381313
679 227 1 0.4238 25.306234 5.705666 5.602406
680 227 2 -0.8476 25.304544 4.752078 5.903517
681 227 1 0.4238 24.425802 4.538954 6.330588
682 228 1 0.4238 38.142531 25.530859 27.912948
683 228 2 -0.8476 38.348459 26.509183 27.934774
684 228 1 0.4238 38.428138 26.811922 28.88451
685 229 1 0.4238 48.177984 27.714885 7.853112
686 229 2 -0.8476 47.961138 27.334004 6.954276
687 229 1 0.4238 48.178019 26.357853 6.944768
688 230 1 0.4238 41.509582 32.346127 41.048108
689 230 2 -0.8476 42.365844 32.08323 41.492742
690 230 1 0.4238 42.216379 31.263376 42.045461
691 231 1 0.4238 24.124927 40.39957 30.002467
692 231 2 -0.8476 24.610161 40.656135 30.838363
693 231 1 0.4238 24.091618 41.361529 31.321615
694 232 1 0.4238 26.815371 2.936417 44.860486
695 232 2 -0.8476 26.46042 3.804186 45.208318
696 232 1 0.4238 25.598719 3.642969 45.689441
697 233 1 0.4238 37.151658 2.996523 23.814245
698 233 2 -0.8476 37.358833 2.029718 23.963795
699 233 1 0.4238 37.219696 1.523492 23.112693
700 234 1 0.4238 4.035525 33.881659 8.421053
701 234 2 -0.8476 4.663147 33.173015 8.098693
702 234 1 0.4238 4.716613 32.441037 8.777919
703 235 1 0.4238 8.68653 46.075475 1.577036
704 235 2 -0.8476 7.752215 45.719282 1.563518
705 235 1 0.4238 7.776731 44.721644 1.499362
706 236 1 0.4238 6.395074 20.811686 9.029379
707 236 2 -0.8476 7.052446 20.708901 9.775902
708 236 1 0.4238 7.976278 20.877108 9.432042
709 237 1 0.4238 47.677519 29.649076 6.054308
710 237 2 -0.8476 48.10519 30.009741 5.225443
711 237 1 0.4238 48.178589 31.004677 5.29411
712 238 1 0.4238 44.651561 46.744353 48.084984
713 238 2 -0.8476 44.763435 47.73355 48.179711
714 238 1 0.4238 43.870177 48.177993 48.112182
715 239 1 0.4238 4.212563 9.220908 23.937172
716 239 2 -0.8476 4.703693 8.721741 23.223293
717 239 1 0.4238 4.182936 7.907206 22.967669
718 240 1 0.4238 32.754977 42.698729 1.500005
719 240 2 -0.8476 33.23842 41.823353 1.500445
720 240 1 0.4238 32.574239 41.075781 1.500875
721 241 1 0.4238 24.57331 14.884332 41.129849
722 241 2 -0.8476 25.362116 14.79304 41.737674
723 241 1 0.4238 25.94207 14.042589 41.420694
724 242 1 0.4238 11.692998 48.010836 46.29445
725 242 2 -0.8476 12.605383 48.178321 45.920951
726 242 1 0.4238 12.923322 47.361805 45.439063
727 243 1 0.4238 29.276511 48.146272 48.172712
728 243 2 -0.8476 30.104056 47.584886 48.17656
729 243 1 0.4238 30.909175 48.177997 48.177989
730 244 1 0.4238 30.202662 45.29237 38.259985
731 244 2 -0.8476 29.987417 46.151852 38.723622
732 244 1 0.4238 30.330218 46.119065 39.662458
733 245 1 0.4238 48.072241 18.285452 36.460121
734 245 2 -0.8476 48.027047 18.5989 35.511592
735 245 1 0.4238 48.178007 19.586918 35.479497
736 246 1 0.4238 2.928094 28.93904 1.499663
737 246 2 -0.8476 2.137982 28.431575 1.84347
738 246 1 0.4238 1.499782 29.064938 2.281136
739 247 1 0.4238 12.702367 11.824818 48.178068
740 247 2 -0.8476 12.789802 10.828785 48.161489
741 247 1 0.4238 11.879751 10.414449 48.149982
742 248 1 0.4238 14.045524 8.796909 18.606634
743 248 2 -0.8476 14.109842 7.810142 18.45779
744 248 1 0.4238 15.017264 7.585029 18.102952
745 249 1 0.4238 46.658635 17.466783 38.990471
746 249 2 -0.8476 47.61674 17.501824 39.274738
747 249 1 0.4238 48.17804 16.998939 38.617434
748 250 1 0.4238 25.577602 31.14939 46.189749
749 250 2 -0.8476 24.593612 31.063911 46.033362
750 250 1 0.4238 24.131789 30.889692 46.903055
751 251 1 0.4238 8.023993 30.10633 30.186818
752 251 2 -0.8476 7.928561 29.695916 29.279926
753 251 1 0.4238 8.508412 28.883472 29.219047
754 252 1 0.4238 17.602529 29.125373 48.144916
755 252 2 -0.8476 18.585231 29.062136 47.97085
756 252 1 0.4238 18.901531 28.136371 48.178002
757 253 1 0.4238 21.045996 22.032176 5.138362
758 253 2 -0.8476 21.944989 21.722397 4.828767
759 253 1 0.4238 22.604888 22.467891 4.922415
760 254 1 0.4238 28.450707 21.256936 34.799959
761 254 2 -0.8476 28.069618 21.179844 35.721278
762 254 1 0.4238 28.775041 20.846865 36.34698
763 255 1 0.4238 29.863686 35.482731 4.867924
764 255 2 -0.8476 30.088287 36.378995 4.485476
765 255 1 0.4238 30.270365 36.287498 3.506459
766 256 1 0.4238 26.56787 9.027524 28.86639
767 256 2 -0.8476 26.821949 8.627055 27.98601
768 256 1 0.4238 27.358545 7.79733 28.139699
769 257 1 0.4238 48.178114 16.82579 41.876768
770 257 2 -0.8476 47.927334 17.792851 41.920398
771 257 1 0.4238 46.93118 17.878322 41.939685
772 258 1 0.4238 1.666091 18.58406 1.569289
773 258 2 -0.8476 2.663322 18.612692 1.500656
774 258 1 0.4238 3.050597 18.880312 2.382924
775 259 1 0.4238 8.028689 14.163936 33.712208
776 259 2 -0.8476 8.082074 14.903604 34.383059
777 259 1 0.4238 7.220267 14.959153 34.887244
778 260 1 0.4238 14.746005 47.750083 43.772638
779 260 2 -0.8476 15.285825 48.177785 44.497665
780 260 1 0.4238 15.410409 47.528304 45.247767
781 261 1 0.4238 48.17512 1.500263 5.907202
782 261 2 -0.8476 47.505171 1.841314 6.566635
783 261 1 0.4238 46.596158 1.502648 6.323734
784 262 1 0.4238 28.243375 43.407331 43.472821
785 262 2 -0.8476 27.392076 43.92705 43.544812
786 262 1 0.4238 27.598561 44.905466 43.553018
787 263 1 0.4238 11.76989 38.159479 18.417803
788 263 2 -0.8476 11.525356 37.415886 19.040116
789 263 1 0.4238 12.067073 36.60481 18.81944
790 264 1 0.4238 8.644073 19.758292 40.280325
791 264 2 -0.8476 7.916004 20.286356 40.717434
792 264 1 0.4238 8.319563 20.999946 41.290084
793 265 1 0.4238 2.013741 38.318287 1.498327
794 265 2 -0.8476 1.646599 38.900871 2.223449
795 265 1 0.4238 1.498495 38.354025 3.047478
796 266 1 0.4238 31.758422 14.468879 13.718421
797 266 2 -0.8476 32.576838 14.61127 13.161717
798 266 1 0.4238 32.309867 14.927767 12.251467
799 267 1 0.4238 6.446737 23.676607 34.791033
800 267 2 -0.8476 5.988673 23.151787 35.508488
801 267 1 0.4238 5.458801 23.771144 36.087825
802 268 1 0.4238 22.638112 3.177781 1.500025
803 268 2 -0.8476 23.370886 2.618841 1.888135
804 268 1 0.4238 23.277708 1.676721 1.56607
805 269 1 0.4238 34.090034 3.497253 34.097904
806 269 2 -0.8476 33.182525 3.820255 34.366412
807 269 1 0.4238 33.273477 4.650238 34.916735
808 270 1 0.4238 47.49975 8.993423 37.386542
809 270 2 -0.8476 48.17739 8.314683 37.103494
810 270 1 0.4238 48.046054 7.473639 37.628275
811 271 1 0.4238 6.343712 38.482609 38.801815
812 271 2 -0.8476 6.507999 39.096848 38.029986
813 271 1 0.4238 7.483103 39.312188 37.977065
814 272 1 0.4238 48.178151 34.471205 8.044818
815 272 2 -0.8476 47.623774 33.640661 7.991311
816 272 1 0.4238 46.658619 33.87623 8.105255
817 273 1 0.4238 19.303438 46.743921 12.498202
818 273 2 -0.8476 20.137449 47.200728 12.80764
819 273 1 0.4238 19.958578 48.1776 12.924792
820 274 1 0.4238 39.910166 34.289627 1.501444
821 274 2 -0.8476 40.790337 34.764147 1.512844
822 274 1 0.4238 40.636241 35.752151 1.522936
823 275 1 0.4238 24.008666 33.998013 7.627148
824 275 2 -0.8476 23.306577 33.564443 7.062269
825 275 1 0.4238 22.545469 34.199582 6.930694
826 276 1 0.4238 36.300456 35.548967 43.504085
827 276 2 -0.8476 36.735149 35.457529 42.60816
828 276 1 0.4238 36.623141 34.520479 42.277418
829 277 1 0.4238 46.621172 6.729315 8.414614
830 277 2 -0.8476 46.247426 6.128345 9.121119
831 277 1 0.4238 45.782392 6.678407 9.814786
832 278 1 0.4238 33.328802 2.803212 45.870225
833 278 2 -0.8476 32.388233 2.775653 45.531743
834 278 1 0.4238 31.756801 2.726616 46.305623
835 279 1 0.4238 6.504794 21.80568 30.476386
836 279 2 -0.8476 5.987048 22.060024 29.659533
837 279 1 0.4238 5.523541 21.252865 29.293946
838 280 1 0.4238 35.550301 10.389437 43.505737
839 280 2 -0.8476 34.90377 11.127745 43.697826
840 280 1 0.4238 34.236099 10.818357 44.374948
841 281 1 0.4238 36.358297 23.529625 3.974267
842 281 2 -0.8476 35.801026 22.716592 3.80567
843 281 1 0.4238 34.864735 22.993253 3.589295
844 282 1 0.4238 44.985777 14.2218 44.572482
845 282 2 -0.8476 45.23109 13.46872 45.182967
846 282 1 0.4238 45.96118 13.763652 45.799395
847 283 1 0.4238 22.040293 6.465852 27.405257
848 283 2 -0.8476 21.439457 6.374533 28.199396
849 283 1 0.4238 21.922392 5.889994 28.928777
850 284 1 0.4238 29.992662 9.862183 11.561774
851 284 2 -0.8476 30.581909 9.135897 11.207802
852 284 1 0.4238 31.43848 9.532701 10.877904
853 285 1 0.4238 33.53184 6.555559 1.623195
854 285 2 -0.8476 32.534533 6.57065 1.551412
855 285 1 0.4238 32.132961 6.382026 2.447604
856 286 1 0.4238 11.471734 36.865157 25.000883
857 286 2 -0.8476 11.017851 36.046804 25.353429
858 286 1 0.4238 10.128338 36.297437 25.735462
859 287 1 0.4238 25.48005 45.281832 1.49901
860 287 2 -0.8476 26.452502 45.288566 1.732015
861 287 1 0.4238 26.564404 45.56117 2.687611
862 288 1 0.4238 13.28788 31.176645 46.222445
863 288 2 -0.8476 12.68621 30.378646 46.256952
864 288 1 0.4238 11.802249 30.609869 45.850567
865 289 1 0.4238 7.863696 28.057756 19.540204
866 289 2 -0.8476 8.452177 28.723281 19.999297
867 289 1 0.4238 8.971611 28.266592 20.721532
868 290 1 0.4238 3.820119 20.518206 39.610301
869 290 2 -0.8476 4.754782 20.873477 39.596631
870 290 1 0.4238 5.401014 20.11465 39.677655
871 291 1 0.4238 30.405317 4.983769 7.081969
872 291 2 -0.8476 30.444887 4.132368 7.604988
873 291 1 0.4238 29.520293 3.769876 7.722141
874 292 1 0.4238 35.217291 41.48575 35.69589
875 292 2 -0.8476 34.610408 41.461715 34.901462
876 292 1 0.4238 33.905075 40.766858 35.041742
877 293 1 0.4238 4.782865 26.272763 2.763481
878 293 2 -0.8476 4.650166 26.149881 1.779972
879 293 1 0.4238 3.800213 26.596186 1.499987
880 294 1 0.4238 45.860473 42.976383 18.651231
881 294 2 -0.8476 46.041141 43.915308 18.944111
882 294 1 0.4238 46.755892 44.312362 18.36837
883 295 1 0.4238 17.131757 24.981601 7.091496
884 295 2 -0.8476 17.845909 25.631352 6.831089
885 295 1 0.4238 17.48472 26.268417 6.150142
886 296 1 0.4238 39.639608 8.258807 17.763003
887 296 2 -0.8476 39.495627 8.254904 18.752576
888 296 1 0.4238 38.527579 8.410584 18.949166
889 297 1 0.4238 33.464191 7.253819 22.626572
890 297 2 -0.8476 32.466705 7.183329 22.633881
891 297 1 0.4238 32.200723 6.219376 22.640769
892 298 1 0.4238 48.178034 19.721729 5.781626
893 298 2 -0.8476 47.601477 18.924393 5.960056
894 298 1 0.4238 48.178057 18.11607 6.079087
895 299 1 0.4238 34.701523 33.558567 7.598531
896 299 2 -0.8476 34.19822 33.953692 6.83005
897 299 1 0.4238 33.519285 33.29636 6.503
898 300 1 0.4238 46.686729 38.117506 41.583406
899 300 2 -0.8476 47.19768 37.300912 41.314886
900 300 1 0.4238 48.178054 37.477047 41.403442
901 301 1 0.4238 6.927902 17.931629 41.078897
902 301 2 -0.8476 6.223772 18.074462 41.774454
903 301 1 0.4238 6.129195 19.053109 41.956949
904 302 1 0.4238 1.500001 8.535147 42.493137
905 302 2 -0.8476 1.790719 9.310126 41.931987
906 302 1 0.4238 1.502998 10.163258 42.367167
907 303 1 0.4238 31.138358 17.124006 13.724909
908 303 2 -0.8476 31.219399 17.389804 12.764292
909 303 1 0.4238 30.56542 18.119319 12.563996
910 304 1 0.4238 24.754643 26.497527 1.955556
911 304 2 -0.8476 25.522485 26.047096 1.500001
912 304 1 0.4238 26.364985 26.55119 1.689957
913 305 1 0.4238 37.507904 5.845283 40.142516
914 305 2 -0.8476 36.938615 6.4257 39.560257
915 305 1 0.4238 36.164785 5.894655 39.215036
916 306 1 0.4238 45.793249 22.248251 32.117206
917 306 2 -0.8476 46.708824 22.013366 31.790783
918 306 1 0.4238 46.636157 21.369031 31.0295
919 307 1 0.4238 4.130942 48.161821 5.697431
920 307 2 -0.8476 4.713463 48.085781 4.88818
921 307 1 0.4238 4.153692 48.178076 4.064689
922 308 1 0.4238 22.05828 3.751553 6.169866
923 308 2 -0.8476 21.088707 3.847106 5.944484
924 308 1 0.4238 20.828534 4.811414 5.993672
925 309 1 0.4238 48.044697 47.491108 33.118367
926 309 2 -0.8476 47.595501 48.178005 32.547057
927 309 1 0.4238 46.641382 47.917103 32.400133
928 310 1 0.4238 21.534668 41.165968 6.623196
929 310 2 -0.8476 20.654868 41.62667 6.740268
930 310 1 0.4238 20.079786 41.094117 7.361288
931 311 1 0.4238 5.621327 5.038947 9.249002
932 311 2 -0.8476 5.473689 4.167279 8.781672
933 311 1 0.4238 4.511912 3.905214 8.861091
934 312 1 0.4238 5.362631 29.066808 36.214338
935 312 2 -0.8476 4.544321 29.611906 36.396649
936 312 1 0.4238 3.830769 29.024485 36.778461
937 313 1 0.4238 1.92521 36.487321 35.893791
938 313 2 -0.8476 1.499944 35.635665 35.587472
939 313 1 0.4238 1.801136 34.883217 36.173223
940 314 1 0.4238 9.207435 23.260015 9.138123
941 314 2 -0.8476 8.963141 23.837938 9.916792
942 314 1 0.4238 8.814058 24.775413 9.602287
943 315 1 0.4238 17.159142 5.610257 22.725141
944 315 2 -0.8476 16.427757 6.052001 22.205584
945 315 1 0.4238 15.710923 6.357087 22.832537
946 316 1 0.4238 16.341717 18.57848 30.938647
947 316 2 -0.8476 15.366608 18.784433 30.856515
948 316 1 0.4238 14.855929 17.934152 30.729122
949 317 1 0.4238 31.786136 24.461074 9.313809
950 317 2 -0.8476 32.559428 25.077925 9.16713
951 317 1 0.4238 32.250542 26.025351 9.250634
952 318 1 0.4238 39.015437 1.545625 12.778495
953 318 2 -0.8476 38.559991 1.499702 13.667573
954 318 1 0.4238 39.246866 1.499972 14.394348
955 319 1 0.4238 46.009912 19.248823 24.406095
956 319 2 -0.8476 46.276279 18.295583 24.548864
957 319 1 0.4238 45.826832 17.943278 25.369764
958 320 1 0.4238 5.321361 29.328364 17.613001
959 320 2 -0.8476 6.318945 29.313474 17.680855
960 320 1 0.4238 6.665645 30.251219 17.701688
961 321 1 0.4238 40.90426 19.871273 31.70675
962 321 2 -0.8476 40.465444 20.053419 32.586672
963 321 1 0.4238 40.913626 19.515158 33.300399
964 322 1 0.4238 23.464636 32.625509 19.134437
965 322 2 -0.8476 23.663103 32.978475 20.048781
966 322 1 0.4238 24.648123 32.935994 20.21591
967 323 1 0.4238 10.580193 10.299508 11.819527
968 323 2 -0.8476 10.60783 9.342451 11.530948
969 323 1 0.4238 9.683425 9.035926 11.303977
970 324 1 0.4238 27.268766 41.755591 11.857084
971 324 2 -0.8476 28.115387 41.738186 12.388997
972 324 1 0.4238 27.897658 41.625619 13.358493
973 325 1 0.4238 42.683874 6.356797 15.929958
974 325 2 -0.8476 41.975809 7.062882 15.939282
975 325 1 0.4238 41.220021 6.769304 16.5246
976 326 1 0.4238 46.852946 44.467223 48.177971
977 326 2 -0.8476 47.852173 44.459826 48.139368
978 326 1 0.4238 48.172306 43.52769 47.970145
979 327 1 0.4238 25.17263 42.800862 1.499932
980 327 2 -0.8476 24.269285 43.114407 1.792606
981 327 1 0.4238 24.147228 42.91772 2.765445
982 328 1 0.4238 36.007583 36.874301 32.985239
983 328 2 -0.8476 35.299585 36.169543 32.939918
984 328 1 0.4238 34.39825 36.60259 32.931907
985 329 1 0.4238 20.851222 12.885939 29.192837
986 329 2 -0.8476 21.021485 13.029417 30.167734
987 329 1 0.4238 21.931111 13.425684 30.292446
988 330 1 0.4238 24.945385 16.706573 14.649927
989 330 2 -0.8476 24.706925 16.419648 15.577726
990 330 1 0.4238 25.00316 15.475353 15.721088
991 331 1 0.4238 23.4835 33.73408 10.43383
992 331 2 -0.8476 24.296744 34.291915 10.268138
993 331 1 0.4238 25.071045 33.696743 10.05313
994 332 1 0.4238 34.84108 46.574783 38.255414
995 332 2 -0.8476 35.283611 47.459047 38.106271
996 332 1 0.4238 34.585704 48.167108 37.998681
997 333 1 0.4238 35.258737 25.088083 41.763268
998 333 2 -0.8476 35.965683 25.188564 42.463362
999 333 1 0.4238 36.208791 24.287801 42.823254
1000 334 1 0.4238 5.818667 18.191071 7.561471
1001 334 2 -0.8476 6.800764 18.143408 7.379222
1002 334 1 0.4238 7.13993 19.05323 7.140077
1003 335 1 0.4238 37.199804 30.069898 28.845236
1004 335 2 -0.8476 38.018793 29.522509 28.673127
1005 335 1 0.4238 38.821598 30.118622 28.660754
1006 336 1 0.4238 39.187396 15.609455 11.17829
1007 336 2 -0.8476 40.12369 15.800596 11.47294
1008 336 1 0.4238 40.604358 14.938936 11.635726
1009 337 1 0.4238 19.318844 32.736231 26.809236
1010 337 2 -0.8476 20.13616 33.312078 26.789407
1011 337 1 0.4238 19.865721 34.274813 26.791444
1012 338 1 0.4238 33.439887 2.534391 9.027043
1013 338 2 -0.8476 34.322832 2.082886 8.898388
1014 338 1 0.4238 34.978514 2.735219 8.518201
1015 339 1 0.4238 3.87225 39.391396 29.193162
1016 339 2 -0.8476 3.064313 39.980661 29.195075
1017 339 1 0.4238 2.272836 39.460073 29.515313
1018 340 1 0.4238 13.360225 1.509543 16.274432
1019 340 2 -0.8476 12.544371 2.038895 16.04169
1020 340 1 0.4238 11.958951 1.499984 15.436001
1021 341 1 0.4238 35.90946 1.49999 4.813772
1022 341 2 -0.8476 34.974312 1.499795 5.16803
1023 341 1 0.4238 34.995793 1.565304 6.16565
1024 342 1 0.4238 8.947309 38.111167 20.093033
1025 342 2 -0.8476 8.465794 38.849961 20.564549
1026 342 1 0.4238 8.251701 38.565229 21.498943
1027 343 1 0.4238 38.450875 18.674266 26.381495
1028 343 2 -0.8476 38.064372 19.494146 26.803885
1029 343 1 0.4238 38.803964 20.068941 27.154047
1030 344 1 0.4238 44.926101 8.97676 43.208443
1031 344 2 -0.8476 44.099258 8.464137 43.439846
1032 344 1 0.4238 43.790271 7.950877 42.639165
1033 345 1 0.4238 45.839397 21.867333 6.155064
1034 345 2 -0.8476 45.812554 20.902249 5.894501
1035 345 1 0.4238 46.089867 20.807294 4.938425
1036 346 1 0.4238 48.178445 45.626698 4.768124
1037 346 2 -0.8476 47.828553 45.121353 3.979326
1038 346 1 0.4238 48.178564 44.184869 4.001473
1039 347 1 0.4238 18.710407 6.763757 13.797389
1040 347 2 -0.8476 17.933758 6.291788 13.380182
1041 347 1 0.4238 18.268771 5.579543 12.763357
1042 348 1 0.4238 25.218534 1.502279 19.550958
1043 348 2 -0.8476 25.80568 1.95389 20.222752
1044 348 1 0.4238 26.696447 1.5 20.245504
1045 349 1 0.4238 18.109882 5.588283 28.028083
1046 349 2 -0.8476 18.029175 4.59592 28.121372
1047 349 1 0.4238 17.608761 4.216743 27.297069
1048 350 1 0.4238 6.697503 48.088387 31.132957
1049 350 2 -0.8476 6.376386 47.141596 31.111299
1050 350 1 0.4238 6.951073 46.608848 30.490079
1051 351 1 0.4238 4.946963 17.10913 36.07141
1052 351 2 -0.8476 5.141206 16.130034 36.131749
1053 351 1 0.4238 5.021319 15.824024 37.076198
1054 352 1 0.4238 5.913939 23.511011 11.811274
1055 352 2 -0.8476 6.327027 23.927334 11.001315
1056 352 1 0.4238 6.278172 23.28628 10.235375
1057 353 1 0.4238 20.390353 48.169591 41.701549
1058 353 2 -0.8476 20.589675 47.482681 42.400423
1059 353 1 0.4238 19.771903 46.93269 42.570007
1060 354 1 0.4238 11.996751 43.565323 4.654659
1061 354 2 -0.8476 11.750322 43.606975 3.686394
1062 354 1 0.4238 12.518601 43.974702 3.162444
1063 355 1 0.4238 25.816756 34.999696 5.785273
1064 355 2 -0.8476 26.501463 35.334944 5.138137
1065 355 1 0.4238 27.349535 35.540123 5.62668
1066 356 1 0.4238 5.134878 20.581688 17.262827
1067 356 2 -0.8476 5.77104 20.727384 16.505152
1068 356 1 0.4238 5.782008 19.917472 15.918704
1069 357 1 0.4238 34.195426 6.834928 45.486029
1070 357 2 -0.8476 34.805285 7.267052 46.150364
1071 357 1 0.4238 35.392738 6.572025 46.564895
1072 358 1 0.4238 16.982289 1.697033 44.357322
1073 358 2 -0.8476 17.902972 1.499128 44.69374
1074 358 1 0.4238 17.903336 1.516261 45.693593
1075 359 1 0.4238 15.307671 20.422754 18.090705
1076 359 2 -0.8476 15.481236 20.528964 19.069783
1077 359 1 0.4238 14.610617 20.590249 19.557908
1078 360 1 0.4238 42.393242 20.585106 44.861885
1079 360 2 -0.8476 41.587098 20.031172 44.653826
1080 360 1 0.4238 41.6168 19.185862 45.187276
1081 361 1 0.4238 47.251286 10.375807 32.19207
1082 361 2 -0.8476 48.178012 10.737122 32.088967
1083 361 1 0.4238 48.139793 11.732495 32.000814
1084 362 1 0.4238 5.906135 40.371267 11.815477
1085 362 2 -0.8476 5.771357 39.425024 11.521439
1086 362 1 0.4238 6.658634 38.970181 11.444901
1087 363 1 0.4238 19.593773 44.164889 6.785252
1088 363 2 -0.8476 18.750754 44.664016 6.584776
1089 363 1 0.4238 18.937157 45.646489 6.584399
1090 364 1 0.4238 33.315557 35.549167 8.872053
1091 364 2 -0.8476 32.401966 35.24693 8.600014
1092 364 1 0.4238 32.001506 35.917084 7.975095
1093 365 1 0.4238 16.120703 45.234134 27.480698
1094 365 2 -0.8476 16.439757 44.953219 28.385845
1095 365 1 0.4238 16.789106 44.017325 28.340489
1096 366 1 0.4238 11.524515 20.75901 20.362488
1097 366 2 -0.8476 10.865088 20.3234 19.749789
1098 366 1 0.4238 10.225173 21.010611 19.405915
1099 367 1 0.4238 42.641628 45.741334 9.825091
1100 367 2 -0.8476 41.670879 45.938105 9.962673
1101 367 1 0.4238 41.528351 46.279201 10.891834
1102 368 1 0.4238 41.35102 9.62959 42.770476
1103 368 2 -0.8476 41.548198 9.493195 43.741309
1104 368 1 0.4238 42.078393 10.267934 44.085798
1105 369 1 0.4238 44.632234 9.516404 19.941457
1106 369 2 -0.8476 44.509452 9.011711 20.79598
1107 369 1 0.4238 44.695454 9.616778 21.570123
1108 370 1 0.4238 33.595831 27.121649 32.458217
1109 370 2 -0.8476 33.395929 27.085936 33.437382
1110 370 1 0.4238 33.718891 27.925438 33.87434
1111 371 1 0.4238 33.400599 44.94409 16.028388
1112 371 2 -0.8476 32.753526 44.730028 15.296627
1113 371 1 0.4238 32.896975 43.789234 14.989496
1114 372 1 0.4238 13.808432 46.920121 3.828236
1115 372 2 -0.8476 13.708997 47.914539 3.863529
1116 372 1 0.4238 12.737728 48.1521 3.877707
1117 373 1 0.4238 35.652063 13.921912 42.939251
1118 373 2 -0.8476 34.724252 14.217368 42.711496
1119 373 1 0.4238 34.229052 13.460982 42.284112
1120 374 1 0.4238 8.052129 5.336433 33.963906
1121 374 2 -0.8476 7.43896 4.578231 34.185613
1122 374 1 0.4238 6.768916 4.465929 33.451836
1123 375 1 0.4238 1.500254 27.121214 22.119154
1124 375 2 -0.8476 1.764089 27.987996 21.695977
1125 375 1 0.4238 1.502924 28.744658 22.295356
1126 376 1 0.4238 20.339983 20.221333 47.869895
1127 376 2 -0.8476 19.450941 20.674658 47.933928
1128 376 1 0.4238 18.749857 20.001683 48.169693
1129 377 1 0.4238 43.432338 39.182211 30.05177
1130 377 2 -0.8476 43.271433 39.940087 30.684014
1131 377 1 0.4238 43.62866 39.702231 31.587238
1132 378 1 0.4238 30.595745 43.673333 40.123902
1133 378 2 -0.8476 29.789191 43.896261 40.671416
1134 378 1 0.4238 29.831327 43.405904 41.541918
1135 379 1 0.4238 43.128699 24.324218 38.532509
1136 379 2 -0.8476 42.398222 24.109292 39.180746
1137 379 1 0.4238 41.748475 24.868691 39.214534
1138 380 1 0.4238 17.484972 13.07215 26.004546
1139 380 2 -0.8476 17.896259 13.387847 26.859636
1140 380 1 0.4238 18.782788 12.943114 26.987221
1141 381 1 0.4238 12.762278 15.947926 42.393266
1142 381 2 -0.8476 13.333155 16.768025 42.432478
1143 381 1 0.4238 12.753461 17.571504 42.568036
1144 382 1 0.4238 1.499956 36.891811 14.674216
1145 382 2 -0.8476 1.577984 37.87395 14.503005
1146 382 1 0.4238 1.499848 38.048423 13.521448
1147 383 1 0.4238 35.897797 39.891484 41.271908
1148 383 2 -0.8476 35.016534 39.523163 40.97574
1149 383 1 0.4238 34.286599 40.154956 41.236569
1150 384 1 0.4238 24.404462 20.602023 37.347825
1151 384 2 -0.8476 24.697486 21.522975 37.090947
1152 384 1 0.4238 25.695075 21.549617 37.026871
1153 385 1 0.4238 25.681411 38.157751 24.313019
1154 385 2 -0.8476 25.257629 39.038334 24.100928
1155 385 1 0.4238 24.714114 38.954129 23.265763
1156 386 1 0.4238 13.226935 10.557599 24.971189
1157 386 2 -0.8476 12.418787 11.108469 24.762771
1158 386 1 0.4238 12.272274 11.775105 25.493613
1159 387 1 0.4238 32.223434 32.128959 3.308288
1160 387 2 -0.8476 32.830027 31.43248 3.691645
1161 387 1 0.4238 33.363394 31.829551 4.438541
1162 388 1 0.4238 3.788579 43.117347 43.203519
1163 388 2 -0.8476 3.874379 43.270076 44.188055
1164 388 1 0.4238 3.955447 42.390073 44.656052
1165 389 1 0.4238 23.622898 3.639992 26.853516
1166 389 2 -0.8476 23.09181 4.110764 27.558016
1167 389 1 0.4238 23.35565 3.767478 28.459428
1168 390 1 0.4238 25.698991 35.399421 19.623981
1169 390 2 -0.8476 25.002564 35.745982 18.995582
1170 390 1 0.4238 24.650914 34.992877 18.439547
1171 391 1 0.4238 16.907196 3.833131 11.300953
1172 391 2 -0.8476 15.941959 3.705504 11.529052
1173 391 1 0.4238 15.578904 2.926364 11.018042
1174 392 1 0.4238 25.865995 27.437715 5.09686
1175 392 2 -0.8476 25.354716 27.285225 4.251082
1176 392 1 0.4238 25.252262 28.151811 3.762684
1177 393 1 0.4238 27.87531 38.943077 12.682868
1178 393 2 -0.8476 28.379697 38.14224 12.359982
1179 393 1 0.4238 28.61769 37.561914 13.138814
1180 394 1 0.4238 11.79482 23.7728 8.487329
1181 394 2 -0.8476 11.899712 24.725387 8.201716
1182 394 1 0.4238 10.997112 25.134734 8.068493
1183 395 1 0.4238 22.631501 45.181515 29.017518
1184 395 2 -0.8476 21.656857 45.156524 28.795156
1185 395 1 0.4238 21.14802 44.779168 29.568905
1186 396 1 0.4238 6.364201 48.17801 26.633164
1187 396 2 -0.8476 5.956991 47.960046 27.520109
1188 396 1 0.4238 6.636047 48.096951 28.241316
1189 397 1 0.4238 17.644329 23.487094 38.136954
1190 397 2 -0.8476 18.286409 23.538355 38.901876
1191 397 1 0.4238 18.62234 24.47584 38.992817
1192 398 1 0.4238 26.31502 1.513494 26.507595
1193 398 2 -0.8476 25.967011 1.500001 25.570201
1194 398 1 0.4238 24.983267 1.679435 25.577261
1195 399 1 0.4238 40.462835 29.911008 43.205709
1196 399 2 -0.8476 39.667248 30.03544 43.798633
1197 399 1 0.4238 39.052509 29.252881 43.700156
1198 400 1 0.4238 31.281176 3.424295 36.196615
1199 400 2 -0.8476 30.771371 2.576002 36.053443
1200 400 1 0.4238 30.985536 2.207018 35.149019
1201 401 1 0.4238 16.041202 29.470865 23.463417
1202 401 2 -0.8476 15.813505 29.499333 22.490101
1203 401 1 0.4238 16.248925 30.295031 22.069061
1204 402 1 0.4238 7.522656 35.817091 48.178017
1205 402 2 -0.8476 8.147628 36.597738 48.178023
1206 402 1 0.4238 9.091946 36.268705 48.178031
1207 403 1 0.4238 7.187514 19.080675 29.355147
1208 403 2 -0.8476 8.132701 19.074825 29.681625
1209 403 1 0.4238 8.438319 20.01461 29.834605
1210 404 1 0.4238 6.288985 2.219653 1.550662
1211 404 2 -0.8476 6.982441 1.50007 1.586984
1212 404 1 0.4238 7.892041 1.914748 1.61288
1213 405 1 0.4238 34.2096 43.641475 3.942569
1214 405 2 -0.8476 34.827167 43.044354 3.430653
1215 405 1 0.4238 35.76954 43.213157 3.71951
1216 406 1 0.4238 29.131556 39.330966 24.168964
1217 406 2 -0.8476 28.407232 39.028182 24.78838
1218 406 1 0.4238 27.775828 39.784852 24.958023
1219 407 1 0.4238 11.996713 17.56956 4.236733
1220 407 2 -0.8476 11.014017 17.707 4.11256
1221 407 1 0.4238 10.824313 17.907371 3.151382
1222 408 1 0.4238 29.322784 30.032401 1.524218
1223 408 2 -0.8476 30.206185 30.500497 1.502143
1224 408 1 0.4238 30.656163 30.405226 2.390086
1225 409 1 0.4238 23.066837 13.370298 7.6802
1226 409 2 -0.8476 23.83117 13.6332 8.268994
1227 409 1 0.4238 23.767971 14.608258 8.481757
1228 410 1 0.4238 32.913126 41.332891 27.05666
1229 410 2 -0.8476 33.104334 40.538931 26.479541
1230 410 1 0.4238 32.645841 40.649652 25.597767
1231 411 1 0.4238 23.886437 36.069062 16.040993
1232 411 2 -0.8476 24.197164 35.625088 15.200555
1233 411 1 0.4238 25.095055 35.212447 15.353912
1234 412 1 0.4238 9.823276 35.020818 8.781164
1235 412 2 -0.8476 10.515755 34.752135 8.111625
1236 412 1 0.4238 10.391326 33.789415 7.871443
1237 413 1 0.4238 16.589166 45.584311 7.501235
1238 413 2 -0.8476 15.598509 45.448105 7.494366
1239 413 1 0.4238 15.390525 44.530823 7.154753
1240 414 1 0.4238 45.798356 2.934565 46.142704
1241 414 2 -0.8476 45.713207 1.961455 46.356726
1242 414 1 0.4238 45.282429 1.487692 45.588625
1243 415 1 0.4238 31.338803 27.049116 27.38427
1244 415 2 -0.8476 31.983412 26.288807 27.304213
1245 415 1 0.4238 32.643662 26.331237 28.05406
1246 416 1 0.4238 21.954015 5.176322 43.520364
1247 416 2 -0.8476 22.302181 6.107588 43.62771
1248 416 1 0.4238 21.673095 6.634856 44.198883
1249 417 1 0.4238 29.232652 44.051042 31.513819
1250 417 2 -0.8476 28.678484 44.630868 30.916577
1251 417 1 0.4238 29.103106 45.533023 30.84034
1252 418 1 0.4238 7.036098 30.362622 38.593663
1253 418 2 -0.8476 6.433872 29.56779 38.66827
1254 418 1 0.4238 6.811269 28.925075 39.33497
1255 419 1 0.4238 45.759895 13.264081 3.166435
1256 419 2 -0.8476 45.70874 14.151723 2.708751
1257 419 1 0.4238 45.8406 14.881005 3.380138
1258 420 1 0.4238 39.985854 10.827541 15.62796
1259 420 2 -0.8476 39.106529 11.286051 15.499287
1260 420 1 0.4238 39.165801 11.907418 14.718012
1261 421 1 0.4238 1.745224 22.601056 8.556172
1262 421 2 -0.8476 1.504437 22.822636 7.611225
1263 421 1 0.4238 2.146251 23.501252 7.254077
1264 422 1 0.4238 41.469776 3.294176 4.504476
1265 422 2 -0.8476 41.06798 3.854323 5.228903
1266 422 1 0.4238 40.088281 3.963812 5.060969
1267 423 1 0.4238 19.687948 33.206486 34.389483
1268 423 2 -0.8476 19.857237 34.190688 34.337643
1269 423 1 0.4238 19.978041 34.458221 33.381697
1270 424 1 0.4238 9.945999 29.146557 26.907949
1271 424 2 -0.8476 9.427386 28.385285 26.51871
1272 424 1 0.4238 9.578773 27.563471 27.067985
1273 425 1 0.4238 47.90342 14.61183 1.499799
1274 425 2 -0.8476 48.159734 14.727124 2.459492
1275 425 1 0.4238 48.180304 13.833893 2.908619
1276 426 1 0.4238 44.185767 9.8881 28.442453
1277 426 2 -0.8476 44.246455 9.711341 27.460071
1278 426 1 0.4238 43.73771 10.414185 26.96289
1279 427 1 0.4238 39.839029 35.442813 19.754686
1280 427 2 -0.8476 40.087185 36.344776 20.108072
1281 427 1 0.4238 41.082246 36.411897 20.181199
1282 428 1 0.4238 32.226517 40.103736 29.411676
1283 428 2 -0.8476 32.256141 39.109368 29.51343
1284 428 1 0.4238 31.323613 38.750017 29.548915
1285 429 1 0.4238 15.364063 12.907534 24.276586
1286 429 2 -0.8476 14.895877 13.089873 23.411974
1287 429 1 0.4238 14.315419 12.310403 23.176401
1288 430 1 0.4238 20.773883 36.299246 18.910064
1289 430 2 -0.8476 21.320424 36.096714 18.097491
1290 430 1 0.4238 22.27824 36.322522 18.275247
1291 431 1 0.4238 20.654051 47.828305 10.415119
1292 431 2 -0.8476 20.56008 48.172532 9.480947
1293 431 1 0.4238 21.454147 48.169325 9.033028
1294 432 1 0.4238 32.648794 42.563135 33.373873
1295 432 2 -0.8476 32.203304 43.352957 33.79544
1296 432 1 0.4238 31.667965 43.051818 34.58457
1297 433 1 0.4238 30.383128 31.222843 4.737335
1298 433 2 -0.8476 30.657301 31.402719 5.682044
1299 433 1 0.4238 31.411272 30.795117 5.931737
1300 434 1 0.4238 30.902876 34.431052 43.53442
1301 434 2 -0.8476 31.798703 33.989092 43.487877
1302 434 1 0.4238 31.678769 32.998102 43.428252
1303 435 1 0.4238 5.696957 18.623249 48.159606
1304 435 2 -0.8476 5.866426 17.696463 47.824423
1305 435 1 0.4238 6.742701 17.369173 48.178008
1306 436 1 0.4238 3.919968 44.283003 10.383732
1307 436 2 -0.8476 3.643767 45.186304 10.055462
1308 436 1 0.4238 3.038225 45.083365 9.266336
1309 437 1 0.4238 10.276929 29.239984 1.825062
1310 437 2 -0.8476 10.706385 28.397436 1.499975
1311 437 1 0.4238 10.344459 27.619296 2.013304
1312 438 1 0.4238 7.127954 38.243958 7.849668
1313 438 2 -0.8476 6.309469 38.793509 8.017227
1314 438 1 0.4238 5.947383 38.583821 8.925481
1315 439 1 0.4238 12.32454 8.015503 5.992189
1316 439 2 -0.8476 12.916946 8.24737 5.220638
1317 439 1 0.4238 13.16738 9.214169 5.271462
1318 440 1 0.4238 31.981911 36.712366 44.604619
1319 440 2 -0.8476 31.481571 36.47231 45.436504
1320 440 1 0.4238 30.514576 36.699488 45.321131
1321 441 1 0.4238 46.241078 16.479047 1.499845
1322 441 2 -0.8476 45.312725 16.849777 1.526652
1323 441 1 0.4238 44.653938 16.097716 1.546736
1324 442 1 0.4238 3.833673 35.241883 18.773002
1325 442 2 -0.8476 3.669716 34.265241 18.634118
1326 442 1 0.4238 3.261942 33.875022 19.459618
1327 443 1 0.4238 18.574232 36.256625 12.810551
1328 443 2 -0.8476 18.742637 36.776653 11.973167
1329 443 1 0.4238 18.880724 37.740416 12.201408
1330 444 1 0.4238 29.515055 34.443538 48.061081
1331 444 2 -0.8476 30.425966 34.030974 48.055387
1332 444 1 0.4238 30.34466 33.041856 48.178
1333 445 1 0.4238 40.352629 1.510156 28.576837
1334 445 2 -0.8476 40.371559 1.573799 27.579044
1335 445 1 0.4238 39.440153 1.500024 27.222617
1336 446 1 0.4238 41.844249 12.846555 40.339494
1337 446 2 -0.8476 41.549004 12.512386 41.23457
1338 446 1 0.4238 41.260903 11.558046 41.155629
1339 447 1 0.4238 26.513318 30.564039 21.449928
1340 447 2 -0.8476 27.493312 30.655345 21.626775
1341 447 1 0.4238 27.990827 29.953566 21.116888
1342 448 1 0.4238 10.457546 42.14548 22.194241
1343 448 2 -0.8476 10.029151 41.328469 22.580209
1344 448 1 0.4238 9.276495 41.03639 21.990124
1345 449 1 0.4238 12.047476 8.768214 16.008745
1346 449 2 -0.8476 12.964149 8.368582 16.010825
1347 449 1 0.4238 12.892917 7.371127 16.007841
1348 450 1 0.4238 18.197374 20.441008 8.238755
1349 450 2 -0.8476 19.089625 20.239545 7.834651
1350 450 1 0.4238 18.976366 20.032788 6.862836
1351 451 1 0.4238 41.057975 42.174684 20.99324
1352 451 2 -0.8476 41.314024 43.12826 21.151771
1353 451 1 0.4238 40.606619 43.729521 20.780201
1354 452 1 0.4238 29.7513 6.855707 27.278317
1355 452 2 -0.8476 30.067987 7.797417 27.391859
1356 452 1 0.4238 30.844431 7.814297 28.02182
1357 453 1 0.4238 31.435755 39.540442 42.891308
1358 453 2 -0.8476 30.552533 39.217025 43.230897
1359 453 1 0.4238 30.437292 38.252359 42.993965
1360 454 1 0.4238 47.232667 39.001359 10.672985
1361 454 2 -0.8476 48.172431 39.258462 10.447723
1362 454 1 0.4238 48.178007 40.165357 10.026404
1363 455 1 0.4238 6.787156 39.544746 17.973935
1364 455 2 -0.8476 6.250127 40.011479 17.271254
1365 455 1 0.4238 6.854642 40.577881 16.711119
1366 456 1 0.4238 43.504421 10.693551 42.077107
1367 456 2 -0.8476 44.037995 10.568334 41.240674
1368 456 1 0.4238 43.631087 11.105903 40.502131
1369 457 1 0.4238 32.797621 26.51603 6.616205
1370 457 2 -0.8476 32.760182 27.453007 6.963583
1371 457 1 0.4238 32.057741 27.964255 6.468404
1372 458 1 0.4238 45.559761 40.115867 42.575883
1373 458 2 -0.8476 44.792293 40.229291 43.206858
1374 458 1 0.4238 44.942 39.664875 44.01866
1375 459 1 0.4238 13.517973 25.481847 2.535056
1376 459 2 -0.8476 13.229992 25.546969 1.579637
1377 459 1 0.4238 12.486631 26.211113 1.500102
1378 460 1 0.4238 25.24743 28.604547 45.216134
1379 460 2 -0.8476 24.922033 27.935917 44.547515
1380 460 1 0.4238 24.462648 28.411291 43.797192
1381 461 1 0.4238 29.271388 9.529794 25.3527
1382 461 2 -0.8476 28.594197 9.599465 26.085201
1383 461 1 0.4238 27.716394 9.88616 25.701446
1384 462 1 0.4238 45.357935 6.926236 45.828652
1385 462 2 -0.8476 45.844743 6.052791 45.817987
1386 462 1 0.4238 45.1946 5.310831 45.654255
1387 463 1 0.4238 32.235674 21.458887 35.66342
1388 463 2 -0.8476 31.276118 21.41528 35.3853
1389 463 1 0.4238 30.942065 22.338352 35.194654
1390 464 1 0.4238 40.797885 23.413406 6.462214
1391 464 2 -0.8476 41.329604 23.347811 5.617837
1392 464 1 0.4238 41.695649 24.248454 5.383632
1393 465 1 0.4238 31.365806 48.178061 10.64612
1394 465 2 -0.8476 32.176807 47.776503 11.071595
1395 465 1 0.4238 32.998648 48.178013 10.667408
1396 466 1 0.4238 36.127213 43.270638 28.682111
1397 466 2 -0.8476 36.979263 43.553867 29.122327
1398 466 1 0.4238 37.693028 43.659571 28.429964
1399 467 1 0.4238 14.777455 25.158539 4.786107
1400 467 2 -0.8476 14.828482 24.206336 4.484932
1401 467 1 0.4238 13.904017 23.838657 4.384058
1402 468 1 0.4238 45.512367 46.764606 45.700441
1403 468 2 -0.8476 45.679976 47.715081 45.438705
1404 468 1 0.4238 46.181297 48.178562 46.169364
1405 469 1 0.4238 24.727891 44.710188 42.266074
1406 469 2 -0.8476 24.980545 45.31312 43.022802
1407 469 1 0.4238 24.857797 44.829611 43.889492
1408 470 1 0.4238 31.67025 8.892857 1.883107
1409 470 2 -0.8476 32.462206 9.491575 2.002869
1410 470 1 0.4238 33.241601 9.117941 1.499936
1411 471 1 0.4238 45.056274 32.686062 43.39903
1412 471 2 -0.8476 44.525013 31.886009 43.120325
1413 471 1 0.4238 44.735374 31.661141 42.168915
1414 472 1 0.4238 7.632871 35.162738 45.003008
1415 472 2 -0.8476 7.73692 34.716004 45.891604
1416 472 1 0.4238 8.68549 34.798661 46.197188
1417 473 1 0.4238 45.985861 28.830081 39.713069
1418 473 2 -0.8476 45.475978 28.004846 39.955982
1419 473 1 0.4238 45.981611 27.198341 39.649579
1420 474 1 0.4238 27.475565 3.541904 25.61951
1421 474 2 -0.8476 26.837405 3.773659 24.885314
1422 474 1 0.4238 25.941054 3.982536 25.276369
1423 475 1 0.4238 25.404224 24.391675 29.478877
1424 475 2 -0.8476 24.763973 25.137429 29.294681
1425 475 1 0.4238 25.050464 25.626911 28.471072
1426 476 1 0.4238 13.603112 6.272413 30.691236
1427 476 2 -0.8476 13.697506 6.688643 31.595582
1428 476 1 0.4238 14.382359 7.41634 31.55774
1429 477 1 0.4238 39.257613 13.648732 40.46651
1430 477 2 -0.8476 38.682124 14.149748 41.112882
1431 477 1 0.4238 37.786206 13.709498 41.172127
1432 478 1 0.4238 48.175549 22.276693 24.493818
1433 478 2 -0.8476 48.009568 23.166333 24.919249
1434 478 1 0.4238 48.178 23.102048 25.902864
1435 479 1 0.4238 37.225668 44.366579 31.701689
1436 479 2 -0.8476 37.083691 45.234781 32.177154
1437 479 1 0.4238 37.905724 45.468829 32.69627
1438 480 1 0.4238 35.967772 25.257902 45.834356
1439 480 2 -0.8476 36.168755 25.878631 45.076529
1440 480 1 0.4238 36.292458 26.806153 45.429234
1441 481 1 0.4238 37.570421 9.488701 8.431527
1442 481 2 -0.8476 37.5164 10.083282 7.629308
1443 481 1 0.4238 37.535444 9.525794 6.799342
1444 482 1 0.4238 23.140603 31.385609 39.935465
1445 482 2 -0.8476 23.147024 31.352756 38.936026
1446 482 1 0.4238 23.955496 31.830286 38.592023
1447 483 1 0.4238 48.172323 19.443128 1.555033
1448 483 2 -0.8476 48.178304 20.296093 2.076965
1449 483 1 0.4238 48.148824 20.088738 3.054787
1450 484 1 0.4238 39.162313 15.208905 44.602155
1451 484 2 -0.8476 38.280185 14.757398 44.468023
1452 484 1 0.4238 38.099179 14.663653 43.489019
1453 485 1 0.4238 9.154979 7.957806 38.818664
1454 485 2 -0.8476 8.492247 8.411004 38.222512
1455 485 1 0.4238 8.722045 8.225705 37.267077
1456 486 1 0.4238 27.015246 4.39454 31.099914
1457 486 2 -0.8476 27.797768 3.857375 31.414735
1458 486 1 0.4238 28.642683 4.359227 31.229632
1459 487 1 0.4238 1.499933 5.681135 7.03223
1460 487 2 -0.8476 1.49998 4.995024 6.304733
1461 487 1 0.4238 1.511115 4.080487 6.70908
1462 488 1 0.4238 31.864068 17.009691 34.772918
1463 488 2 -0.8476 32.619591 17.664252 34.745805
1464 488 1 0.4238 32.253776 18.593795 34.699658
1465 489 1 0.4238 19.435582 40.62417 32.281961
1466 489 2 -0.8476 20.119212 41.353477 32.254372
1467 489 1 0.4238 19.69171 42.220867 32.509079
1468 490 1 0.4238 9.634559 30.116768 24.375834
1469 490 2 -0.8476 10.591486 29.996105 24.111765
1470 490 1 0.4238 10.915142 30.819732 23.646056
1471 491 1 0.4238 27.159996 7.261922 45.708307
1472 491 2 -0.8476 26.607079 7.197676 44.877551
1473 491 1 0.4238 26.487911 6.236156 44.630007
1474 492 1 0.4238 3.165311 31.782431 35.987868
1475 492 2 -0.8476 2.446909 32.477501 35.959968
1476 492 1 0.4238 1.560684 32.035498 35.821269
1477 493 1 0.4238 3.903367 32.061157 24.95207
1478 493 2 -0.8476 3.628762 32.334344 25.874003
1479 493 1 0.4238 3.2335 33.252477 25.845747
1480 494 1 0.4238 30.729063 30.499552 48.154437
1481 494 2 -0.8476 31.662675 30.857783 48.160737
1482 494 1 0.4238 32.31148 30.097025 48.178002
1483 495 1 0.4238 45.782649 6.618329 43.349561
1484 495 2 -0.8476 45.864647 5.64179 43.150443
1485 495 1 0.4238 46.680276 5.482361 42.594267
1486 496 1 0.4238 46.033759 48.178001 22.213962
1487 496 2 -0.8476 45.305179 47.499815 22.310065
1488 496 1 0.4238 44.479311 47.830895 21.853637
1489 497 1 0.4238 31.525722 47.588333 3.679512
1490 497 2 -0.8476 31.093373 48.180291 2.99932
1491 497 1 0.4238 30.101627 48.165339 3.126662
1492 498 1 0.4238 33.117251 22.206127 41.969375
1493 498 2 -0.8476 33.915419 22.70102 42.312898
1494 498 1 0.4238 34.650341 22.052229 42.510277
1495 499 1 0.4238 47.238751 44.957311 45.757059
1496 499 2 -0.8476 48.168652 44.704719 45.489698
1497 499 1 0.4238 48.178036 44.440507 44.525279
1498 500 1 0.4238 2.400455 38.444007 27.17063
1499 500 2 -0.8476 2.388866 38.355052 26.174661
1500 500 1 0.4238 1.503187 38.658455 25.823207
1501 501 1 0.4238 45.503156 30.809881 34.905914
1502 501 2 -0.8476 46.403117 31.244069 34.945302
1503 501 1 0.4238 47.08127 30.644678 34.520049
1504 502 1 0.4238 47.61656 11.218576 20.806822
1505 502 2 -0.8476 46.620409 11.158734 20.742767
1506 502 1 0.4238 46.27045 11.950414 20.241997
1507 503 1 0.4238 15.932555 30.057258 17.751077
1508 503 2 -0.8476 15.353615 30.865313 17.860049
1509 503 1 0.4238 15.928923 31.67965 17.936701
1510 504 1 0.4238 6.899664 4.731202 29.494313
1511 504 2 -0.8476 7.333688 5.488358 29.982513
1512 504 1 0.4238 7.375348 5.275291 30.958662
1513 505 1 0.4238 7.365081 14.968579 13.816446
1514 505 2 -0.8476 6.422091 15.226829 14.026389
1515 505 1 0.4238 5.797223 14.545023 13.646022
1516 506 1 0.4238 39.412149 7.752474 39.792336
1517 506 2 -0.8476 39.697136 7.049058 39.141192
1518 506 1 0.4238 39.135274 7.111168 38.316297
1519 507 1 0.4238 27.93479 18.171127 23.149271
1520 507 2 -0.8476 28.565669 18.935063 23.284892
1521 507 1 0.4238 29.486335 18.660282 23.00764
1522 508 1 0.4238 46.118207 20.310561 28.390766
1523 508 2 -0.8476 45.78099 19.401125 28.6341
1524 508 1 0.4238 45.999509 18.75737 27.900732
1525 509 1 0.4238 21.411776 39.96492 26.965941
1526 509 2 -0.8476 20.681424 40.568728 26.646563
1527 509 1 0.4238 19.795976 40.197887 26.926666
1528 510 1 0.4238 31.931733 28.937443 3.961242
1529 510 2 -0.8476 32.484063 28.103903 3.97315
1530 510 1 0.4238 31.882227 27.305296 3.977711
1531 511 1 0.4238 8.199868 46.099177 28.258336
1532 511 2 -0.8476 7.443572 45.799278 27.67689
1533 511 1 0.4238 7.642666 46.031604 26.724847
1534 512 1 0.4238 29.853028 9.643482 30.927757
1535 512 2 -0.8476 30.078889 9.401775 29.984059
1536 512 1 0.4238 29.236426 9.30427 29.454202
1537 513 1 0.4238 37.527209 38.315121 46.038793
1538 513 2 -0.8476 38.133832 37.520277 46.053992
1539 513 1 0.4238 37.644008 36.720465 45.707043
1540 514 1 0.4238 14.40524 48.178002 40.886601
1541 514 2 -0.8476 14.83203 47.283776 40.751653
1542 514 1 0.4238 15.099392 47.183265 39.793313
1543 515 1 0.4238 37.040178 26.0386 3.874839
1544 515 2 -0.8476 37.411565 26.91029 4.19457
1545 515 1 0.4238 38.140659 26.738985 4.857198
1546 516 1 0.4238 46.986372 26.984079 45.505173
1547 516 2 -0.8476 47.961014 27.041323 45.721498
1548 516 1 0.4238 48.17412 27.957989 46.059592
1549 517 1 0.4238 43.489174 46.052323 32.005602
1550 517 2 -0.8476 43.391973 45.161541 31.561687
1551 517 1 0.4238 43.897101 45.162333 30.698644
1552 518 1 0.4238 17.450658 20.331408 22.023448
1553 518 2 -0.8476 16.575463 20.187995 21.561424
1554 518 1 0.4238 15.872096 20.748705 21.99832
1555 519 1 0.4238 14.632718 38.100626 24.478958
1556 519 2 -0.8476 14.069309 37.299149 24.278445
1557 519 1 0.4238 14.083111 37.119665 23.294781
1558 520 1 0.4238 21.633813 23.59074 22.12854
1559 520 2 -0.8476 20.721767 23.990725 22.219009
1560 520 1 0.4238 20.038939 23.260688 22.247155
1561 521 1 0.4238 35.866338 25.117001 32.95063
1562 521 2 -0.8476 35.853557 25.730798 33.739991
1563 521 1 0.4238 36.110347 26.652612 33.449615
1564 522 1 0.4238 13.197077 43.410437 31.382934
1565 522 2 -0.8476 12.460433 43.487306 32.054831
1566 522 1 0.4238 12.834338 43.367594 32.97454
1567 523 1 0.4238 48.178 26.425632 18.830373
1568 523 2 -0.8476 47.807525 25.753139 18.18967
1569 523 1 0.4238 47.355631 25.020946 18.699263
1570 524 1 0.4238 39.777031 1.499871 24.312261
1571 524 2 -0.8476 40.341228 1.615579 23.494769
1572 524 1 0.4238 41.306944 1.538294 23.742598
1573 525 1 0.4238 32.710212 20.757485 25.44878
1574 525 2 -0.8476 32.823174 20.895691 24.46484
1575 525 1 0.4238 32.985131 21.865185 24.280857
1576 526 1 0.4238 9.336899 20.810732 16.622454
1577 526 2 -0.8476 8.396479 21.048222 16.379128
1578 526 1 0.4238 8.379261 21.957521 15.963341
1579 527 1 0.4238 31.640952 46.391479 6.715888
1580 527 2 -0.8476 31.259578 46.287007 5.797389
1581 527 1 0.4238 30.380681 45.813286 5.853314
1582 528 1 0.4238 27.119842 1.557145 48.178129
1583 528 2 -0.8476 26.922312 2.011974 47.309732
1584 528 1 0.4238 26.218193 1.499858 46.817846
1585 529 1 0.4238 37.960747 48.154094 38.409551
1586 529 2 -0.8476 37.805098 48.170737 37.421878
1587 529 1 0.4238 38.684543 48.17806 36.945935
1588 530 1 0.4238 18.017815 41.951445 36.397186
1589 530 2 -0.8476 18.231569 41.098579 35.920814
1590 530 1 0.4238 18.742713 41.30227 35.085805
1591 531 1 0.4238 8.246292 30.540077 22.047554
1592 531 2 -0.8476 8.700476 31.423529 22.162568
1593 531 1 0.4238 8.180978 32.130388 21.682493
1594 532 1 0.4238 43.542847 35.175385 39.801806
1595 532 2 -0.8476 43.088223 35.501166 40.630772
1596 532 1 0.4238 43.055706 34.763344 41.304983
1597 533 1 0.4238 39.884216 8.608733 6.955275
1598 533 2 -0.8476 40.100336 9.449956 7.450892
1599 533 1 0.4238 40.069715 10.225525 6.820373
1600 534 1 0.4238 43.650996 17.188704 32.148002
1601 534 2 -0.8476 42.900851 17.821622 32.339565
1602 534 1 0.4238 42.039781 17.423396 32.023378
1603 535 1 0.4238 6.454715 43.584276 18.138143
1604 535 2 -0.8476 6.853889 42.669754 18.203782
1605 535 1 0.4238 6.239804 42.07444 18.721952
1606 536 1 0.4238 12.861108 32.6892 8.402547
1607 536 2 -0.8476 13.550301 33.336469 8.076886
1608 536 1 0.4238 13.108985 34.20181 7.839348
1609 537 1 0.4238 20.480751 46.049169 47.005494
1610 537 2 -0.8476 19.670571 45.829942 46.461851
1611 537 1 0.4238 19.701633 44.868003 46.190359
1612 538 1 0.4238 6.255095 24.156972 4.537999
1613 538 2 -0.8476 6.887641 24.580099 3.889269
1614 538 1 0.4238 6.85634 25.574177 3.993332
1615 539 1 0.4238 11.779756 17.692975 34.285003
1616 539 2 -0.8476 10.885562 18.12006 34.419221
1617 539 1 0.4238 11.009286 19.055315 34.750868
1618 540 1 0.4238 46.976599 9.226496 9.56461
1619 540 2 -0.8476 47.520475 10.009711 9.263325
1620 540 1 0.4238 48.178156 10.252845 9.976305
1621 541 1 0.4238 17.670469 35.879304 1.499962
1622 541 2 -0.8476 17.987143 36.825305 1.569247
1623 541 1 0.4238 18.497033 36.944563 2.421179
1624 542 1 0.4238 48.177946 29.34546 18.796625
1625 542 2 -0.8476 47.641059 28.77716 18.173097
1626 542 1 0.4238 48.176922 28.58695 17.350497
1627 543 1 0.4238 10.396633 12.635707 47.653553
1628 543 2 -0.8476 9.694833 11.965917 47.896161
1629 543 1 0.4238 8.862335 12.442745 48.178264
1630 544 1 0.4238 15.628622 28.096943 33.768241
1631 544 2 -0.8476 16.466958 27.875029 33.270299
1632 544 1 0.4238 16.923588 28.720356 32.992971
1633 545 1 0.4238 43.55387 32.881216 28.134104
1634 545 2 -0.8476 43.295691 32.643301 29.070447
1635 545 1 0.4238 43.163548 33.479644 29.602489
1636 546 1 0.4238 30.69678 42.104593 19.584097
1637 546 2 -0.8476 30.275538 42.935845 19.946828
1638 546 1 0.4238 30.984087 43.619382 20.122142
1639 547 1 0.4238 5.990515 18.984637 45.685451
1640 547 2 -0.8476 5.081638 19.177787 45.315807
1641 547 1 0.4238 4.426212 18.516076 45.679887
1642 548 1 0.4238 25.897566 24.353212 17.997261
1643 548 2 -0.8476 25.649375 24.112841 17.058846
1644 548 1 0.4238 25.640837 24.938319 16.494475
1645 549 1 0.4238 12.154881 39.335832 24.026985
1646 549 2 -0.8476 12.238787 39.872158 23.187156
1647 549 1 0.4238 13.028983 39.55185 22.664668
1648 550 1 0.4238 6.789827 16.531326 16.561445
1649 550 2 -0.8476 6.308588 17.132283 15.923275
1650 550 1 0.4238 6.97463 17.639202 15.376082
1651 551 1 0.4238 27.878692 40.832807 19.970926
1652 551 2 -0.8476 28.206411 40.301627 19.189615
1653 551 1 0.4238 29.107079 39.921152 19.399459
1654 552 1 0.4238 18.995734 44.737314 26.954572
1655 552 2 -0.8476 19.176513 45.684466 26.689576
1656 552 1 0.4238 18.31394 46.188377 26.644411
1657 553 1 0.4238 14.72866 14.04851 4.83097
1658 553 2 -0.8476 14.687644 14.266928 3.855977
1659 553 1 0.4238 14.274856 15.169506 3.733675
1660 554 1 0.4238 26.349246 13.756003 6.348813
1661 554 2 -0.8476 25.351154 13.748661 6.287503
1662 554 1 0.4238 25.027317 12.803951 6.236009
1663 555 1 0.4238 9.014886 21.942782 6.829456
1664 555 2 -0.8476 8.960766 20.977855 6.572578
1665 555 1 0.4238 9.815476 20.701466 6.133168
1666 556 1 0.4238 15.108009 34.793875 41.717237
1667 556 2 -0.8476 15.98877 34.957597 42.161596
1668 556 1 0.4238 16.08185 35.931552 42.368353
1669 557 1 0.4238 2.036141 13.509727 10.423
1670 557 2 -0.8476 1.499982 13.222037 9.62942
1671 557 1 0.4238 2.116504 12.919126 8.902685
1672 558 1 0.4238 11.957153 16.940564 22.095597
1673 558 2 -0.8476 10.998971 17.038589 21.826751
1674 558 1 0.4238 10.410075 16.722229 22.57047
1675 559 1 0.4238 8.452994 17.872264 43.091304
1676 559 2 -0.8476 8.330398 18.86408 43.126975
1677 559 1 0.4238 7.720666 19.097534 43.884421
1678 560 1 0.4238 44.833653 19.796267 31.771789
1679 560 2 -0.8476 44.219474 20.290766 31.156766
1680 560 1 0.4238 43.447964 20.655187 31.678273
1681 561 1 0.4238 22.546491 37.814937 6.634505
1682 561 2 -0.8476 22.231893 36.889366 6.423922
1683 561 1 0.4238 21.28382 36.783278 6.723761
1684 562 1 0.4238 4.288815 15.756114 11.582425
1685 562 2 -0.8476 3.78075 14.89516 11.557341
1686 562 1 0.4238 4.421508 14.128634 11.600542
1687 563 1 0.4238 1.712389 40.094552 43.118843
1688 563 2 -0.8476 1.550231 41.079739 43.174627
1689 563 1 0.4238 1.504975 41.462854 42.252036
1690 564 1 0.4238 1.499972 24.174291 44.769074
1691 564 2 -0.8476 2.399978 24.578489 44.605937
1692 564 1 0.4238 2.290163 25.471435 44.169373
1693 565 1 0.4238 12.855572 13.735381 44.787906
1694 565 2 -0.8476 12.583288 13.323157 45.65735
1695 565 1 0.4238 13.085628 12.469219 45.793158
1696 566 1 0.4238 18.980177 34.128315 21.761464
1697 566 2 -0.8476 18.53549 33.233291 21.795878
1698 566 1 0.4238 17.543837 33.355195 21.837856
1699 567 1 0.4238 45.005028 27.639622 37.390917
1700 567 2 -0.8476 45.204139 26.753335 36.972766
1701 567 1 0.4238 45.055991 26.027205 37.644172
1702 568 1 0.4238 31.710872 15.037988 18.62213
1703 568 2 -0.8476 31.241743 14.226897 18.971487
1704 568 1 0.4238 30.253861 14.342948 18.868433
1705 569 1 0.4238 32.401465 46.383979 34.969762
1706 569 2 -0.8476 32.043254 45.463482 35.125873
1707 569 1 0.4238 31.694005 45.39579 36.060455
1708 570 1 0.4238 45.933919 12.473791 42.913064
1709 570 2 -0.8476 45.711207 11.49909 42.931942
1710 570 1 0.4238 46.555208 10.965287 42.984071
1711 571 1 0.4238 7.17795 13.473908 4.720805
1712 571 2 -0.8476 6.820374 12.556084 4.893252
1713 571 1 0.4238 6.435446 12.184185 4.048551
1714 572 1 0.4238 23.33554 27.893839 6.15295
1715 572 2 -0.8476 22.742767 27.120134 6.376561
1716 572 1 0.4238 21.79001 27.423514 6.391187
1717 573 1 0.4238 19.802572 27.021474 39.752984
1718 573 2 -0.8476 19.935636 26.704422 40.692011
1719 573 1 0.4238 20.499434 27.363589 41.189635
1720 574 1 0.4238 48.178037 39.883231 38.634102
1721 574 2 -0.8476 48.130171 39.060367 39.20032
1722 574 1 0.4238 47.191348 38.716082 39.209284
1723 575 1 0.4238 48.171114 1.641561 44.01843
1724 575 2 -0.8476 47.680625 1.515224 44.880671
1725 575 1 0.4238 48.087053 2.098556 45.583906
1726 576 1 0.4238 31.589208 45.662547 24.851549
1727 576 2 -0.8476 32.116733 45.57475 24.006558
1728 576 1 0.4238 33.054189 45.884624 24.165155
1729 577 1 0.4238 11.538495 41.507336 27.551532
1730 577 2 -0.8476 12.47764 41.2216 27.742217
1731 577 1 0.4238 13.055864 41.428988 26.953137
1732 578 1 0.4238 25.866556 35.226728 30.116216
1733 578 2 -0.8476 26.734548 35.651832 30.372881
1734 578 1 0.4238 27.166546 36.044145 29.560804
1735 579 1 0.4238 21.892766 39.664542 40.152966
1736 579 2 -0.8476 21.283549 38.871557 40.158276
1737 579 1 0.4238 20.332833 39.181611 40.156122
1738 580 1 0.4238 34.848899 3.727098 3.654308
1739 580 2 -0.8476 34.241166 3.778424 4.44679
1740 580 1 0.4238 33.372717 4.192774 4.174558
1741 581 1 0.4238 37.366839 12.287728 38.248175
1742 581 2 -0.8476 37.732365 12.216644 37.320092
1743 581 1 0.4238 37.124859 12.693886 36.685131
1744 582 1 0.4238 39.955116 16.493886 6.725625
1745 582 2 -0.8476 40.877347 16.734861 7.027986
1746 582 1 0.4238 41.520184 16.027911 6.73306
1747 583 1 0.4238 23.782952 47.28008 31.799382
1748 583 2 -0.8476 24.121527 48.178004 31.518135
1749 583 1 0.4238 25.090906 48.109799 31.282228
1750 584 1 0.4238 42.487487 22.466758 34.73721
1751 584 2 -0.8476 41.944245 21.917636 34.102111
1752 584 1 0.4238 41.054536 22.352293 33.962502
1753 585 1 0.4238 45.284905 4.479707 28.850673
1754 585 2 -0.8476 45.714534 3.639757 28.519157
1755 585 1 0.4238 45.576827 3.562221 27.531724
1756 586 1 0.4238 38.173444 8.788736 13.012962
1757 586 2 -0.8476 38.321903 9.742156 13.275544
1758 586 1 0.4238 37.480638 10.114905 13.667121
1759 587 1 0.4238 40.998482 43.323982 15.104028
1760 587 2 -0.8476 40.938393 42.347992 14.894666
1761 587 1 0.4238 41.106492 42.205365 13.919268
1762 588 1 0.4238 9.138816 1.4999 7.869525
1763 588 2 -0.8476 8.339032 2.016277 8.175631
1764 588 1 0.4238 7.508686 1.499975 7.965968
1765 589 1 0.4238 1.726333 30.074924 45.687448
1766 589 2 -0.8476 1.49991 30.637198 44.892098
1767 589 1 0.4238 1.525855 30.073066 44.066821
1768 590 1 0.4238 30.66037 48.178 34.961824
1769 590 2 -0.8476 30.37101 48.129048 35.917792
1770 590 1 0.4238 29.981546 47.22669 36.102364
1771 591 1 0.4238 19.579281 24.650317 36.428575
1772 591 2 -0.8476 19.705111 23.685053 36.199595
1773 591 1 0.4238 20.672065 23.445255 36.28618
1774 592 1 0.4238 44.245784 32.318927 39.749001
1775 592 2 -0.8476 43.650301 32.450844 38.956538
1776 592 1 0.4238 42.899579 31.791086 38.990225
1777 593 1 0.4238 27.837575 32.182423 1.499982
1778 593 2 -0.8476 27.583675 33.149191 1.52989
1779 593 1 0.4238 26.606966 33.231319 1.728116
1780 594 1 0.4238 14.540491 48.178 27.722868
1781 594 2 -0.8476 15.325628 47.604313 27.489537
1782 594 1 0.4238 16.137771 48.178013 27.383276
1783 595 1 0.4238 23.451893 36.811684 9.617532
1784 595 2 -0.8476 22.581643 36.732236 9.131371
1785 595 1 0.4238 22.350445 35.766013 9.017523
1786 596 1 0.4238 16.370613 12.59942 17.942909
1787 596 2 -0.8476 16.859316 13.093098 18.66225
1788 596 1 0.4238 16.297555 13.855156 18.984262
1789 597 1 0.4238 1.628214 11.03849 18.182138
1790 597 2 -0.8476 2.133822 10.177545 18.126147
1791 597 1 0.4238 1.499999 9.431434 17.922216
1792 598 1 0.4238 39.019162 3.034292 45.634308
1793 598 2 -0.8476 38.756922 2.381313 44.923781
1794 598 1 0.4238 39.193661 1.499868 45.103537
1795 599 1 0.4238 1.540721 20.029613 5.439952
1796 599 2 -0.8476 1.742049 19.594213 4.562516
1797 599 1 0.4238 1.500173 20.216742 3.818236
1798 600 1 0.4238 10.628584 29.530826 37.752882
1799 600 2 -0.8476 11.00051 28.685138 37.37015
1800 600 1 0.4238 11.874394 28.476595 37.809282
1801 601 1 0.4238 17.092218 10.8383 28.442589
1802 601 2 -0.8476 18.06337 10.657551 28.287043
1803 601 1 0.4238 18.583632 10.905567 29.104242
1804 602 1 0.4238 31.805136 18.086193 16.208376
1805 602 2 -0.8476 31.99264 17.120503 16.388057
1806 602 1 0.4238 32.727678 17.043405 17.061686
1807 603 1 0.4238 1.705873 48.145166 30.778571
1808 603 2 -0.8476 1.505637 47.166049 30.743425
1809 603 1 0.4238 2.099282 46.728465 30.068069
1810 604 1 0.4238 48.178008 48.17809 8.005651
1811 604 2 -0.8476 47.956562 48.178036 7.030479
1812 604 1 0.4238 48.178021 47.285142 6.638439
1813 605 1 0.4238 30.762424 36.723458 47.872746
1814 605 2 -0.8476 31.721338 36.444879 47.926397
1815 605 1 0.4238 32.284113 37.233359 48.174555
1816 606 1 0.4238 2.095793 31.119444 9.47146
1817 606 2 -0.8476 2.293306 32.079822 9.274828
1818 606 1 0.4238 1.499988 32.499801 8.834075
1819 607 1 0.4238 4.28694 38.487422 41.877361
1820 607 2 -0.8476 4.324708 37.964598 41.025757
1821 607 1 0.4238 3.86393 37.086274 41.153156
1822 608 1 0.4238 26.863765 10.71214 44.486973
1823 608 2 -0.8476 26.5422 11.453965 45.075438
1824 608 1 0.4238 27.072219 12.281141 44.888731
1825 609 1 0.4238 28.845166 9.000892 42.712751
1826 609 2 -0.8476 27.845202 9.008449 42.708719
1827 609 1 0.4238 27.504755 8.068195 42.712763
1828 610 1 0.4238 40.180102 32.984424 18.2861
1829 610 2 -0.8476 39.453775 32.383477 17.952463
1830 610 1 0.4238 38.841252 32.900907 17.354901
1831 611 1 0.4238 4.049797 48.111855 25.690237
1832 611 2 -0.8476 3.776729 47.14992 25.701018
1833 611 1 0.4238 4.59267 46.571946 25.714664
1834 612 1 0.4238 44.075032 43.562281 25.206773
1835 612 2 -0.8476 43.237383 43.136046 25.54834
1836 612 1 0.4238 43.377371 42.834798 26.491554
1837 613 1 0.4238 1.70956 46.144495 20.737108
1838 613 2 -0.8476 1.50112 46.819458 20.02931
1839 613 1 0.4238 1.522389 46.378781 19.131897
1840 614 1 0.4238 44.089302 42.521176 38.534503
1841 614 2 -0.8476 44.448497 43.097054 37.800103
1842 614 1 0.4238 43.70818 43.649973 37.417726
1843 615 1 0.4238 36.784901 24.549023 1.534919
1844 615 2 -0.8476 36.052435 23.868474 1.516297
1845 615 1 0.4238 35.166727 24.332428 1.499941
1846 616 1 0.4238 14.781334 32.199339 2.743338
1847 616 2 -0.8476 14.062083 31.561677 2.467539
1848 616 1 0.4238 14.242864 31.236525 1.539319
1849 617 1 0.4238 10.817772 8.320369 44.306845
1850 617 2 -0.8476 10.038918 8.014347 44.854326
1851 617 1 0.4238 9.987345 8.556672 45.69291
1852 618 1 0.4238 48.177995 20.516171 26.972965
1853 618 2 -0.8476 47.600624 20.066824 26.291253
1854 618 1 0.4238 48.177107 19.655102 25.585455
1855 619 1 0.4238 36.586769 38.049262 26.645168
1856 619 2 -0.8476 37.290476 38.008517 27.354489
1857 619 1 0.4238 36.886199 38.241809 28.238872
1858 620 1 0.4238 7.504541 15.576837 1.545322
1859 620 2 -0.8476 8.492032 15.732911 1.522869
1860 620 1 0.4238 8.968 14.853746 1.499998
1861 621 1 0.4238 16.389196 35.037796 8.689394
1862 621 2 -0.8476 15.470919 35.328521 8.420607
1863 621 1 0.4238 15.475772 35.600719 7.458379
1864 622 1 0.4238 5.42801 1.906253 19.520856
1865 622 2 -0.8476 6.109897 1.500175 18.912472
1866 622 1 0.4238 7.00863 1.891189 19.110931
1867 623 1 0.4238 10.224718 13.665946 25.861019
1868 623 2 -0.8476 10.714202 13.618901 26.731762
1869 623 1 0.4238 10.151407 14.023145 27.452767
1870 624 1 0.4238 32.052214 41.676448 41.350258
1871 624 2 -0.8476 32.758109 42.376218 41.240556
1872 624 1 0.4238 33.035264 42.422502 40.280846
1873 625 1 0.4238 45.520224 1.499998 22.148361
1874 625 2 -0.8476 45.231787 2.439915 21.965712
1875 625 1 0.4238 45.382241 2.653113 21.000358
1876 626 1 0.4238 45.107557 35.091251 34.764408
1877 626 2 -0.8476 45.837608 35.719904 35.032404
1878 626 1 0.4238 45.553104 36.236123 35.840225
1879 627 1 0.4238 44.892208 18.487813 22.303337
1880 627 2 -0.8476 45.739992 18.309075 21.804022
1881 627 1 0.4238 45.575444 18.405942 20.822421
1882 628 1 0.4238 13.180539 23.475975 25.478692
1883 628 2 -0.8476 13.187944 23.925339 26.37201
1884 628 1 0.4238 13.041689 24.907325 26.252375
1885 629 1 0.4238 33.011506 40.297766 48.072583
1886 629 2 -0.8476 33.695296 41.02601 48.02684
1887 629 1 0.4238 33.251924 41.909508 48.178009
1888 630 1 0.4238 17.827077 36.590515 39.747018
1889 630 2 -0.8476 17.185475 35.832721 39.865738
1890 630 1 0.4238 16.260822 36.140652 39.641696
1891 631 1 0.4238 5.030136 30.407994 43.255221
1892 631 2 -0.8476 4.481906 30.548056 42.430706
1893 631 1 0.4238 3.522326 30.668682 42.68498
1894 632 1 0.4238 30.493121 22.728835 41.442571
1895 632 2 -0.8476 30.063778 23.007802 42.301548
1896 632 1 0.4238 30.772104 23.214789 42.976403
1897 633 1 0.4238 34.557658 13.751126 22.484752
1898 633 2 -0.8476 34.730583 14.735344 22.447202
1899 633 1 0.4238 33.863714 15.228972 22.516978
1900 634 1 0.4238 4.187911 32.528252 44.284967
1901 634 2 -0.8476 3.522335 32.152788 44.929975
1902 634 1 0.4238 3.874031 31.298273 45.312223
1903 635 1 0.4238 3.338564 18.141861 25.115727
1904 635 2 -0.8476 2.66883 18.644378 24.568979
1905 635 1 0.4238 3.131303 19.370573 24.060295
1906 636 1 0.4238 21.037577 1.506091 40.809159
1907 636 2 -0.8476 21.405596 1.983175 40.011065
1908 636 1 0.4238 21.133436 1.499847 39.179006
1909 637 1 0.4238 33.887301 43.050905 7.371052
1910 637 2 -0.8476 33.219962 42.392685 7.719484
1911 637 1 0.4238 33.615628 41.893082 8.490098
1912 638 1 0.4238 41.042458 25.952177 34.365719
1913 638 2 -0.8476 41.420871 25.078473 34.06003
1914 638 1 0.4238 42.419677 25.121466 34.083207
1915 639 1 0.4238 43.083516 36.398736 23.211317
1916 639 2 -0.8476 43.956425 36.313957 22.730858
1917 639 1 0.4238 43.93687 35.504153 22.144484
1918 640 1 0.4238 29.935364 19.890324 9.173753
1919 640 2 -0.8476 29.056645 19.773185 9.636494
1920 640 1 0.4238 29.107086 18.988115 10.253845
1921 641 1 0.4238 31.59322 12.291899 12.065706
1922 641 2 -0.8476 32.387547 11.95661 12.572289
1923 641 1 0.4238 33.012309 11.493166 11.943885
1924 642 1 0.4238 31.761137 24.246481 1.500637
1925 642 2 -0.8476 32.511584 24.775231 1.897188
1926 642 1 0.4238 32.518822 25.693042 1.500237
1927 643 1 0.4238 19.196357 28.088295 43.196321
1928 643 2 -0.8476 18.329919 27.593127 43.260307
1929 643 1 0.4238 18.404676 26.725636 42.768503
1930 644 1 0.4238 27.798096 45.586637 24.006556
1931 644 2 -0.8476 27.139642 45.911611 24.685401
1932 644 1 0.4238 26.274235 46.12793 24.233433
1933 645 1 0.4238 7.676273 33.285026 18.485952
1934 645 2 -0.8476 6.732444 32.954645 18.480015
1935 645 1 0.4238 6.106512 33.734278 18.460508
1936 646 1 0.4238 48.178 26.136039 21.813833
1937 646 2 -0.8476 47.648295 26.769102 21.249348
1938 646 1 0.4238 48.178 27.603619 21.097708
1939 647 1 0.4238 6.880474 28.041634 3.386762
1940 647 2 -0.8476 7.42672 28.838726 3.129354
1941 647 1 0.4238 7.883342 28.662366 2.257349
1942 648 1 0.4238 11.810387 44.670587 22.308009
1943 648 2 -0.8476 11.258166 44.90602 23.107773
1944 648 1 0.4238 10.345379 44.509191 23.011095
1945 649 1 0.4238 24.57699 31.429352 26.522223
1946 649 2 -0.8476 24.260915 32.206888 25.978591
1947 649 1 0.4238 23.345882 32.015378 25.623572
1948 650 1 0.4238 22.376177 17.105332 8.006873
1949 650 2 -0.8476 21.71885 16.357626 8.100984
1950 650 1 0.4238 20.905863 16.687001 8.581155
1951 651 1 0.4238 41.133798 26.709078 48.178043
1952 651 2 -0.8476 41.696165 27.405236 47.731829
1953 651 1 0.4238 41.356294 27.56447 46.804935
1954 652 1 0.4238 11.087475 18.69166 39.475361
1955 652 2 -0.8476 11.652808 19.516065 39.447877
1956 652 1 0.4238 11.069569 20.315533 39.304062
1957 653 1 0.4238 20.920077 33.385518 1.500003
1958 653 2 -0.8476 19.966468 33.678705 1.568345
1959 653 1 0.4238 19.924102 34.677807 1.568171
1960 654 1 0.4238 42.065931 40.576436 18.208612
1961 654 2 -0.8476 42.325912 39.611887 18.253934
1962 654 1 0.4238 43.321243 39.53749 18.31542
1963 655 1 0.4238 9.026386 8.108328 17.342071
1964 655 2 -0.8476 9.49504 7.262353 17.596412
1965 655 1 0.4238 8.833655 6.513247 17.633954
1966 656 1 0.4238 33.596109 14.563459 32.7204
1967 656 2 -0.8476 34.371241 15.142988 32.972031
1968 656 1 0.4238 34.074632 16.097112 33.012889
1969 657 1 0.4238 9.450455 19.128044 48.178006
1970 657 2 -0.8476 8.907474 19.966014 48.123452
1971 657 1 0.4238 7.936336 19.731629 48.079246
1972 658 1 0.4238 48.178 44.635111 22.932534
1973 658 2 -0.8476 48.021631 43.677586 23.174801
1974 658 1 0.4238 47.142526 43.591668 23.643621
1975 659 1 0.4238 32.6215 35.708694 38.073099
1976 659 2 -0.8476 31.797585 35.591314 38.627524
1977 659 1 0.4238 31.621072 34.615959 38.759903
1978 660 1 0.4238 34.100909 20.81121 15.822456
1979 660 2 -0.8476 34.165902 19.845804 16.074977
1980 660 1 0.4238 33.844356 19.72454 17.014074
1981 661 1 0.4238 29.138208 13.905149 44.92888
1982 661 2 -0.8476 29.869426 14.570686 45.078481
1983 661 1 0.4238 29.791234 15.308197 44.407688
1984 662 1 0.4238 29.819322 7.327857 2.495232
1985 662 2 -0.8476 29.562571 7.586786 1.564084
1986 662 1 0.4238 28.567039 7.656017 1.499881
1987 663 1 0.4238 48.178268 45.867541 38.230399
1988 663 2 -0.8476 47.591736 45.714175 39.025672
1989 663 1 0.4238 48.159812 45.549267 39.831957
1990 664 1 0.4238 41.950946 1.673022 18.459364
1991 664 2 -0.8476 40.960772 1.544247 18.404848
1992 664 1 0.4238 40.504283 2.221829 18.981477
1993 665 1 0.4238 11.531345 36.614887 21.649713
1994 665 2 -0.8476 10.59674 36.873082 21.894351
1995 665 1 0.4238 10.61931 37.652549 22.520387
1996 666 1 0.4238 9.250612 25.09214 28.16715
1997 666 2 -0.8476 9.67363 24.709842 28.988676
1998 666 1 0.4238 9.471228 23.732083 29.043619
1999 667 1 0.4238 18.865362 12.705026 14.073933
2000 667 2 -0.8476 19.42449 13.534088 14.068165
2001 667 1 0.4238 18.921988 14.271881 13.61744
2002 668 1 0.4238 19.094731 46.056511 4.104572
2003 668 2 -0.8476 19.712474 45.356391 3.746486
2004 668 1 0.4238 20.231442 44.952816 4.50001
2005 669 1 0.4238 10.527801 34.834111 44.507628
2006 669 2 -0.8476 10.908891 35.605259 45.017629
2007 669 1 0.4238 10.274065 36.376934 44.978732
2008 670 1 0.4238 23.581095 31.076638 11.571163
2009 670 2 -0.8476 24.370546 30.508265 11.802938
2010 670 1 0.4238 25.193548 31.075693 11.829273
2011 671 1 0.4238 13.234033 48.003216 6.32337
2012 671 2 -0.8476 14.218235 48.178008 6.351531
2013 671 1 0.4238 14.712366 47.339769 6.120902
2014 672 1 0.4238 1.499699 18.383092 46.422173
2015 672 2 -0.8476 2.041086 19.215676 46.305105
2016 672 1 0.4238 1.499946 20.007645 46.587863
2017 673 1 0.4238 1.524306 7.918336 48.14815
2018 673 2 -0.8476 1.622703 8.358347 47.255564
2019 673 1 0.4238 1.494379 9.345137 47.354444
2020 674 1 0.4238 15.864709 43.700068 22.297989
2021 674 2 -0.8476 14.879953 43.605553 22.444011
2022 674 1 0.4238 14.634946 44.000013 23.329659
2023 675 1 0.4238 44.158126 19.468688 4.086092
2024 675 2 -0.8476 43.524313 19.176041 3.370105
2025 675 1 0.4238 44.028942 18.690217 2.656435
2026 676 1 0.4238 48.178017 30.227511 12.487195
2027 676 2 -0.8476 47.603454 31.043611 12.549314
2028 676 1 0.4238 48.178007 31.860457 12.497825
2029 677 1 0.4238 39.834672 17.987478 23.729442
2030 677 2 -0.8476 39.07112 18.630399 23.669105
2031 677 1 0.4238 39.377441 19.539213 23.95234
2032 678 1 0.4238 20.485644 39.590181 47.192613
2033 678 2 -0.8476 20.778731 39.793111 48.126915
2034 678 1 0.4238 21.097845 40.739448 48.178017
2035 679 1 0.4238 16.561399 47.983175 21.551675
2036 679 2 -0.8476 15.960995 48.15425 20.770491
2037 679 1 0.4238 16.504405 48.178 19.93136
2038 680 1 0.4238 10.41685 46.506237 21.339281
2039 680 2 -0.8476 11.075502 47.224668 21.562964
2040 680 1 0.4238 10.88527 47.577813 22.478988
2041 681 1 0.4238 42.551654 15.45478 40.769234
2042 681 2 -0.8476 42.092014 15.587396 39.891085
2043 681 1 0.4238 41.101759 15.590535 40.030315
2044 682 1 0.4238 6.412916 47.688204 33.950847
2045 682 2 -0.8476 5.714063 48.178059 33.42965
2046 682 1 0.4238 4.852383 48.169004 33.93702
2047 683 1 0.4238 35.67256 48.178025 35.585017
2048 683 2 -0.8476 34.857316 47.605166 35.500099
2049 683 1 0.4238 34.039785 48.178022 35.559082
2050 684 1 0.4238 17.724706 7.59577 37.912755
2051 684 2 -0.8476 17.975413 7.69385 36.949674
2052 684 1 0.4238 17.903935 8.654942 36.682854
2053 685 1 0.4238 20.037743 2.586896 36.295154
2054 685 2 -0.8476 20.57873 1.830085 36.661992
2055 685 1 0.4238 21.209351 1.49999 35.9596
2056 686 1 0.4238 7.294623 9.632572 13.968808
2057 686 2 -0.8476 7.479066 9.539178 12.990412
2058 686 1 0.4238 7.374325 8.581757 12.721386
2059 687 1 0.4238 25.932971 1.5 16.86704
2060 687 2 -0.8476 25.230613 2.046797 16.411293
2061 687 1 0.4238 24.400318 1.5 16.303479
2062 688 1 0.4238 5.61795 46.050844 17.596263
2063 688 2 -0.8476 5.64211 45.789463 16.63133
2064 688 1 0.4238 4.728702 45.887904 16.236368
2065 689 1 0.4238 11.971067 20.787049 17.30575
2066 689 2 -0.8476 12.74887 21.302247 17.665741
2067 689 1 0.4238 12.416464 22.104081 18.162297
2068 690 1 0.4238 15.736036 47.789488 8.3596
2069 690 2 -0.8476 16.637044 48.178025 8.16667
2070 690 1 0.4238 16.854179 48.051728 7.198733
2071 691 1 0.4238 24.12086 1.499998 48.178252
2072 691 2 -0.8476 23.313204 2.089635 48.173842
2073 691 1 0.4238 22.488074 1.524692 48.173071
2074 692 1 0.4238 30.443695 9.19079 4.041071
2075 692 2 -0.8476 29.838156 9.948584 4.284115
2076 692 1 0.4238 29.872237 10.098764 5.272186
2077 693 1 0.4238 16.262819 34.8313 4.879058
2078 693 2 -0.8476 15.561257 34.135221 4.726462
2079 693 1 0.4238 14.914806 34.459335 4.035774
2080 694 1 0.4238 20.060108 16.701535 31.644714
2081 694 2 -0.8476 19.065944 16.593658 31.644753
2082 694 1 0.4238 18.636313 17.463352 31.887753
2083 695 1 0.4238 18.681893 19.839978 45.675487
2084 695 2 -0.8476 17.75275 20.099243 45.411906
2085 695 1 0.4238 17.174136 20.13941 46.226517
2086 696 1 0.4238 6.639706 39.895832 5.775682
2087 696 2 -0.8476 7.517689 39.512754 5.488632
2088 696 1 0.4238 8.217241 39.737762 6.166863
2089 697 1 0.4238 18.479946 17.672059 10.986245
2090 697 2 -0.8476 19.286408 17.894322 10.438324
2091 697 1 0.4238 19.226914 18.842825 10.127193
2092 698 1 0.4238 46.362275 24.621546 3.929218
2093 698 2 -0.8476 46.092212 24.26496 4.823597
2094 698 1 0.4238 46.659056 24.682363 5.533852
2095 699 1 0.4238 11.490301 26.120499 47.691047
2096 699 2 -0.8476 10.865473 25.465426 48.115863
2097 699 1 0.4238 9.952202 25.868011 48.178002
2098 700 1 0.4238 12.515217 48.144396 29.18955
2099 700 2 -0.8476 12.591375 47.254358 29.639031
2100 700 1 0.4238 13.553559 46.986102 29.686366
2101 701 1 0.4238 37.555145 45.679803 14.266325
2102 701 2 -0.8476 36.727993 45.170033 14.029778
2103 701 1 0.4238 35.962477 45.502766 14.580481
2104 702 1 0.4238 22.274371 1.500001 18.085627
2105 702 2 -0.8476 21.3747 1.512237 17.64923
2106 702 1 0.4238 21.023898 2.448576 17.63491
2107 703 1 0.4238 29.388387 48.178 32.049142
2108 703 2 -0.8476 28.745493 47.992786 31.305917
2109 703 1 0.4238 27.813492 48.177995 31.61748
2110 704 1 0.4238 47.965439 1.500001 21.627471
2111 704 2 -0.8476 48.178001 1.743018 20.681025
2112 704 1 0.4238 47.406405 1.500004 20.093161
2113 705 1 0.4238 46.072183 19.470575 9.896191
2114 705 2 -0.8476 45.453535 18.699548 10.047162
2115 705 1 0.4238 44.597481 19.031673 10.443224
2116 706 1 0.4238 35.66563 45.207905 23.383598
2117 706 2 -0.8476 35.87791 45.32947 22.41398
2118 706 1 0.4238 36.804748 45.692632 22.318669
2119 707 1 0.4238 9.673886 8.764546 1.539984
2120 707 2 -0.8476 8.84726 9.327261 1.533609
2121 707 1 0.4238 9.10215 10.293642 1.499868
2122 708 1 0.4238 19.900612 12.132701 19.495035
2123 708 2 -0.8476 19.174452 12.554878 20.037675
2124 708 1 0.4238 19.026009 12.019962 20.869438
2125 709 1 0.4238 7.601441 19.244362 21.013659
2126 709 2 -0.8476 8.584632 19.389391 20.902748
2127 709 1 0.4238 9.027266 18.519739 20.684161
2128 710 1 0.4238 12.423809 40.066424 1.63616
2129 710 2 -0.8476 11.548979 40.530832 1.498326
2130 710 1 0.4238 10.802938 39.925626 1.77608
2131 711 1 0.4238 7.472148 43.609857 20.781548
2132 711 2 -0.8476 7.028169 44.505735 20.798406
2133 711 1 0.4238 7.678933 45.205822 20.504493
2134 712 1 0.4238 17.445915 35.206428 48.072976
2135 712 2 -0.8476 17.948856 34.343207 48.116564
2136 712 1 0.4238 18.929075 34.531298 48.178145
2137 713 1 0.4238 40.205955 10.683671 11.588541
2138 713 2 -0.8476 40.55783 11.442188 12.137027
2139 713 1 0.4238 40.791649 12.207127 11.536863
2140 714 1 0.4238 10.706842 41.934745 8.464033
2141 714 2 -0.8476 9.909085 41.332669 8.431041
2142 714 1 0.4238 10.211538 40.380009 8.400028
2143 715 1 0.4238 14.149342 9.956247 32.425607
2144 715 2 -0.8476 14.876476 10.612605 32.62678
2145 715 1 0.4238 15.279358 10.401165 33.517274
2146 716 1 0.4238 39.308943 6.781158 26.398593
2147 716 2 -0.8476 39.933156 6.091275 26.03196
2148 716 1 0.4238 40.137866 6.301413 25.075961
2149 717 1 0.4238 21.033549 1.508429 8.931998
2150 717 2 -0.8476 21.572361 2.257114 8.545795
2151 717 1 0.4238 20.964831 3.011863 8.298285
2152 718 1 0.4238 17.062536 17.340822 21.588683
2153 718 2 -0.8476 17.800619 17.77635 21.073368
2154 718 1 0.4238 18.60348 17.876432 21.661073
2155 719 1 0.4238 22.696196 32.658379 45.705533
2156 719 2 -0.8476 22.060238 31.933791 45.971105
2157 719 1 0.4238 21.180976 32.337917 46.223255
2158 720 1 0.4238 1.499987 22.122513 1.505116
2159 720 2 -0.8476 1.90102 21.20771 1.553157
2160 720 1 0.4238 2.885431 21.283245 1.711992
2161 721 1 0.4238 17.685449 26.880482 38.068491
2162 721 2 -0.8476 17.731607 26.527901 37.133848
2163 721 1 0.4238 16.989268 25.874124 36.987195
2164 722 1 0.4238 17.06802 38.113153 25.743957
2165 722 2 -0.8476 17.503455 38.909587 25.324326
2166 722 1 0.4238 17.280391 38.936636 24.349898
2167 723 1 0.4238 6.802203 40.98087 9.499694
2168 723 2 -0.8476 7.783322 40.955551 9.691435
2169 723 1 0.4238 8.099834 40.006985 9.684966
2170 724 1 0.4238 38.827045 37.331646 6.267065
2171 724 2 -0.8476 39.663043 37.84434 6.462646
2172 724 1 0.4238 39.915011 38.388802 5.6626
2173 725 1 0.4238 5.420971 46.417735 20.693065
2174 725 2 -0.8476 4.437812 46.241147 20.645987
2175 725 1 0.4238 3.99618 46.956721 20.104772
2176 726 1 0.4238 39.878604 22.947155 39.768165
2177 726 2 -0.8476 39.619624 23.183871 38.831738
2178 726 1 0.4238 39.26805 22.370914 38.367524
2179 727 1 0.4238 33.743701 40.393759 22.934922
2180 727 2 -0.8476 33.938013 41.372486 22.869075
2181 727 1 0.4238 34.87728 41.505275 22.55262
2182 728 1 0.4238 11.094073 13.130761 40.883786
2183 728 2 -0.8476 11.63139 13.295607 40.056673
2184 728 1 0.4238 12.111138 14.169101 40.139437
2185 729 1 0.4238 8.197768 26.362915 40.662422
2186 729 2 -0.8476 8.014384 26.531108 39.693876
2187 729 1 0.4238 7.827401 25.662842 39.234364
2188 730 1 0.4238 42.920773 15.188335 21.247455
2189 730 2 -0.8476 43.330425 16.093341 21.362125
2190 730 1 0.4238 44.324876 16.004386 21.418276
2191 731 1 0.4238 44.446599 36.353443 8.586773
2192 731 2 -0.8476 45.164905 35.723919 8.882976
2193 731 1 0.4238 44.749945 34.930446 9.328183
2194 732 1 0.4238 43.742564 36.994184 47.305174
2195 732 2 -0.8476 43.119372 36.625041 46.615707
2196 732 1 0.4238 42.67283 37.378201 46.132645
2197 733 1 0.4238 38.007449 23.427999 32.961811
2198 733 2 -0.8476 38.844612 23.833785 33.328546
2199 733 1 0.4238 38.890342 24.797736 33.066426
2200 734 1 0.4238 22.126806 18.675324 38.478034
2201 734 2 -0.8476 21.311969 18.911497 39.007432
2202 734 1 0.4238 21.150004 18.209479 39.700929
2203 735 1 0.4238 4.344228 8.026714 5.98378
2204 735 2 -0.8476 3.966513 8.479323 5.176019
2205 735 1 0.4238 4.184532 9.454744 5.207987
2206 736 1 0.4238 38.133892 45.484572 37.653694
2207 736 2 -0.8476 37.222939 45.741664 37.976292
2208 736 1 0.4238 36.713434 44.918469 38.2268
2209 737 1 0.4238 33.288817 34.011414 29.412828
2210 737 2 -0.8476 33.782158 34.02611 28.543116
2211 737 1 0.4238 33.574358 33.194594 28.027946
2212 738 1 0.4238 14.932524 21.62457 43.495523
2213 738 2 -0.8476 15.190495 22.513171 43.874785
2214 738 1 0.4238 16.110051 22.455416 44.263476
2215 739 1 0.4238 14.253832 19.27482 3.929877
2216 739 2 -0.8476 14.913429 18.523562 3.953199
2217 739 1 0.4238 14.446523 17.663559 3.747302
2218 740 1 0.4238 9.834394 3.345958 26.640681
2219 740 2 -0.8476 10.517643 2.907787 27.224785
2220 740 1 0.4238 11.25966 3.55189 27.410639
2221 741 1 0.4238 11.578731 8.68108 23.790116
2222 741 2 -0.8476 10.787904 8.204252 23.406413
2223 741 1 0.4238 10.842359 8.218342 22.407996
2224 742 1 0.4238 21.047836 20.454365 12.421676
2225 742 2 -0.8476 20.549924 19.588836 12.367435
2226 742 1 0.4238 20.176347 19.362276 13.266941
2227 743 1 0.4238 4.266293 44.211674 14.388998
2228 743 2 -0.8476 3.599428 44.75622 13.880313
2229 743 1 0.4238 3.99929 45.045561 13.010605
2230 744 1 0.4238 31.451031 45.268533 41.938336
2231 744 2 -0.8476 32.174556 44.620212 42.175384
2232 744 1 0.4238 33.046503 44.945343 41.809326
2233 745 1 0.4238 22.545504 33.660993 33.960477
2234 745 2 -0.8476 22.532125 32.828882 34.514925
2235 745 1 0.4238 23.174162 32.163835 34.133481
2236 746 1 0.4238 7.508241 22.900754 1.923385
2237 746 2 -0.8476 8.221871 22.208444 2.030332
2238 746 1 0.4238 9.027122 22.475244 1.500814
2239 747 1 0.4238 1.500457 7.506413 19.517289
2240 747 2 -0.8476 1.553826 6.674461 18.965015
2241 747 1 0.4238 1.499874 5.874046 19.562028
2242 748 1 0.4238 26.449514 12.610796 47.289733
2243 748 2 -0.8476 26.510934 12.1556 48.178004
2244 748 1 0.4238 26.703782 11.183852 48.041934
2245 749 1 0.4238 19.405426 46.491482 20.037379
2246 749 2 -0.8476 18.454088 46.65661 20.297547
2247 749 1 0.4238 18.258513 46.189652 21.159927
2248 750 1 0.4238 20.736446 25.201909 18.621032
2249 750 2 -0.8476 21.104985 24.834466 19.474943
2250 750 1 0.4238 21.074234 23.835286 19.448598
2251 751 1 0.4238 19.935012 13.620939 6.066622
2252 751 2 -0.8476 19.776188 14.56268 5.770143
2253 751 1 0.4238 19.777152 15.167489 6.566513
2254 752 1 0.4238 35.533386 32.328885 9.876609
2255 752 2 -0.8476 35.207318 31.510667 9.403112
2256 752 1 0.4238 35.781191 30.730502 9.652134
2257 753 1 0.4238 14.030062 34.704759 21.118592
2258 753 2 -0.8476 13.234551 34.794952 20.519403
2259 753 1 0.4238 12.549134 34.111364 20.770223
2260 754 1 0.4238 48.177589 13.930058 12.277327
2261 754 2 -0.8476 48.063838 13.005789 11.912929
2262 754 1 0.4238 47.984538 12.356658 12.66946
2263 755 1 0.4238 20.56203 23.460918 30.857058
2264 755 2 -0.8476 20.274297 23.038152 29.99771
2265 755 1 0.4238 19.640767 23.64822 29.521836
2266 756 1 0.4238 41.244284 17.68098 9.471087
2267 756 2 -0.8476 42.200596 17.628868 9.758753
2268 756 1 0.4238 42.363466 16.755503 10.21778
2269 757 1 0.4238 41.847396 13.295919 22.710431
2270 757 2 -0.8476 41.589492 12.386515 22.384132
2271 757 1 0.4238 41.941206 11.694184 23.014191
2272 758 1 0.4238 36.301673 3.380447 48.178012
2273 758 2 -0.8476 37.085251 3.907834 47.84958
2274 758 1 0.4238 36.860842 4.882223 47.863966
2275 759 1 0.4238 5.087154 30.091484 26.151093
2276 759 2 -0.8476 4.236972 29.745936 26.548317
2277 759 1 0.4238 4.326509 28.766048 26.726646
2278 760 1 0.4238 22.543076 41.683011 33.513989
2279 760 2 -0.8476 22.731702 42.630896 33.770764
2280 760 1 0.4238 21.868924 43.112796 33.923694
2281 761 1 0.4238 30.882603 1.499992 38.30726
2282 761 2 -0.8476 31.876131 1.594274 38.370605
2283 761 1 0.4238 32.116236 2.563557 38.423896
2284 762 1 0.4238 26.445173 16.321851 36.703062
2285 762 2 -0.8476 27.210647 16.266471 37.344142
2286 762 1 0.4238 27.367465 15.311047 37.594285
2287 763 1 0.4238 38.616316 6.135538 14.921294
2288 763 2 -0.8476 37.739476 6.123645 14.440658
2289 763 1 0.4238 37.884351 6.349318 13.477288
2290 764 1 0.4238 35.684727 23.352013 35.365725
2291 764 2 -0.8476 35.736528 22.784195 34.544203
2292 764 1 0.4238 35.612812 21.823933 34.794388
2293 765 1 0.4238 14.571064 27.613533 45.592678
2294 765 2 -0.8476 13.599989 27.376956 45.625
2295 765 1 0.4238 13.26279 27.480008 46.560776
2296 766 1 0.4238 19.750381 39.935545 23.701407
2297 766 2 -0.8476 20.420904 39.240975 23.962119
2298 766 1 0.4238 19.94811 38.388756 24.186148
2299 767 1 0.4238 31.529526 44.952115 12.220665
2300 767 2 -0.8476 31.609904 45.814612 12.720304
2301 767 1 0.4238 31.184645 45.719306 13.620343
2302 768 1 0.4238 19.900905 31.263957 36.312432
2303 768 2 -0.8476 20.852589 31.295799 36.007009
2304 768 1 0.4238 21.452751 31.414056 36.798097
2305 769 1 0.4238 13.829385 37.459588 14.75827
2306 769 2 -0.8476 13.273155 38.284933 14.855296
2307 769 1 0.4238 12.326967 38.027982 15.052028
2308 770 1 0.4238 40.430036 23.448393 15.262223
2309 770 2 -0.8476 40.927259 22.595026 15.418856
2310 770 1 0.4238 40.979756 22.415331 16.401177
2311 771 1 0.4238 8.013806 1.499995 21.372947
2312 771 2 -0.8476 8.986292 1.715698 21.284951
2313 771 1 0.4238 9.094928 2.551796 20.747235
2314 772 1 0.4238 1.503844 31.99574 3.086154
2315 772 2 -0.8476 2.059697 31.497354 2.420843
2316 772 1 0.4238 1.854953 31.829393 1.500066
2317 773 1 0.4238 20.304409 41.341441 10.707312
2318 773 2 -0.8476 20.526142 40.385675 10.514064
2319 773 1 0.4238 20.389667 39.838324 11.339764
2320 774 1 0.4238 8.604829 35.897957 23.485357
2321 774 2 -0.8476 8.934362 34.958659 23.5809
2322 774 1 0.4238 9.063369 34.556849 22.67431
2323 775 1 0.4238 8.207217 4.904872 39.673334
2324 775 2 -0.8476 7.369396 4.963599 39.130558
2325 775 1 0.4238 7.180889 5.920816 38.911012
2326 776 1 0.4238 46.899419 8.44669 16.471769
2327 776 2 -0.8476 47.470982 7.821174 17.002848
2328 776 1 0.4238 48.178063 7.432729 16.411962
2329 777 1 0.4238 45.539263 35.455024 41.618675
2330 777 2 -0.8476 45.523344 34.456607 41.564735
2331 777 1 0.4238 45.681383 34.171317 40.619414
2332 778 1 0.4238 27.914974 20.050116 31.236468
2333 778 2 -0.8476 28.881569 19.945507 31.002479
2334 778 1 0.4238 29.082172 18.97966 30.838474
2335 779 1 0.4238 35.620809 19.936233 47.68574
2336 779 2 -0.8476 34.947601 19.38445 48.178007
2337 779 1 0.4238 35.012921 18.432828 47.877761
2338 780 1 0.4238 45.33998 38.914164 3.998208
2339 780 2 -0.8476 45.399219 39.28047 4.926815
2340 780 1 0.4238 45.675866 38.553231 5.554978
2341 781 1 0.4238 36.952826 15.077385 38.008945
2342 781 2 -0.8476 37.565498 14.947393 38.788518
2343 781 1 0.4238 38.169942 15.739534 38.873127
2344 782 1 0.4238 31.989077 15.70695 8.450429
2345 782 2 -0.8476 31.495496 14.864738 8.66736
2346 782 1 0.4238 31.552415 14.68875 9.650105
2347 783 1 0.4238 37.605884 47.737915 18.787281
2348 783 2 -0.8476 37.702965 48.178004 19.679972
2349 783 1 0.4238 37.38448 47.555516 20.394869
2350 784 1 0.4238 19.928059 28.90911 1.503871
2351 784 2 -0.8476 19.244682 28.458203 2.078047
2352 784 1 0.4238 18.524874 28.073835 1.5
2353 785 1 0.4238 7.638826 5.372094 19.774823
2354 785 2 -0.8476 6.834437 4.985084 20.225578
2355 785 1 0.4238 6.996394 4.018468 20.424133
2356 786 1 0.4238 38.277204 40.949858 3.797428
2357 786 2 -0.8476 38.812782 40.119089 3.949012
2358 786 1 0.4238 38.195649 39.352035 4.124441
2359 787 1 0.4238 26.798533 4.295561 8.2573
2360 787 2 -0.8476 27.156804 4.075922 9.164715
2361 787 1 0.4238 26.809446 4.737475 9.829311
2362 788 1 0.4238 48.178698 2.517809 27.970049
2363 788 2 -0.8476 47.704785 1.78109 27.487709
2364 788 1 0.4238 46.903263 1.499048 28.01498
2365 789 1 0.4238 5.116439 25.118547 31.213393
2366 789 2 -0.8476 5.129616 24.120423 31.153603
2367 789 1 0.4238 5.504463 23.740767 31.999387
2368 790 1 0.4238 3.585002 40.528627 25.866795
2369 790 2 -0.8476 4.32407 40.398613 26.52776
2370 790 1 0.4238 4.485882 41.254237 27.019414
2371 791 1 0.4238 4.028065 27.282191 16.818002
2372 791 2 -0.8476 4.690568 27.26035 16.069262
2373 791 1 0.4238 4.220869 27.432895 15.203461
2374 792 1 0.4238 31.405464 45.883772 21.405213
2375 792 2 -0.8476 30.89036 46.539383 21.957338
2376 792 1 0.4238 31.48501 47.302909 22.209171
2377 793 1 0.4238 40.384274 10.875886 35.497136
2378 793 2 -0.8476 39.792538 11.082369 34.717897
2379 793 1 0.4238 39.757027 10.291105 34.107453
2380 794 1 0.4238 7.88944 19.375436 32.423416
2381 794 2 -0.8476 8.579189 20.019701 32.753824
2382 794 1 0.4238 9.476877 19.757668 32.399573
2383 795 1 0.4238 41.642004 9.187674 37.10614
2384 795 2 -0.8476 41.176963 8.302522 37.09053
2385 795 1 0.4238 40.513053 8.287952 36.34286
2386 796 1 0.4238 6.9211 45.426338 10.641964
2387 796 2 -0.8476 7.667765 45.661885 11.264065
2388 796 1 0.4238 8.331844 46.236194 10.785351
2389 797 1 0.4238 48.172822 7.760154 3.132651
2390 797 2 -0.8476 48.066249 7.175959 2.328065
2391 797 1 0.4238 48.169331 7.727047 1.50001
2392 798 1 0.4238 40.31078 8.231221 32.247059
2393 798 2 -0.8476 40.775776 7.958729 33.089393
2394 798 1 0.4238 40.736655 6.964072 33.184922
2395 799 1 0.4238 37.282277 29.186286 6.145617
2396 799 2 -0.8476 37.229813 30.149999 6.407354
2397 799 1 0.4238 38.150958 30.538135 6.436347
2398 800 1 0.4238 43.247627 26.263553 4.710213
2399 800 2 -0.8476 44.031835 26.439371 4.115145
2400 800 1 0.4238 44.860302 26.517067 4.669767
2401 801 1 0.4238 16.919704 29.075547 45.057147
2402 801 2 -0.8476 17.682531 29.324015 45.654105
2403 801 1 0.4238 18.443697 28.693491 45.502236
2404 802 1 0.4238 6.650707 41.286515 25.769444
2405 802 2 -0.8476 7.535831 41.036841 25.376739
2406 802 1 0.4238 8.232079 41.041141 26.094527
2407 803 1 0.4238 40.767606 43.305278 11.519105
2408 803 2 -0.8476 41.70852 42.97079 11.466203
2409 803 1 0.4238 42.339722 43.746028 11.490501
2410 804 1 0.4238 23.608588 16.814401 35.416706
2411 804 2 -0.8476 23.601725 16.580262 36.388885
2412 804 1 0.4238 23.823878 15.611604 36.500013
2413 805 1 0.4238 34.58177 36.539808 11.102541
2414 805 2 -0.8476 34.88744 37.355676 10.6117
2415 805 1 0.4238 35.425665 37.932339 11.226334
2416 806 1 0.4238 48.178001 19.11698 29.284938
2417 806 2 -0.8476 47.879736 19.360212 30.207909
2418 806 1 0.4238 48.176083 18.654008 30.850913
2419 807 1 0.4238 6.634604 2.336337 30.160843
2420 807 2 -0.8476 6.259225 2.206519 31.078578
2421 807 1 0.4238 5.946333 3.085617 31.43814
2422 808 1 0.4238 40.994446 46.031788 32.166487
2423 808 2 -0.8476 40.427311 45.730742 32.933122
2424 808 1 0.4238 40.639878 46.280424 33.740998
2425 809 1 0.4238 48.174175 15.021307 40.146681
2426 809 2 -0.8476 47.19046 15.175042 40.239797
2427 809 1 0.4238 46.714356 14.769183 39.459667
2428 810 1 0.4238 9.926917 35.6458 31.688058
2429 810 2 -0.8476 9.295917 36.415643 31.592239
2430 810 1 0.4238 9.774312 37.267342 31.806126
2431 811 1 0.4238 3.731694 5.600014 30.588821
2432 811 2 -0.8476 4.556228 5.200815 30.9898
2433 811 1 0.4238 5.023786 5.888934 31.544671
2434 812 1 0.4238 29.947569 27.020679 37.569387
2435 812 2 -0.8476 29.990421 26.038179 37.388122
2436 812 1 0.4238 30.36475 25.567818 38.18727
2437 813 1 0.4238 1.502137 31.584815 27.266953
2438 813 2 -0.8476 2.084074 30.772417 27.30382
2439 813 1 0.4238 1.511365 29.95408 27.352071
2440 814 1 0.4238 27.891211 7.026978 38.326267
2441 814 2 -0.8476 28.263778 6.098972 38.326127
2442 814 1 0.4238 29.153686 6.097004 38.782263
2443 815 1 0.4238 48.172408 8.227085 5.617452
2444 815 2 -0.8476 48.132957 7.702924 6.468157
2445 815 1 0.4238 48.178637 8.328113 7.247292
2446 816 1 0.4238 15.710689 21.50745 27.409432
2447 816 2 -0.8476 15.286962 22.384307 27.182329
2448 816 1 0.4238 15.117457 22.900029 28.02215
2449 817 1 0.4238 28.463128 38.463067 29.632976
2450 817 2 -0.8476 28.764219 38.218294 28.71133
2451 817 1 0.4238 28.243791 38.745533 28.039636
2452 818 1 0.4238 11.183033 14.205277 11.537953
2453 818 2 -0.8476 10.741914 13.371331 11.206369
2454 818 1 0.4238 11.439548 12.728048 10.890945
2455 819 1 0.4238 21.937013 17.148545 17.033401
2456 819 2 -0.8476 21.391732 17.643788 17.709717
2457 819 1 0.4238 21.723595 17.428103 18.628056
2458 820 1 0.4238 36.632494 34.872234 10.415006
2459 820 2 -0.8476 37.527765 35.315322 10.368504
2460 820 1 0.4238 37.406311 36.305032 10.292849
2461 821 1 0.4238 17.038215 33.801022 2.737279
2462 821 2 -0.8476 17.974961 33.946235 3.055744
2463 821 1 0.4238 18.244071 33.192026 3.6547
2464 822 1 0.4238 44.730657 41.854924 45.717808
2465 822 2 -0.8476 43.739743 41.723577 45.746745
2466 822 1 0.4238 43.533966 40.745518 45.779242
2467 823 1 0.4238 37.772354 18.906705 36.37325
2468 823 2 -0.8476 37.307369 18.026493 36.278299
2469 823 1 0.4238 37.892756 17.299801 36.637798
2470 824 1 0.4238 16.8735 20.428053 33.126334
2471 824 2 -0.8476 16.24496 20.837301 32.464931
2472 824 1 0.4238 15.69061 21.534634 32.919268
2473 825 1 0.4238 40.752528 48.178032 2.469842
2474 825 2 -0.8476 40.99894 47.935969 1.531393
2475 825 1 0.4238 41.292592 46.980581 1.499755
2476 826 1 0.4238 39.465589 12.053796 32.019098
2477 826 2 -0.8476 40.068991 11.423178 31.531011
2478 826 1 0.4238 39.548356 10.619502 31.242841
2479 827 1 0.4238 30.211255 4.848651 23.892121
2480 827 2 -0.8476 29.465708 5.068552 24.521249
2481 827 1 0.4238 29.827025 5.152422 25.449913
2482 828 1 0.4238 34.992054 48.178001 18.128184
2483 828 2 -0.8476 34.204574 47.600771 17.912126
2484 828 1 0.4238 33.423901 48.178001 17.672639
2485 829 1 0.4238 13.613294 42.495011 14.93107
2486 829 2 -0.8476 12.982571 41.758008 15.173997
2487 829 1 0.4238 13.136951 40.975019 14.571424
2488 830 1 0.4238 34.148175 17.470388 14.728941
2489 830 2 -0.8476 33.849146 16.856303 13.998543
2490 830 1 0.4238 33.925905 17.323681 13.117824
2491 831 1 0.4238 18.282415 40.241912 48.178021
2492 831 2 -0.8476 18.429507 41.229389 48.120977
2493 831 1 0.4238 18.502719 41.500582 47.161241
2494 832 1 0.4238 26.303314 10.33494 17.550071
2495 832 2 -0.8476 27.248981 10.016214 17.614314
2496 832 1 0.4238 27.47837 9.486465 16.797769
2497 833 1 0.4238 6.770997 39.101768 33.832163
2498 833 2 -0.8476 6.639787 38.205086 33.409381
2499 833 1 0.4238 7.52997 37.810487 33.18164
2500 834 1 0.4238 8.916404 3.377699 18.354151
2501 834 2 -0.8476 9.643766 4.036745 18.162831
2502 834 1 0.4238 10.007534 4.3911 19.024286
2503 835 1 0.4238 13.309276 46.674336 16.185588
2504 835 2 -0.8476 13.200325 47.576345 15.767845
2505 835 1 0.4238 12.708646 48.178009 16.39733
2506 836 1 0.4238 11.004223 12.756077 8.2483
2507 836 2 -0.8476 11.848226 13.249662 8.038459
2508 836 1 0.4238 11.704257 14.22963 8.176064
2509 837 1 0.4238 21.520853 6.155251 10.075303
2510 837 2 -0.8476 21.667958 6.238625 9.089702
2511 837 1 0.4238 20.976721 5.704339 8.603153
2512 838 1 0.4238 4.2488 1.498867 33.986608
2513 838 2 -0.8476 3.662609 1.537185 33.177342
2514 838 1 0.4238 4.228567 1.499869 32.353753
2515 839 1 0.4238 13.120197 7.041322 41.797112
2516 839 2 -0.8476 12.410383 6.36483 41.993384
2517 839 1 0.4238 12.289417 6.286141 42.982917
2518 840 1 0.4238 4.813819 12.008327 12.865592
2519 840 2 -0.8476 5.328059 11.15197 12.912608
2520 840 1 0.4238 4.690917 10.383082 12.966082
2521 841 1 0.4238 21.150044 11.63066 6.967959
2522 841 2 -0.8476 20.929483 10.656794 6.913757
2523 841 1 0.4238 21.771229 10.130626 6.792877
2524 842 1 0.4238 16.04146 18.156236 23.997609
2525 842 2 -0.8476 16.942525 18.54401 24.191808
2526 842 1 0.4238 17.623428 17.811881 24.210733
2527 843 1 0.4238 31.334134 38.590793 6.074694
2528 843 2 -0.8476 30.804495 39.300234 5.609746
2529 843 1 0.4238 29.870634 38.975162 5.460645
2530 844 1 0.4238 25.980056 18.65456 42.227702
2531 844 2 -0.8476 25.081134 18.463123 41.833633
2532 844 1 0.4238 25.024025 17.495392 41.588204
2533 845 1 0.4238 46.380034 46.137507 8.774179
2534 845 2 -0.8476 45.464746 46.277233 9.151968
2535 845 1 0.4238 44.786744 45.862755 8.544908
2536 846 1 0.4238 22.584595 45.664801 12.087926
2537 846 2 -0.8476 22.118341 45.573403 12.967844
2538 846 1 0.4238 22.744296 45.828449 13.704819
2539 847 1 0.4238 9.454953 17.773027 16.584213
2540 847 2 -0.8476 9.968538 17.669086 17.435933
2541 847 1 0.4238 10.458691 18.517624 17.635266
2542 848 1 0.4238 15.815864 47.244578 1.736715
2543 848 2 -0.8476 15.457233 48.178058 1.736347
2544 848 1 0.4238 14.48568 48.161771 1.500086
2545 849 1 0.4238 27.170228 23.540789 1.499996
2546 849 2 -0.8476 26.425701 22.917041 1.737941
2547 849 1 0.4238 25.548656 23.350616 1.531047
2548 850 1 0.4238 14.56269 6.152266 5.613194
2549 850 2 -0.8476 15.445263 5.904399 6.012727
2550 850 1 0.4238 15.482663 4.914616 6.150314
2551 851 1 0.4238 16.082665 33.197042 36.247591
2552 851 2 -0.8476 15.790788 33.170311 37.203674
2553 851 1 0.4238 15.179795 32.391209 37.343988
2554 852 1 0.4238 23.552527 33.854907 1.501239
2555 852 2 -0.8476 23.320285 34.818506 1.633676
2556 852 1 0.4238 24.1372 35.37963 1.5003
2557 853 1 0.4238 28.180824 31.094349 48.002969
2558 853 2 -0.8476 28.041473 32.069594 48.174662
2559 853 1 0.4238 27.945358 32.551011 47.303456
2560 854 1 0.4238 1.499949 45.006983 32.338324
2561 854 2 -0.8476 2.076738 44.640181 31.608413
2562 854 1 0.4238 1.499923 44.228802 30.902685
2563 855 1 0.4238 27.688364 36.051624 47.489019
2564 855 2 -0.8476 28.011325 36.726724 46.825742
2565 855 1 0.4238 27.308032 36.873493 46.130157
2566 856 1 0.4238 3.045255 21.583327 35.427423
2567 856 2 -0.8476 3.961614 21.718756 35.804181
2568 856 1 0.4238 3.893266 21.929663 36.779294
2569 857 1 0.4238 31.761062 36.181797 1.502317
2570 857 2 -0.8476 32.102267 35.272195 1.73939
2571 857 1 0.4238 33.101916 35.286536 1.761632
2572 858 1 0.4238 40.613198 28.51639 35.265648
2573 858 2 -0.8476 39.68729 28.735984 35.573012
2574 858 1 0.4238 39.502705 29.705029 35.409063
2575 859 1 0.4238 14.789055 1.517441 45.543605
2576 859 2 -0.8476 13.855716 1.660001 45.873083
2577 859 1 0.4238 13.822003 1.498034 46.859303
2578 860 1 0.4238 45.828673 30.537983 7.483138
2579 860 2 -0.8476 46.210362 31.458689 7.564455
2580 860 1 0.4238 46.272362 31.875116 6.657402
2581 861 1 0.4238 28.85604 28.138649 47.630715
2582 861 2 -0.8476 29.092339 28.942074 47.084208
2583 861 1 0.4238 28.493942 28.988875 46.284377
2584 862 1 0.4238 11.012159 41.216872 13.276534
2585 862 2 -0.8476 10.758643 42.184197 13.280192
2586 862 1 0.4238 11.585861 42.745467 13.30638
2587 863 1 0.4238 33.015944 8.430667 37.075281
2588 863 2 -0.8476 32.204145 7.963196 36.725349
2589 863 1 0.4238 32.414048 7.548443 35.839956
2590 864 1 0.4238 42.483219 7.559905 34.871395
2591 864 2 -0.8476 43.120166 7.745828 35.619546
2592 864 1 0.4238 43.418955 6.88208 36.025334
2593 865 1 0.4238 48.141625 26.322339 4.366629
2594 865 2 -0.8476 48.17799 27.316959 4.463623
2595 865 1 0.4238 47.251536 27.674462 4.581407
2596 866 1 0.4238 48.178007 43.33537 34.013004
2597 866 2 -0.8476 48.066709 42.716691 33.235283
2598 866 1 0.4238 48.141027 41.770113 33.549076
2599 867 1 0.4238 41.428651 16.562347 45.366784
2600 867 2 -0.8476 41.901639 15.944994 44.738168
2601 867 1 0.4238 41.864919 15.012112 45.096473
2602 868 1 0.4238 30.335723 35.813928 22.533141
2603 868 2 -0.8476 29.545461 35.207331 22.619894
2604 868 1 0.4238 29.718151 34.360846 22.116267
2605 869 1 0.4238 31.547991 21.428725 16.591863
2606 869 2 -0.8476 30.830888 21.802178 17.180333
2607 869 1 0.4238 30.978642 22.783431 17.30407
2608 870 1 0.4238 18.152252 47.38215 45.222776
2609 870 2 -0.8476 17.77285 48.178588 44.751882
2610 870 1 0.4238 17.894578 48.071644 43.765097
2611 871 1 0.4238 14.321217 20.304575 46.124927
2612 871 2 -0.8476 14.743715 21.194081 45.950931
2613 871 1 0.4238 14.049831 21.911185 46.016401
2614 872 1 0.4238 36.234424 43.311276 20.982276
2615 872 2 -0.8476 37.069154 43.315853 21.532916
2616 872 1 0.4238 37.426301 42.384557 21.604567
2617 873 1 0.4238 44.364646 10.827298 44.928181
2618 873 2 -0.8476 45.087625 10.272722 45.340186
2619 873 1 0.4238 45.811504 10.870851 45.684046
2620 874 1 0.4238 42.697304 2.978225 35.526644
2621 874 2 -0.8476 42.933187 2.128806 35.998711
2622 874 1 0.4238 43.916783 1.96618 35.920674
2623 875 1 0.4238 8.53811 2.696786 32.290286
2624 875 2 -0.8476 8.79713 3.660918 32.232326
2625 875 1 0.4238 9.78933 3.734 32.131343
2626 876 1 0.4238 3.745702 30.679711 32.472079
2627 876 2 -0.8476 3.378265 30.310289 33.325611
2628 876 1 0.4238 2.634867 30.89554 33.649402
2629 877 1 0.4238 13.476847 26.369087 38.5353
2630 877 2 -0.8476 13.023058 26.319363 39.425021
2631 877 1 0.4238 13.148613 25.406138 39.812648
2632 878 1 0.4238 11.037815 20.342109 3.982137
2633 878 2 -0.8476 11.969868 20.213268 4.320776
2634 878 1 0.4238 12.478276 21.069753 4.231595
2635 879 1 0.4238 17.561828 32.890641 7.449958
2636 879 2 -0.8476 16.96134 32.95013 6.65254
2637 879 1 0.4238 16.007899 32.965918 6.953707
2638 880 1 0.4238 19.238365 20.117082 36.511683
2639 880 2 -0.8476 19.414439 21.040948 36.851492
2640 880 1 0.4238 19.001202 21.147862 37.755817
2641 881 1 0.4238 14.161634 23.701832 37.91593
2642 881 2 -0.8476 14.884393 24.177123 37.414215
2643 881 1 0.4238 14.485662 24.665133 36.637774
2644 882 1 0.4238 32.054156 5.763979 38.152744
2645 882 2 -0.8476 32.6153 5.428693 37.395974
2646 882 1 0.4238 33.520392 5.851702 37.439244
2647 883 1 0.4238 10.775942 22.220187 37.285501
2648 883 2 -0.8476 11.406517 21.545777 36.901384
2649 883 1 0.4238 12.347296 21.862887 37.021284
2650 884 1 0.4238 20.202837 15.564538 15.677792
2651 884 2 -0.8476 19.717334 16.421078 15.502792
2652 884 1 0.4238 20.256116 16.98836 14.879971
2653 885 1 0.4238 13.55896 13.807581 1.673086
2654 885 2 -0.8476 13.886973 12.878902 1.499986
2655 885 1 0.4238 14.82015 12.78493 1.846899
2656 886 1 0.4238 23.621207 6.286501 30.854068
2657 886 2 -0.8476 24.490521 6.09515 30.398351
2658 886 1 0.4238 24.55018 5.118763 30.190726
2659 887 1 0.4238 9.285654 11.461993 39.010121
2660 887 2 -0.8476 8.986824 10.577338 39.368014
2661 887 1 0.4238 8.902026 10.63171 40.362928
2662 888 1 0.4238 32.023325 14.831936 5.294972
2663 888 2 -0.8476 31.152756 15.323974 5.297764
2664 888 1 0.4238 31.08791 15.88196 6.125077
2665 889 1 0.4238 31.690395 45.4932 30.256291
2666 889 2 -0.8476 31.779957 45.895752 31.167297
2667 889 1 0.4238 31.824451 45.167124 31.85076
2668 890 1 0.4238 35.947716 30.192045 37.859855
2669 890 2 -0.8476 36.637023 29.627796 37.405453
2670 890 1 0.4238 37.369365 30.212621 37.056663
2671 891 1 0.4238 25.409866 23.363793 39.043447
2672 891 2 -0.8476 25.180028 23.967156 39.807076
2673 891 1 0.4238 25.908358 23.930995 40.491347
2674 892 1 0.4238 43.246181 28.268897 32.289066
2675 892 2 -0.8476 42.492228 27.676958 32.573957
2676 892 1 0.4238 41.703243 28.238647 32.822968
2677 893 1 0.4238 26.824417 27.280747 42.643451
2678 893 2 -0.8476 26.059089 26.854221 42.161426
2679 893 1 0.4238 26.389878 26.43433 41.316282
2680 894 1 0.4238 41.636978 46.005883 43.875853
2681 894 2 -0.8476 40.679081 46.287579 43.931366
2682 894 1 0.4238 40.561878 46.921641 44.695715
2683 895 1 0.4238 37.484303 22.017571 41.992232
2684 895 2 -0.8476 37.902245 21.667026 41.154114
2685 895 1 0.4238 37.374737 20.885901 40.820079
2686 896 1 0.4238 27.350176 48.178 19.709676
2687 896 2 -0.8476 28.085631 48.107333 20.383555
2688 896 1 0.4238 28.040384 47.215704 20.834054
2689 897 1 0.4238 36.367513 47.449954 33.088238
2690 897 2 -0.8476 36.463631 48.178021 32.409503
2691 897 1 0.4238 36.722413 47.780828 31.529009
2692 898 1 0.4238 21.589663 10.26107 18.413832
2693 898 2 -0.8476 20.942868 9.911179 17.736164
2694 898 1 0.4238 21.299643 10.078956 16.817164
2695 899 1 0.4238 12.865948 11.341397 16.298982
2696 899 2 -0.8476 13.140915 10.947197 17.175909
2697 899 1 0.4238 14.059128 11.265757 17.411288
2698 900 1 0.4238 39.270525 48.178003 28.204153
2699 900 2 -0.8476 38.468904 47.861321 28.711219
2700 900 1 0.4238 38.528859 48.174591 29.658988
2701 901 1 0.4238 5.666951 16.502323 24.329936
2702 901 2 -0.8476 4.721569 16.261248 24.11054
2703 901 1 0.4238 4.694626 15.342242 23.717219
2704 902 1 0.4238 17.578598 25.081858 34.428119
2705 902 2 -0.8476 17.385285 24.19958 34.857323
2706 902 1 0.4238 16.827389 23.644082 34.240741
2707 903 1 0.4238 32.920037 34.15164 48.178006
2708 903 2 -0.8476 33.67662 34.771851 47.970833
2709 903 1 0.4238 33.988978 34.615248 47.033865
2710 904 1 0.4238 9.244864 11.191088 9.628474
2711 904 2 -0.8476 8.677247 11.41341 8.835767
2712 904 1 0.4238 8.669066 10.638453 8.203807
2713 905 1 0.4238 1.502073 37.462809 43.221177
2714 905 2 -0.8476 2.499157 37.388965 43.240424
2715 905 1 0.4238 2.760997 36.425524 43.297177
2716 906 1 0.4238 34.816019 33.249323 22.834538
2717 906 2 -0.8476 35.757282 32.968546 22.646949
2718 906 1 0.4238 35.817247 31.970506 22.664838
2719 907 1 0.4238 29.709055 43.490403 36.486785
2720 907 2 -0.8476 29.34142 42.664291 36.913847
2721 907 1 0.4238 29.656739 42.610283 37.861295
2722 908 1 0.4238 14.580437 5.013913 41.881933
2723 908 2 -0.8476 15.497592 4.635897 41.755717
2724 908 1 0.4238 15.443637 3.638383 41.71039
2725 909 1 0.4238 17.681701 12.861946 45.731372
2726 909 2 -0.8476 18.458077 12.242319 45.616035
2727 909 1 0.4238 18.144905 11.389953 45.197233
2728 910 1 0.4238 27.653687 41.130383 1.499983
2729 910 2 -0.8476 27.123992 40.282248 1.509575
2730 910 1 0.4238 26.147762 40.498972 1.51163
2731 911 1 0.4238 22.268499 26.241914 21.933372
2732 911 2 -0.8476 21.889496 26.812598 22.661847
2733 911 1 0.4238 21.667253 26.2409 23.451637
2734 912 1 0.4238 45.967209 42.0222 8.020781
2735 912 2 -0.8476 45.260738 42.71689 8.156074
2736 912 1 0.4238 45.603083 43.604725 7.848589
2737 913 1 0.4238 39.977049 4.744962 35.661827
2738 913 2 -0.8476 40.62554 5.497374 35.777305
2739 913 1 0.4238 41.447912 5.314253 35.23863
2740 914 1 0.4238 28.943405 14.19965 9.167056
2741 914 2 -0.8476 28.121896 13.698017 8.895969
2742 914 1 0.4238 27.451944 14.335943 8.516214
2743 915 1 0.4238 39.752112 40.901305 33.548052
2744 915 2 -0.8476 40.24055 40.248583 32.96893
2745 915 1 0.4238 41.20212 40.515296 32.903772
2746 916 1 0.4238 39.29196 31.904392 20.642562
2747 916 2 -0.8476 40.166934 31.425106 20.711155
2748 916 1 0.4238 40.003416 30.440936 20.779502
2749 917 1 0.4238 47.127402 4.628198 40.28767
2750 917 2 -0.8476 47.99762 5.09388 40.126858
2751 917 1 0.4238 47.944362 6.029585 40.475598
2752 918 1 0.4238 19.5962 5.141769 23.707446
2753 918 2 -0.8476 20.364081 5.730974 23.456056
2754 918 1 0.4238 20.593634 6.3261 24.226204
2755 919 1 0.4238 47.153081 29.605199 26.733241
2756 919 2 -0.8476 48.114946 29.332159 26.749531
2757 919 1 0.4238 48.177999 28.334215 26.760968
2758 920 1 0.4238 5.757887 29.36197 20.270592
2759 920 2 -0.8476 5.389687 30.290515 20.223341
2760 920 1 0.4238 6.142393 30.948705 20.238156
2761 921 1 0.4238 16.950582 35.867051 27.273916
2762 921 2 -0.8476 17.549201 35.303314 27.843
2763 921 1 0.4238 17.29691 34.341067 27.74088
2764 922 1 0.4238 2.775963 20.818423 21.880018
2765 922 2 -0.8476 2.476151 20.693019 20.934298
2766 922 1 0.4238 1.5 20.89844 20.864074
2767 923 1 0.4238 17.512298 48.128661 25.286963
2768 923 2 -0.8476 16.922316 48.097919 24.480131
2769 923 1 0.4238 15.96643 48.17718 24.762973
2770 924 1 0.4238 5.956131 10.521443 32.652701
2771 924 2 -0.8476 5.956415 9.578731 32.98631
2772 924 1 0.4238 5.221635 9.46136 33.654383
2773 925 1 0.4238 41.724198 42.182631 30.96618
2774 925 2 -0.8476 42.024393 43.133089 31.046882
2775 925 1 0.4238 41.430591 43.616724 31.689919
2776 926 1 0.4238 33.875104 14.5566 16.933283
2777 926 2 -0.8476 33.606954 14.670927 15.976713
2778 926 1 0.4238 33.88516 13.86511 15.45397
2779 927 1 0.4238 8.599315 41.28199 19.351545
2780 927 2 -0.8476 8.930239 41.285736 18.407895
2781 927 1 0.4238 9.40693 40.427324 18.218439
2782 928 1 0.4238 3.847489 42.066021 6.089755
2783 928 2 -0.8476 4.762303 42.367425 6.358589
2784 928 1 0.4238 5.217344 41.637384 6.868468
2785 929 1 0.4238 30.641238 18.842071 47.294235
2786 929 2 -0.8476 31.33896 19.006504 47.991477
2787 929 1 0.4238 31.399179 19.987106 48.178004
2788 930 1 0.4238 37.341064 10.515423 32.846097
2789 930 2 -0.8476 36.458723 10.175375 33.17143
2790 930 1 0.4238 36.03782 10.858407 33.768346
2791 931 1 0.4238 41.063407 17.389008 14.23496
2792 931 2 -0.8476 41.831631 16.755904 14.140029
2793 931 1 0.4238 42.068267 16.661569 13.173021
2794 932 1 0.4238 48.178 36.270278 15.937267
2795 932 2 -0.8476 47.610781 36.980749 16.353791
2796 932 1 0.4238 48.178002 37.774936 16.571798
2797 933 1 0.4238 41.236515 39.694142 35.507665
2798 933 2 -0.8476 41.329326 38.855961 36.045101
2799 933 1 0.4238 41.530709 39.0904 36.996144
2800 934 1 0.4238 30.478205 16.403306 20.649444
2801 934 2 -0.8476 31.214769 17.038187 20.882679
2802 934 1 0.4238 32.084544 16.545318 20.906606
2803 935 1 0.4238 10.35796 20.28167 22.787577
2804 935 2 -0.8476 10.956594 20.126915 23.573508
2805 935 1 0.4238 11.419731 19.246521 23.471487
2806 936 1 0.4238 26.651812 14.093813 18.250149
2807 936 2 -0.8476 25.902875 14.755553 18.215621
2808 936 1 0.4238 26.277795 15.679807 18.143583
2809 937 1 0.4238 16.025389 3.999275 44.169853
2810 937 2 -0.8476 15.028813 4.081029 44.157477
2811 937 1 0.4238 14.76884 5.021886 44.374739
2812 938 1 0.4238 19.328105 25.532514 1.673201
2813 938 2 -0.8476 19.849131 24.696729 1.500011
2814 938 1 0.4238 20.393413 24.469872 2.307657
2815 939 1 0.4238 12.615261 31.158274 33.360986
2816 939 2 -0.8476 12.714774 30.165103 33.300091
2817 939 1 0.4238 13.632957 29.90327 33.597384
2818 940 1 0.4238 33.882267 38.609441 43.622843
2819 940 2 -0.8476 33.661326 38.021813 42.844462
2820 940 1 0.4238 34.134029 37.146135 42.943154
2821 941 1 0.4238 41.100922 32.030977 28.015187
2822 941 2 -0.8476 41.347446 31.167901 28.456012
2823 941 1 0.4238 41.674043 30.522375 27.765628
2824 942 1 0.4238 47.254772 48.177685 37.68983
2825 942 2 -0.8476 46.440499 47.600951 37.755681
2826 942 1 0.4238 45.624487 48.17831 37.783616
2827 943 1 0.4238 28.704763 38.816961 44.866646
2828 943 2 -0.8476 29.136986 39.071581 45.731719
2829 943 1 0.4238 29.377117 40.042108 45.711382
2830 944 1 0.4238 10.888646 16.577974 25.2659
2831 944 2 -0.8476 11.130515 16.256899 26.181548
2832 944 1 0.4238 11.1344 17.03012 26.815673
2833 945 1 0.4238 15.371571 48.178001 31.103722
2834 945 2 -0.8476 15.782568 48.15488 30.192379
2835 945 1 0.4238 16.173545 47.249656 30.025929
2836 946 1 0.4238 1.500151 43.49003 34.325488
2837 946 2 -0.8476 1.5 42.563955 33.948149
2838 946 1 0.4238 1.856517 42.584569 33.014088
2839 947 1 0.4238 5.358155 35.979241 1.507166
2840 947 2 -0.8476 4.360347 35.937906 1.558843
2841 947 1 0.4238 4.002269 36.836244 1.813342
2842 948 1 0.4238 48.177994 48.172157 27.058931
2843 948 2 -0.8476 47.624618 47.371441 27.28834
2844 948 1 0.4238 48.170524 46.542667 27.16538
2845 949 1 0.4238 28.633707 21.007316 3.774577
2846 949 2 -0.8476 27.929622 21.708564 3.886453
2847 949 1 0.4238 27.367016 21.49172 4.684233
2848 950 1 0.4238 30.180253 43.908448 17.476997
2849 950 2 -0.8476 31.139193 44.18849 17.43216
2850 950 1 0.4238 31.716238 43.382067 17.302927
2851 951 1 0.4238 43.271378 33.281925 13.988371
2852 951 2 -0.8476 43.844524 34.035527 14.310219
2853 951 1 0.4238 43.263644 34.798711 14.59329
2854 952 1 0.4238 27.141921 29.265712 37.482242
2855 952 2 -0.8476 26.827989 29.911784 38.177969
2856 952 1 0.4238 26.250521 30.607369 37.750545
2857 953 1 0.4238 34.444993 4.912513 9.624854
2858 953 2 -0.8476 33.589928 5.17504 9.177704
2859 953 1 0.4238 33.683629 6.092885 8.791984
2860 954 1 0.4238 11.736714 31.310446 26.214679
2861 954 2 -0.8476 12.243179 30.44834 26.230954
2862 954 1 0.4238 12.497831 30.229095 27.172805
2863 955 1 0.4238 45.694078 28.319208 19.672944
2864 955 2 -0.8476 45.044152 28.404474 18.917745
2865 955 1 0.4238 44.114187 28.275999 19.262212
2866 956 1 0.4238 9.754455 1.849037 16.562198
2867 956 2 -0.8476 8.925581 1.504851 16.121173
2868 956 1 0.4238 8.142991 1.643406 16.728096
2869 957 1 0.4238 32.728373 21.903561 1.508703
2870 957 2 -0.8476 33.110253 21.165684 2.065214
2871 957 1 0.4238 33.204153 20.34143 1.506835
2872 958 1 0.4238 30.597609 10.61636 18.992665
2873 958 2 -0.8476 30.812343 11.428808 19.534715
2874 958 1 0.4238 30.112469 11.554996 20.237746
2875 959 1 0.4238 16.981253 7.406192 11.140543
2876 959 2 -0.8476 17.098636 8.271466 11.627905
2877 959 1 0.4238 16.488917 8.293119 12.420227
2878 960 1 0.4238 1.500194 37.911989 23.295077
2879 960 2 -0.8476 2.058829 38.736296 23.386979
2880 960 1 0.4238 1.499984 39.541497 23.188629
2881 961 1 0.4238 16.094963 39.40026 43.428464
2882 961 2 -0.8476 15.577966 38.933938 42.710649
2883 961 1 0.4238 15.612917 39.474414 41.870016
2884 962 1 0.4238 11.526064 25.462671 10.794913
2885 962 2 -0.8476 11.725185 26.268993 11.351865
2886 962 1 0.4238 10.922499 26.50112 11.901239
2887 963 1 0.4238 20.244494 26.315633 26.184216
2888 963 2 -0.8476 20.104746 25.336402 26.33111
2889 963 1 0.4238 19.395787 25.201023 27.023242
2890 964 1 0.4238 5.95926 36.508603 42.608652
2891 964 2 -0.8476 5.846563 35.865423 43.366028
2892 964 1 0.4238 5.010019 35.334485 43.230756
2893 965 1 0.4238 18.57359 46.732333 8.80671
2894 965 2 -0.8476 18.389872 46.027496 9.491877
2895 965 1 0.4238 19.236119 45.804318 9.975671
2896 966 1 0.4238 3.022608 36.076309 12.416281
2897 966 2 -0.8476 2.170013 36.099572 11.894226
2898 966 1 0.4238 1.509591 35.471888 12.306362
2899 967 1 0.4238 36.518853 16.163234 31.550331
2900 967 2 -0.8476 37.342429 15.901146 31.047308
2901 967 1 0.4238 37.10009 15.681686 30.102263
2902 968 1 0.4238 35.204709 9.996783 25.437874
2903 968 2 -0.8476 34.315598 9.543321 25.499962
2904 968 1 0.4238 33.890424 9.518049 24.595204
2905 969 1 0.4238 37.878532 1.595655 1.546617
2906 969 2 -0.8476 38.873582 1.499838 1.520271
2907 969 1 0.4238 39.295299 2.406332 1.499727
2908 970 1 0.4238 1.5 32.310316 24.310396
2909 970 2 -0.8476 1.560929 31.324078 24.464087
2910 970 1 0.4238 1.756173 30.863261 23.598335
2911 971 1 0.4238 43.773693 1.499989 24.174347
2912 971 2 -0.8476 43.444309 2.075713 24.922711
2913 971 1 0.4238 43.037891 1.499948 25.632161
2914 972 1 0.4238 2.529299 9.842733 33.305098
2915 972 2 -0.8476 1.590751 9.675848 33.002976
2916 972 1 0.4238 1.49984 9.932046 32.040637
2917 973 1 0.4238 37.687991 9.694208 26.56818
2918 973 2 -0.8476 37.111642 9.744004 27.383865
2919 973 1 0.4238 36.868146 10.697361 27.562244
2920 974 1 0.4238 30.978446 36.050526 33.475682
2921 974 2 -0.8476 31.171182 35.069331 33.486058
2922 974 1 0.4238 30.310409 34.560442 33.475999
2923 975 1 0.4238 45.166315 31.090924 11.994243
2924 975 2 -0.8476 44.86141 32.033343 12.131642
2925 975 1 0.4238 44.029282 32.195137 11.601184
2926 976 1 0.4238 36.065188 41.205308 47.251329
2927 976 2 -0.8476 36.372796 40.990124 48.178191
2928 976 1 0.4238 37.336279 40.723268 48.156089
2929 977 1 0.4238 4.884009 20.89846 26.670681
2930 977 2 -0.8476 5.175344 21.480546 25.911537
2931 977 1 0.4238 4.569802 21.335694 25.129018
2932 978 1 0.4238 26.384829 46.113921 46.110206
2933 978 2 -0.8476 27.312694 46.461875 45.976062
2934 978 1 0.4238 27.413379 47.335113 46.45284
2935 979 1 0.4238 24.743004 47.648292 15.019451
2936 979 2 -0.8476 25.706634 47.386669 15.073939
2937 979 1 0.4238 25.781299 46.389499 15.082785
2938 980 1 0.4238 48.180679 45.637183 42.330302
2939 980 2 -0.8476 47.367466 46.217059 42.281012
2940 980 1 0.4238 46.561386 45.683113 42.536228
2941 981 1 0.4238 18.019447 33.769733 43.157421
2942 981 2 -0.8476 18.182449 34.739205 43.3406
2943 981 1 0.4238 19.166593 34.90631 43.400064
2944 982 1 0.4238 35.004354 18.724846 11.01294
2945 982 2 -0.8476 34.551984 19.598961 10.836066
2946 982 1 0.4238 35.182573 20.209715 10.357175
2947 983 1 0.4238 44.317854 15.579707 8.104887
2948 983 2 -0.8476 44.157734 15.407912 9.07692
2949 983 1 0.4238 44.753787 15.997327 9.622181
2950 984 1 0.4238 4.018062 27.708303 47.607253
2951 984 2 -0.8476 4.846377 27.798104 48.160272
2952 984 1 0.4238 5.522961 28.339927 47.661612
2953 985 1 0.4238 1.903839 42.78233 14.352972
2954 985 2 -0.8476 2.108087 43.254111 15.210705
2955 985 1 0.4238 1.499947 44.041582 15.310981
2956 986 1 0.4238 13.501892 1.563286 39.764238
2957 986 2 -0.8476 14.034581 1.556964 40.610525
2958 986 1 0.4238 15.008506 1.499989 40.390923
2959 987 1 0.4238 42.403938 3.684168 23.035697
2960 987 2 -0.8476 42.01421 4.588532 23.209582
2961 987 1 0.4238 41.250609 4.748313 22.583976
2962 988 1 0.4238 3.685975 36.217814 7.281041
2963 988 2 -0.8476 3.435009 35.770593 6.422548
2964 988 1 0.4238 4.113768 35.070599 6.200524
2965 989 1 0.4238 25.833019 28.582244 31.301188
2966 989 2 -0.8476 25.755677 28.064677 30.449048
2967 989 1 0.4238 24.861723 27.618204 30.410213
2968 990 1 0.4238 47.008137 5.42257 32.230674
2969 990 2 -0.8476 47.995531 5.264306 32.228337
2970 990 1 0.4238 48.175482 4.281585 32.185021
2971 991 1 0.4238 43.102849 29.424993 15.928801
2972 991 2 -0.8476 43.25305 28.93851 16.789483
2973 991 1 0.4238 43.323927 27.957343 16.609795
2974 992 1 0.4238 41.140406 5.870336 40.807741
2975 992 2 -0.8476 41.457526 4.937118 40.976674
2976 992 1 0.4238 42.056908 4.648477 40.230064
2977 993 1 0.4238 12.447493 26.50268 35.991285
2978 993 2 -0.8476 13.298935 27.010688 35.860997
2979 993 1 0.4238 13.097949 27.896274 35.44226
2980 994 1 0.4238 42.335449 33.032837 9.617578
2981 994 2 -0.8476 42.167171 33.668477 8.864156
2982 994 1 0.4238 42.274723 34.607714 9.190141
2983 995 1 0.4238 4.044263 27.320155 34.636667
2984 995 2 -0.8476 3.707811 26.753751 35.388987
2985 995 1 0.4238 4.471358 26.252551 35.796165
2986 996 1 0.4238 33.05857 13.426714 3.044266
2987 996 2 -0.8476 32.916125 14.238421 2.477838
2988 996 1 0.4238 32.7738 13.961034 1.52768
2989 997 1 0.4238 27.537951 29.604984 29.048627
2990 997 2 -0.8476 27.690864 30.542856 28.737157
2991 997 1 0.4238 27.045001 30.760531 28.005392
2992 998 1 0.4238 10.614018 16.342089 40.806803
2993 998 2 -0.8476 9.719644 16.596856 41.174483
2994 998 1 0.4238 9.175694 17.031494 40.456703
2995 999 1 0.4238 27.803504 25.077589 21.546886
2996 999 2 -0.8476 27.169605 24.31455 21.420618
2997 999 1 0.4238 27.065621 24.125701 20.444133
2998 1000 1 0.4238 45.56846 33.143982 20.793417
2999 1000 2 -0.8476 45.165041 33.14801 21.708424
3000 1000 1 0.4238 45.34257 32.270967 22.15483
3001 1001 1 0.4238 15.335666 12.786975 27.644509
3002 1001 2 -0.8476 15.054848 12.178458 26.902317
3003 1001 1 0.4238 14.3965 11.510739 27.249776
3004 1002 1 0.4238 30.329914 2.735266 12.858068
3005 1002 2 -0.8476 31.06046 2.126066 13.166577
3006 1002 1 0.4238 30.702147 1.499959 13.85911
3007 1003 1 0.4238 19.745142 38.382088 4.041578
3008 1003 2 -0.8476 20.294775 38.052753 4.80933
3009 1003 1 0.4238 20.51983 38.819075 5.411077
3010 1004 1 0.4238 9.011813 28.388846 12.787511
3011 1004 2 -0.8476 9.598086 28.942832 12.196426
3012 1004 1 0.4238 9.042355 29.623865 11.719607
3013 1005 1 0.4238 26.963178 1.499972 38.971847
3014 1005 2 -0.8476 26.020262 1.500062 38.638815
3015 1005 1 0.4238 25.748569 2.434225 38.407469
3016 1006 1 0.4238 46.544782 23.896549 8.122135
3017 1006 2 -0.8476 47.490311 24.19813 7.999558
3018 1006 1 0.4238 48.005169 23.491726 7.513848
3019 1007 1 0.4238 6.746058 40.644182 21.021761
3020 1007 2 -0.8476 6.735004 41.309159 21.768542
3021 1007 1 0.4238 6.792099 40.828596 22.643641
3022 1008 1 0.4238 3.701565 34.518879 45.717034
3023 1008 2 -0.8476 4.281223 35.33359 45.732598
3024 1008 1 0.4238 5.242693 35.058712 45.728414
3025 1009 1 0.4238 3.445177 33.555011 3.630196
3026 1009 2 -0.8476 3.741591 32.695049 4.045652
3027 1009 1 0.4238 3.995379 32.855735 4.999471
3028 1010 1 0.4238 45.843679 37.252324 43.79196
3029 1010 2 -0.8476 45.938475 37.441252 44.769365
3030 1010 1 0.4238 45.040172 37.395497 45.206353
3031 1011 1 0.4238 7.279487 10.159946 35.270838
3032 1011 2 -0.8476 8.101288 10.239837 35.834983
3033 1011 1 0.4238 7.942455 10.907073 36.562697
3034 1012 1 0.4238 27.40847 43.069248 4.162942
3035 1012 2 -0.8476 27.073252 43.052583 3.220949
3036 1012 1 0.4238 27.794715 43.368538 2.604781
3037 1013 1 0.4238 28.869843 1.548354 44.212556
3038 1013 2 -0.8476 29.688048 2.110011 44.335362
3039 1013 1 0.4238 30.470691 1.519969 44.533656
3040 1014 1 0.4238 21.941753 48.175436 33.570489
3041 1014 2 -0.8476 21.13496 47.986021 33.01084
3042 1014 1 0.4238 20.309 48.169234 33.543966
3043 1015 1 0.4238 23.888882 45.364654 36.635545
3044 1015 2 -0.8476 24.795645 44.947634 36.69779
3045 1015 1 0.4238 25.350434 45.453302 37.358479
3046 1016 1 0.4238 45.245937 6.400173 30.644073
3047 1016 2 -0.8476 46.047725 6.987136 30.531775
3048 1016 1 0.4238 45.857253 7.682627 29.838945
3049 1017 1 0.4238 6.290958 45.603745 13.927631
3050 1017 2 -0.8476 6.840896 46.274422 14.425386
3051 1017 1 0.4238 7.689371 45.845542 14.735467
3052 1018 1 0.4238 39.772256 6.046901 45.275521
3053 1018 2 -0.8476 39.127281 5.524018 45.832836
3054 1018 1 0.4238 38.490453 6.150739 46.281912
3055 1019 1 0.4238 14.37521 48.178131 35.030128
3056 1019 2 -0.8476 15.055906 47.788882 35.650723
3057 1019 1 0.4238 15.964075 47.864247 35.238959
3058 1020 1 0.4238 34.793042 44.853624 30.266178
3059 1020 2 -0.8476 34.295403 45.693693 30.482142
3060 1020 1 0.4238 34.805908 46.217585 31.163992
3061 1021 1 0.4238 14.460184 8.330945 24.014473
3062 1021 2 -0.8476 14.42639 7.671868 24.765789
3063 1021 1 0.4238 13.649798 7.882718 25.359461
3064 1022 1 0.4238 12.388238 3.715004 20.455558
3065 1022 2 -0.8476 11.838359 4.385197 20.95403
3066 1022 1 0.4238 11.07918 3.920599 21.409876
3067 1023 1 0.4238 3.7765 5.138112 10.933263
3068 1023 2 -0.8476 3.445788 4.76558 11.800356
3069 1023 1 0.4238 3.725536 5.366079 12.54945
3070 1024 1 0.4238 48.178009 40.665237 1.565247
3071 1024 2 -0.8476 47.679315 39.838454 1.825506
3072 1024 1 0.4238 48.177069 39.033456 1.502678
3073 1025 1 0.4238 42.95883 2.371697 45.327322
3074 1025 2 -0.8476 42.569145 1.501497 45.628813
3075 1025 1 0.4238 41.619061 1.640668 45.908049
3076 1026 1 0.4238 13.740773 44.494425 28.925357
3077 1026 2 -0.8476 13.312379 43.646777 28.612353
3078 1026 1 0.4238 12.580417 43.862175 27.965952
3079 1027 1 0.4238 29.377161 10.733985 7.638908
3080 1027 2 -0.8476 29.28988 9.757579 7.836426
3081 1027 1 0.4238 29.47163 9.596189 8.806437
3082 1028 1 0.4238 5.990135 35.84554 32.81749
3083 1028 2 -0.8476 6.491007 35.0131 32.580487
3084 1028 1 0.4238 7.079681 35.19138 31.792021
3085 1029 1 0.4238 26.237827 13.022131 15.800325
3086 1029 2 -0.8476 25.927068 12.115844 15.513842
3087 1029 1 0.4238 26.699331 11.60086 15.141819
3088 1030 1 0.4238 8.720205 33.807503 33.120791
3089 1030 2 -0.8476 8.569497 33.810529 34.109364
3090 1030 1 0.4238 7.771789 33.247989 34.326641
3091 1031 1 0.4238 12.330394 9.286206 39.512342
3092 1031 2 -0.8476 11.506734 9.592314 39.989712
3093 1031 1 0.4238 11.558476 10.578892 40.144587
3094 1032 1 0.4238 1.499997 31.967444 14.330152
3095 1032 2 -0.8476 1.627455 31.577304 15.242043
3096 1032 1 0.4238 1.678488 32.314476 15.915817
3097 1033 1 0.4238 46.6719 33.257939 32.554758
3098 1033 2 -0.8476 47.144321 32.409299 32.316793
3099 1033 1 0.4238 48.041299 32.624196 31.930466
3100 1034 1 0.4238 42.746535 1.499768 38.809037
3101 1034 2 -0.8476 42.068014 2.076493 38.354067
3102 1034 1 0.4238 41.361938 1.499675 37.94329
3103 1035 1 0.4238 30.91136 27.718452 21.986853
3104 1035 2 -0.8476 31.196152 26.793744 21.734249
3105 1035 1 0.4238 30.387425 26.230621 21.564388
3106 1036 1 0.4238 8.952497 38.037806 46.299642
3107 1036 2 -0.8476 8.788082 38.957857 45.94401
3108 1036 1 0.4238 9.652326 39.355421 45.635748
3109 1037 1 0.4238 39.39408 14.558159 29.135902
3110 1037 2 -0.8476 39.781945 13.932945 29.813152
3111 1037 1 0.4238 40.085514 13.095624 29.358467
3112 1038 1 0.4238 19.843201 44.154201 35.471015
3113 1038 2 -0.8476 19.345638 43.90673 34.639638
3114 1038 1 0.4238 18.373532 44.107601 34.760716
3115 1039 1 0.4238 29.622367 37.969429 32.063263
3116 1039 2 -0.8476 28.83749 37.353038 32.126753
3117 1039 1 0.4238 29.01417 36.531482 31.584694
3118 1040 1 0.4238 11.77578 33.959629 29.330914
3119 1040 2 -0.8476 11.78601 33.530345 28.427803
3120 1040 1 0.4238 12.415182 32.753115 28.435307
3121 1041 1 0.4238 1.500159 18.518134 30.412375
3122 1041 2 -0.8476 1.746834 18.036982 31.253591
3123 1041 1 0.4238 1.499986 18.598501 32.043377
3124 1042 1 0.4238 37.745039 42.074497 1.601029
3125 1042 2 -0.8476 36.945398 42.673044 1.552898
3126 1042 1 0.4238 36.115787 42.117275 1.499365
3127 1043 1 0.4238 41.744972 20.618963 5.707006
3128 1043 2 -0.8476 42.407564 21.144364 6.240791
3129 1043 1 0.4238 43.3168 21.042059 5.837279
3130 1044 1 0.4238 29.504541 4.517787 10.809721
3131 1044 2 -0.8476 29.964986 4.983897 10.054253
3132 1044 1 0.4238 29.308321 5.561295 9.569069
3133 1045 1 0.4238 18.356737 13.233934 23.427493
3134 1045 2 -0.8476 19.294813 12.888312 23.451117
3135 1045 1 0.4238 19.898531 13.530208 22.978365
3136 1046 1 0.4238 10.728486 31.557476 48.015104
3137 1046 2 -0.8476 11.687471 31.789451 48.178
3138 1046 1 0.4238 11.904484 32.651193 47.719409
3139 1047 1 0.4238 18.146579 43.310964 40.668433
3140 1047 2 -0.8476 17.915425 42.499 40.132445
3141 1047 1 0.4238 17.089776 42.076635 40.506492
3142 1048 1 0.4238 28.626056 6.255671 33.201296
3143 1048 2 -0.8476 27.955349 6.885176 33.593566
3144 1048 1 0.4238 28.431086 7.634891 34.053566
3145 1049 1 0.4238 22.803478 45.959998 34.344603
3146 1049 2 -0.8476 22.017544 45.475113 34.728263
3147 1049 1 0.4238 21.269054 46.120736 34.879703
3148 1050 1 0.4238 27.722299 44.638305 7.157515
3149 1050 2 -0.8476 28.35375 44.939556 7.872019
3150 1050 1 0.4238 28.665574 45.868268 7.67137
3151 1051 1 0.4238 1.499997 29.440533 13.3339
3152 1051 2 -0.8476 1.608801 30.14004 12.627606
3153 1051 1 0.4238 1.503721 29.721861 11.72534
3154 1052 1 0.4238 45.554302 6.716791 40.735634
3155 1052 2 -0.8476 45.813785 7.577508 40.297644
3156 1052 1 0.4238 45.49853 8.344317 40.856766
3157 1053 1 0.4238 40.75203 42.321217 41.698284
3158 1053 2 -0.8476 39.889068 42.135741 41.22829
3159 1053 1 0.4238 39.134933 42.18873 41.882869
3160 1054 1 0.4238 16.668025 9.970823 38.749235
3161 1054 2 -0.8476 16.307897 10.89114 38.90196
3162 1054 1 0.4238 16.416367 11.135865 39.865466
3163 1055 1 0.4238 22.090026 39.203036 3.503988
3164 1055 2 -0.8476 22.846493 39.188085 4.157848
3165 1055 1 0.4238 22.93516 40.087622 4.585599
3166 1056 1 0.4238 28.521915 1.50415 35.85078
3167 1056 2 -0.8476 27.820279 1.501949 36.563312
3168 1056 1 0.4238 26.919905 1.621221 36.144862
3169 1057 1 0.4238 39.039389 33.660912 3.926304
3170 1057 2 -0.8476 40.039277 33.650342 3.915668
3171 1057 1 0.4238 40.359441 32.780373 3.540637
3172 1058 1 0.4238 24.584309 9.950402 1.50275
3173 1058 2 -0.8476 24.406339 8.966444 1.515112
3174 1058 1 0.4238 23.525945 8.792479 1.956295
3175 1059 1 0.4238 48.178555 4.645277 4.678137
3176 1059 2 -0.8476 48.119165 5.602052 4.393438
3177 1059 1 0.4238 47.312588 6.023651 4.807789
3178 1060 1 0.4238 9.566898 24.355417 3.159238
3179 1060 2 -0.8476 9.844482 25.316028 3.172401
3180 1060 1 0.4238 10.84264 25.374345 3.189087
3181 1061 1 0.4238 1.501379 18.888825 27.80673
3182 1061 2 -0.8476 1.768107 18.284804 27.05572
3183 1061 1 0.4238 1.500938 17.345794 27.272239
3184 1062 1 0.4238 28.338878 24.213587 30.231629
3185 1062 2 -0.8476 28.413877 23.332965 29.763783
3186 1062 1 0.4238 28.458828 22.598529 30.440969
3187 1063 1 0.4238 31.016395 18.122916 7.421893
3188 1063 2 -0.8476 31.980157 18.220289 7.173536
3189 1063 1 0.4238 32.084982 18.985389 6.538214
3190 1064 1 0.4238 15.208149 22.316555 12.166159
3191 1064 2 -0.8476 14.486661 22.918351 12.508646
3192 1064 1 0.4238 13.622986 22.415667 12.545713
3193 1065 1 0.4238 44.273979 42.501466 3.08392
3194 1065 2 -0.8476 43.783776 41.656531 3.297897
3195 1065 1 0.4238 43.104809 41.475759 2.586332
3196 1066 1 0.4238 11.133645 19.28185 15.04243
3197 1066 2 -0.8476 11.459086 18.831992 14.210736
3198 1066 1 0.4238 11.745534 19.523776 13.547877
3199 1067 1 0.4238 11.744755 23.93604 35.339312
3200 1067 2 -0.8476 10.83295 23.717005 34.991987
3201 1067 1 0.4238 10.156697 24.303457 35.437807
3202 1068 1 0.4238 19.142211 6.029528 39.669723
3203 1068 2 -0.8476 19.85387 6.431974 39.093895
3204 1068 1 0.4238 20.737956 6.356776 39.555129
3205 1069 1 0.4238 1.545437 28.392596 18.747489
3206 1069 2 -0.8476 2.245555 28.751659 19.364668
3207 1069 1 0.4238 3.151873 28.517925 19.012596
3208 1070 1 0.4238 25.239139 27.315006 37.618521
3209 1070 2 -0.8476 24.984074 27.757815 38.478091
3210 1070 1 0.4238 24.880751 27.065227 39.191986
3211 1071 1 0.4238 43.907421 29.862605 40.642573
3212 1071 2 -0.8476 43.285828 29.170061 40.276506
3213 1071 1 0.4238 43.359179 29.149989 39.279403
3214 1072 1 0.4238 5.784656 19.236612 4.432977
3215 1072 2 -0.8476 5.159141 19.37111 5.201509
3216 1072 1 0.4238 4.237337 19.090492 4.934055
3217 1073 1 0.4238 25.124453 1.499788 8.945554
3218 1073 2 -0.8476 25.579816 1.6118 9.828785
3219 1073 1 0.4238 24.902197 1.558577 10.56227
3220 1074 1 0.4238 7.363745 43.094481 39.060295
3221 1074 2 -0.8476 7.609541 42.128101 38.984836
3222 1074 1 0.4238 6.777802 41.573381 38.962551
3223 1075 1 0.4238 42.061011 37.985751 33.543064
3224 1075 2 -0.8476 42.077543 37.451533 32.697879
3225 1075 1 0.4238 41.672745 37.987358 31.956914
3226 1076 1 0.4238 38.968167 11.65874 9.340655
3227 1076 2 -0.8476 39.405584 12.531282 9.123087
3228 1076 1 0.4238 39.696685 12.528801 8.166398
3229 1077 1 0.4238 10.739023 44.549465 1.503289
3230 1077 2 -0.8476 10.097066 43.834561 1.780426
3231 1077 1 0.4238 10.50898 42.937158 1.622333
3232 1078 1 0.4238 3.962423 4.499628 24.252119
3233 1078 2 -0.8476 3.878647 4.83334 23.313174
3234 1078 1 0.4238 4.57029 4.393643 22.740202
3235 1079 1 0.4238 27.657266 16.774214 25.465302
3236 1079 2 -0.8476 26.998206 16.022214 25.453635
3237 1079 1 0.4238 27.460283 15.178236 25.181265
3238 1080 1 0.4238 33.218619 38.128416 34.86033
3239 1080 2 -0.8476 33.391984 37.290762 35.378288
3240 1080 1 0.4238 32.522634 36.845489 35.592675
3241 1081 1 0.4238 21.513582 13.483894 1.781614
3242 1081 2 -0.8476 21.345178 12.539271 1.499964
3243 1081 1 0.4238 21.66984 11.916332 2.211681
3244 1082 1 0.4238 41.827812 13.730855 9.504112
3245 1082 2 -0.8476 41.721799 14.468946 8.837792
3246 1082 1 0.4238 40.813633 14.876473 8.933477
3247 1083 1 0.4238 37.087986 32.613479 14.752802
3248 1083 2 -0.8476 38.085498 32.680401 14.730648
3249 1083 1 0.4238 38.480401 31.762432 14.693448
3250 1084 1 0.4238 28.505161 9.157586 36.683548
3251 1084 2 -0.8476 29.175636 9.269829 37.41694
3252 1084 1 0.4238 28.717241 9.608388 38.238676
3253 1085 1 0.4238 12.512551 31.476488 37.333179
3254 1085 2 -0.8476 13.016806 30.774456 36.830308
3255 1085 1 0.4238 12.503193 30.517056 36.011805
3256 1086 1 0.4238 25.90224 29.669032 48.178
3257 1086 2 -0.8476 26.409146 28.977009 47.664044
3258 1086 1 0.4238 26.416758 28.119227 48.178
3259 1087 1 0.4238 16.228093 36.261541 15.310588
3260 1087 2 -0.8476 16.436354 35.777974 14.460417
3261 1087 1 0.4238 15.584367 35.486957 14.025185
3262 1088 1 0.4238 26.107522 32.665795 15.452209
3263 1088 2 -0.8476 25.710232 31.971558 14.852046
3264 1088 1 0.4238 25.380859 31.204257 15.402284
3265 1089 1 0.4238 39.72357 4.892857 28.486666
3266 1089 2 -0.8476 39.631191 3.940411 28.196299
3267 1089 1 0.4238 38.665496 3.730888 28.042895
3268 1090 1 0.4238 47.967661 16.649566 25.382829
3269 1090 2 -0.8476 48.159287 16.633686 26.364168
3270 1090 1 0.4238 47.839589 17.485071 26.780024
3271 1091 1 0.4238 35.802348 27.63288 30.931127
3272 1091 2 -0.8476 36.13123 28.577193 30.941585
3273 1091 1 0.4238 35.92083 28.993643 31.826062
3274 1092 1 0.4238 3.89176 7.930547 11.842735
3275 1092 2 -0.8476 4.618244 7.536236 11.279938
3276 1092 1 0.4238 5.395811 8.164383 11.251317
3277 1093 1 0.4238 37.513621 31.740288 39.482172
3278 1093 2 -0.8476 38.138436 32.163051 38.82576
3279 1093 1 0.4238 39.035728 31.726445 38.890883
3280 1094 1 0.4238 13.080476 48.17801 32.104139
3281 1094 2 -0.8476 12.097787 48.081552 31.945968
3282 1094 1 0.4238 11.610445 48.165721 32.815113
3283 1095 1 0.4238 43.41633 6.715397 23.174964
3284 1095 2 -0.8476 43.407895 7.179183 22.289057
3285 1095 1 0.4238 42.925204 6.612914 21.620964
3286 1096 1 0.4238 19.942646 10.393535 24.468841
3287 1096 2 -0.8476 19.69326 10.906937 25.289953
3288 1096 1 0.4238 18.748541 10.695912 25.540898
3289 1097 1 0.4238 21.357243 23.163454 27.451078
3290 1097 2 -0.8476 21.454559 22.214993 27.149495
3291 1097 1 0.4238 20.984989 21.610711 27.793192
3292 1098 1 0.4238 31.377183 35.414002 30.769765
3293 1098 2 -0.8476 31.642222 36.3746 30.853469
3294 1098 1 0.4238 32.639404 36.447859 30.837329
3295 1099 1 0.4238 19.548389 37.542513 45.693898
3296 1099 2 -0.8476 20.255615 37.999855 45.15476
3297 1099 1 0.4238 20.248847 37.639502 44.221968
3298 1100 1 0.4238 40.853688 48.177934 35.607437
3299 1100 2 -0.8476 41.430403 48.120466 36.422359
3300 1100 1 0.4238 42.392209 48.178134 36.154774
3301 1101 1 0.4238 29.705486 5.026521 1.525263
3302 1101 2 -0.8476 28.753123 5.179765 1.788932
3303 1101 1 0.4238 28.61211 4.864022 2.72724
3304 1102 1 0.4238 11.436236 24.413085 32.434314
3305 1102 2 -0.8476 11.029797 24.570263 31.534257
3306 1102 1 0.4238 10.249725 25.189436 31.624317
3307 1103 1 0.4238 32.258509 38.464264 40.557228
3308 1103 2 -0.8476 31.651426 37.975404 39.930757
3309 1103 1 0.4238 30.718439 37.991439 40.290309
3310 1104 1 0.4238 20.652249 21.158189 9.808714
3311 1104 2 -0.8476 19.97077 21.885 9.723086
3312 1104 1 0.4238 20.326804 22.60762 9.130583
3313 1105 1 0.4238 32.284028 25.147642 17.746433
3314 1105 2 -0.8476 32.976351 25.532414 17.135991
3315 1105 1 0.4238 33.833422 25.651694 17.63719
3316 1106 1 0.4238 39.92611 11.876439 48.179247
3317 1106 2 -0.8476 40.900037 11.957326 47.967297
3318 1106 1 0.4238 41.352275 11.082059 48.13873
3319 1107 1 0.4238 31.569415 41.132666 36.436951
3320 1107 2 -0.8476 32.168993 41.775646 36.913483
3321 1107 1 0.4238 32.18781 41.553936 37.888414
3322 1108 1 0.4238 1.500196 20.210716 17.288547
3323 1108 2 -0.8476 1.691778 20.351326 18.259899
3324 1108 1 0.4238 2.601872 19.997021 18.474831
3325 1109 1 0.4238 5.960608 12.991787 48.124217
3326 1109 2 -0.8476 6.687549 13.676377 48.177998
3327 1109 1 0.4238 6.284672 14.591604 48.171034
3328 1110 1 0.4238 3.183268 17.837849 6.823446
3329 1110 2 -0.8476 2.496399 17.200512 6.474143
3330 1110 1 0.4238 1.63889 17.689434 6.314038
3331 1111 1 0.4238 33.555266 40.623435 5.862791
3332 1111 2 -0.8476 34.350145 40.659869 5.257118
3333 1111 1 0.4238 34.845543 41.515258 5.40841
3334 1112 1 0.4238 21.784751 34.141961 14.045098
3335 1112 2 -0.8476 21.645927 35.014205 14.514053
3336 1112 1 0.4238 20.829153 35.461965 14.150199
3337 1113 1 0.4238 32.798643 38.242597 9.137333
3338 1113 2 -0.8476 32.231072 38.624622 8.408004
3339 1113 1 0.4238 32.640437 39.475203 8.077957
3340 1114 1 0.4238 25.505662 31.170021 9.10124
3341 1114 2 -0.8476 24.587398 30.780072 9.032463
3342 1114 1 0.4238 23.922627 31.51468 8.896703
3343 1115 1 0.4238 19.04579 28.594711 34.729922
3344 1115 2 -0.8476 18.675129 27.671179 34.828415
3345 1115 1 0.4238 19.420959 27.030308 35.010136
3346 1116 1 0.4238 33.878264 3.013433 36.706978
3347 1116 2 -0.8476 33.45468 2.194757 36.319233
3348 1116 1 0.4238 34.156112 1.499962 36.160323
3349 1117 1 0.4238 25.147534 34.152434 27.692978
3350 1117 2 -0.8476 26.144661 34.161852 27.617811
3351 1117 1 0.4238 26.45669 33.301436 27.214919
3352 1118 1 0.4238 48.107179 11.449495 14.995864
3353 1118 2 -0.8476 47.567001 10.617273 14.8709
3354 1118 1 0.4238 48.178015 9.82694 14.825793
3355 1119 1 0.4238 46.613418 1.499979 32.899869
3356 1119 2 -0.8476 47.41266 2.074259 33.077114
3357 1119 1 0.4238 48.177723 1.499981 33.368459
3358 1120 1 0.4238 1.499994 22.50721 46.632078
3359 1120 2 -0.8476 2.381925 22.356665 47.078771
3360 1120 1 0.4238 3.107952 22.77386 46.532116
3361 1121 1 0.4238 19.470614 1.5 24.291312
3362 1121 2 -0.8476 20.413726 1.600891 23.974516
3363 1121 1 0.4238 21.038118 1.5 24.749085
3364 1122 1 0.4238 46.549406 47.371907 29.545292
3365 1122 2 -0.8476 47.132354 48.178327 29.644582
3366 1122 1 0.4238 48.078792 47.889673 29.789261
3367 1123 1 0.4238 47.198261 40.227997 35.687038
3368 1123 2 -0.8476 48.102335 40.384598 36.084689
3369 1123 1 0.4238 48.178003 41.338469 36.375211
3370 1124 1 0.4238 19.507716 12.871424 3.162307
3371 1124 2 -0.8476 18.995499 12.237249 2.583123
3372 1124 1 0.4238 18.594517 12.736826 1.815246
3373 1125 1 0.4238 23.29173 36.89119 28.142118
3374 1125 2 -0.8476 22.705539 37.681066 27.961905
3375 1125 1 0.4238 22.840887 38.366684 28.677173
3376 1126 1 0.4238 15.305896 22.199109 24.268769
3377 1126 2 -0.8476 14.754708 21.429301 24.590621
3378 1126 1 0.4238 15.355233 20.666207 24.829487
3379 1127 1 0.4238 13.703782 20.462243 15.232865
3380 1127 2 -0.8476 14.599732 20.831487 15.479708
3381 1127 1 0.4238 14.948397 21.390883 14.727705
3382 1128 1 0.4238 41.881495 46.669207 41.355953
3383 1128 2 -0.8476 42.389061 47.339414 41.897432
3384 1128 1 0.4238 41.832757 48.161811 42.016545
3385 1129 1 0.4238 26.099083 4.207091 48.177898
3386 1129 2 -0.8476 26.672254 4.977645 47.899112
3387 1129 1 0.4238 26.183756 5.528844 47.222689
3388 1130 1 0.4238 33.652452 20.278209 30.177137
3389 1130 2 -0.8476 34.552123 20.70273 30.278995
3390 1130 1 0.4238 34.506642 21.65596 29.980191
3391 1131 1 0.4238 41.47875 23.399839 28.124654
3392 1131 2 -0.8476 40.710998 22.991711 27.630703
3393 1131 1 0.4238 39.855587 23.402729 27.94588
3394 1132 1 0.4238 4.523673 48.172105 22.231545
3395 1132 2 -0.8476 4.494684 48.179554 23.231097
3396 1132 1 0.4238 5.424451 48.107192 23.592064
3397 1133 1 0.4238 27.550087 39.76219 31.870729
3398 1133 2 -0.8476 28.028378 40.121964 32.671853
3399 1133 1 0.4238 27.851394 39.531059 33.458941
3400 1134 1 0.4238 36.049457 12.745828 17.104539
3401 1134 2 -0.8476 36.788861 12.537516 16.464315
3402 1134 1 0.4238 36.453255 11.912619 15.759424
3403 1135 1 0.4238 27.705937 31.564016 40.435894
3404 1135 2 -0.8476 27.042172 32.10151 39.915782
3405 1135 1 0.4238 26.118588 31.891412 40.236489
3406 1136 1 0.4238 18.556378 16.276485 1.563273
3407 1136 2 -0.8476 19.497867 15.945434 1.499996
3408 1136 1 0.4238 19.561639 15.039822 1.919281
3409 1137 1 0.4238 28.65791 18.827963 33.567409
3410 1137 2 -0.8476 29.638377 18.640363 33.508315
3411 1137 1 0.4238 29.780052 17.714095 33.159095
3412 1138 1 0.4238 10.176876 48.178 30.348857
3413 1138 2 -0.8476 9.47562 47.606457 29.922739
3414 1138 1 0.4238 8.703806 48.178 29.644095
3415 1139 1 0.4238 9.790164 1.666506 40.725771
3416 1139 2 -0.8476 10.457928 1.573878 39.987184
3417 1139 1 0.4238 9.97916 1.498687 39.112469
3418 1140 1 0.4238 8.526886 24.545317 7.042691
3419 1140 2 -0.8476 8.30117 24.368055 6.084761
3420 1140 1 0.4238 8.885448 24.926411 5.495814
3421 1141 1 0.4238 31.774582 2.986515 22.662937
3422 1141 2 -0.8476 32.314469 2.359222 23.224209
3423 1141 1 0.4238 32.52364 1.53586 22.696648
3424 1142 1 0.4238 25.310843 10.530558 42.36986
3425 1142 2 -0.8476 25.604756 11.486186 42.350127
3426 1142 1 0.4238 25.044328 12.02041 42.982998
3427 1143 1 0.4238 27.128455 17.693249 40.22466
3428 1143 2 -0.8476 27.5967 16.842119 39.987334
3429 1143 1 0.4238 27.493413 16.185388 40.734352
3430 1144 1 0.4238 1.502308 48.149554 7.347949
3431 1144 2 -0.8476 2.474454 48.178101 7.580579
3432 1144 1 0.4238 2.833333 47.245924 7.62804
3433 1145 1 0.4238 47.243369 2.829424 48.178467
3434 1145 2 -0.8476 48.178443 2.499107 48.049908
3435 1145 1 0.4238 48.176482 1.499893 48.010318
3436 1146 1 0.4238 40.733883 36.449839 47.985228
3437 1146 2 -0.8476 39.766888 36.269581 48.165306
3438 1146 1 0.4238 39.405698 35.65633 47.462836
3439 1147 1 0.4238 38.426853 18.379594 33.345799
3440 1147 2 -0.8476 38.469198 17.389447 33.212321
3441 1147 1 0.4238 37.823059 16.941848 33.830512
3442 1148 1 0.4238 33.436424 48.178001 25.860032
3443 1148 2 -0.8476 32.518896 47.843291 25.645296
3444 1148 1 0.4238 32.244506 48.178 24.743808
3445 1149 1 0.4238 36.468701 39.163136 22.565984
3446 1149 2 -0.8476 37.04223 39.954739 22.776767
3447 1149 1 0.4238 37.938404 39.840683 22.347974
3448 1150 1 0.4238 17.091102 17.662533 45.897754
3449 1150 2 -0.8476 17.945516 17.332943 45.496072
3450 1150 1 0.4238 17.741551 16.663817 44.781462
3451 1151 1 0.4238 19.369776 32.849772 41.265294
3452 1151 2 -0.8476 19.734625 33.72205 40.939693
3453 1151 1 0.4238 19.011143 34.412239 40.954319
3454 1152 1 0.4238 6.68055 35.074888 3.537889
3455 1152 2 -0.8476 5.770881 34.67323 3.643592
3456 1152 1 0.4238 5.12644 35.379822 3.935866
3457 1153 1 0.4238 25.110492 36.788271 41.685871
3458 1153 2 -0.8476 24.910633 36.415912 40.779557
3459 1153 1 0.4238 25.764395 36.145528 40.334606
3460 1154 1 0.4238 5.189402 37.338473 5.577737
3461 1154 2 -0.8476 6.187747 37.301149 5.621485
3462 1154 1 0.4238 6.478809 36.360446 5.795727
3463 1155 1 0.4238 6.973574 18.781864 26.053513
3464 1155 2 -0.8476 6.32172 18.630823 26.796664
3465 1155 1 0.4238 5.466055 18.273742 26.422057
3466 1156 1 0.4238 48.131121 17.309043 16.695374
3467 1156 2 -0.8476 48.178006 16.351456 16.41107
3468 1156 1 0.4238 48.048867 15.760614 17.207455
3469 1157 1 0.4238 27.527413 26.261531 24.918233
3470 1157 2 -0.8476 27.287419 27.098251 25.410475
3471 1157 1 0.4238 28.049945 27.74344 25.362676
3472 1158 1 0.4238 3.878111 19.166323 34.817796
3473 1158 2 -0.8476 3.701852 18.674053 33.965385
3474 1158 1 0.4238 4.560052 18.301933 33.611805
3475 1159 1 0.4238 30.696984 5.897825 30.57047
3476 1159 2 -0.8476 30.885902 6.879409 30.598834
3477 1159 1 0.4238 31.871779 7.026941 30.678092
3478 1160 1 0.4238 12.264446 5.920881 18.498113
3479 1160 2 -0.8476 11.635351 6.521173 18.991965
3480 1160 1 0.4238 12.003273 6.713574 19.901699
3481 1161 1 0.4238 15.014768 9.054324 28.299885
3482 1161 2 -0.8476 14.465222 8.303961 27.932522
3483 1161 1 0.4238 15.064739 7.544825 27.678966
3484 1162 1 0.4238 45.438569 45.387072 5.87894
3485 1162 2 -0.8476 45.409743 44.469623 5.482131
3486 1162 1 0.4238 45.451247 44.536195 4.485214
3487 1163 1 0.4238 19.499822 38.352875 21.481428
3488 1163 2 -0.8476 19.108666 37.471032 21.74477
3489 1163 1 0.4238 19.677062 36.732592 21.381958
3490 1164 1 0.4238 41.709222 6.779331 30.768471
3491 1164 2 -0.8476 42.534798 6.508459 31.263499
3492 1164 1 0.4238 42.988469 7.322681 31.625747
3493 1165 1 0.4238 9.338704 15.11888 3.979111
3494 1165 2 -0.8476 10.117036 14.525657 3.773479
3495 1165 1 0.4238 10.897983 15.084864 3.495254
3496 1166 1 0.4238 29.620346 35.183122 25.345942
3497 1166 2 -0.8476 29.277023 36.120053 25.280449
3498 1166 1 0.4238 30.036336 36.740278 25.083564
3499 1167 1 0.4238 32.952973 1.689461 3.709216
3500 1167 2 -0.8476 32.178308 1.499732 3.105978
3501 1167 1 0.4238 31.331878 1.505978 3.638441
3502 1168 1 0.4238 11.007614 20.835143 30.331063
3503 1168 2 -0.8476 10.672147 21.695174 30.715522
3504 1168 1 0.4238 11.08493 21.841895 31.614456
3505 1169 1 0.4238 6.454876 7.235412 17.898734
3506 1169 2 -0.8476 5.623845 6.685857 17.984619
3507 1169 1 0.4238 5.008412 6.891065 17.223613
3508 1170 1 0.4238 41.107051 5.413103 14.235036
3509 1170 2 -0.8476 41.04441 4.717747 14.950966
3510 1170 1 0.4238 41.877782 4.165039 14.952625
3511 1171 1 0.4238 3.958453 29.544469 13.775669
3512 1171 2 -0.8476 4.097525 30.454178 13.384402
3513 1171 1 0.4238 3.846495 31.148872 14.058482
3514 1172 1 0.4238 37.395041 23.050656 12.141716
3515 1172 2 -0.8476 36.441108 23.199531 11.88124
3516 1172 1 0.4238 36.31069 22.932272 10.926482
3517 1173 1 0.4238 48.176392 25.127792 1.502245
3518 1173 2 -0.8476 48.168233 24.310527 2.078448
3519 1173 1 0.4238 48.149064 23.495042 1.499987
3520 1174 1 0.4238 27.392426 14.091396 35.135695
3521 1174 2 -0.8476 26.577694 13.514923 35.073332
3522 1174 1 0.4238 26.018597 13.638208 35.893217
3523 1175 1 0.4238 41.110829 34.254972 35.5042
3524 1175 2 -0.8476 40.659548 34.774172 34.778407
3525 1175 1 0.4238 41.312722 35.41081 34.368461
3526 1176 1 0.4238 28.157124 30.903632 3.624264
3527 1176 2 -0.8476 27.188048 31.144147 3.679443
3528 1176 1 0.4238 26.676607 30.379388 4.071326
3529 1177 1 0.4238 44.682399 30.307219 28.556748
3530 1177 2 -0.8476 43.939148 30.016949 29.15951
3531 1177 1 0.4238 44.312025 29.772784 30.054689
3532 1178 1 0.4238 40.462042 30.224607 4.265067
3533 1178 2 -0.8476 39.46731 30.317124 4.220918
3534 1178 1 0.4238 39.042235 29.426444 4.382163
3535 1179 1 0.4238 41.776813 30.876631 34.485201
3536 1179 2 -0.8476 41.20638 31.68766 34.614966
3537 1179 1 0.4238 41.18755 32.22073 33.769105
3538 1180 1 0.4238 22.260031 26.97447 28.587306
3539 1180 2 -0.8476 22.2951 25.979595 28.492476
3540 1180 1 0.4238 21.435663 25.583464 28.815662
3541 1181 1 0.4238 45.168602 38.766295 36.090141
3542 1181 2 -0.8476 44.46668 39.344196 36.506479
3543 1181 1 0.4238 43.738404 39.514587 35.842717
3544 1182 1 0.4238 11.841414 43.793531 41.841099
3545 1182 2 -0.8476 11.375073 43.063544 42.340744
3546 1182 1 0.4238 11.07044 43.409068 43.228331
3547 1183 1 0.4238 5.394078 47.218707 36.185022
3548 1183 2 -0.8476 4.497786 47.600037 36.411404
3549 1183 1 0.4238 4.576951 48.178009 37.223612
3550 1184 1 0.4238 42.311232 26.136032 23.718335
3551 1184 2 -0.8476 41.833066 25.290484 23.480834
3552 1184 1 0.4238 40.943961 25.511641 23.080108
3553 1185 1 0.4238 9.251428 46.22616 48.178501
3554 1185 2 -0.8476 9.825296 46.833314 47.628919
3555 1185 1 0.4238 10.095569 47.624034 48.178204
3556 1186 1 0.4238 17.65282 8.856415 17.474054
3557 1186 2 -0.8476 17.103375 9.330187 18.162277
3558 1186 1 0.4238 16.406157 9.884842 17.708136
3559 1187 1 0.4238 26.04357 31.241924 30.808598
3560 1187 2 -0.8476 25.482265 32.029535 30.554424
3561 1187 1 0.4238 25.908494 32.508918 29.787272
3562 1188 1 0.4238 21.709193 3.758437 38.275034
3563 1188 2 -0.8476 20.961078 4.379578 38.041563
3564 1188 1 0.4238 20.095538 3.993749 38.3609
3565 1189 1 0.4238 36.618034 12.086858 47.229779
3566 1189 2 -0.8476 36.981654 11.884296 48.139036
3567 1189 1 0.4238 37.267552 10.926828 48.177978
3568 1190 1 0.4238 26.318918 19.061506 4.908662
3569 1190 2 -0.8476 26.453555 18.923974 3.927358
3570 1190 1 0.4238 27.429329 18.816882 3.736582
3571 1191 1 0.4238 45.622966 41.548678 26.366748
3572 1191 2 -0.8476 45.977946 42.48225 26.416072
3573 1191 1 0.4238 45.741985 42.88221 27.30171
3574 1192 1 0.4238 24.544869 12.401545 17.86913
3575 1192 2 -0.8476 23.661247 11.982067 18.077095
3576 1192 1 0.4238 23.309869 12.353677 18.93642
3577 1193 1 0.4238 26.498515 7.423879 36.005559
3578 1193 2 -0.8476 25.710504 7.730898 35.471914
3579 1193 1 0.4238 24.880552 7.298125 35.823888
3580 1194 1 0.4238 7.23036 14.348844 23.681205
3581 1194 2 -0.8476 7.880258 15.108266 23.711379
3582 1194 1 0.4238 8.808809 14.748848 23.804175
3583 1195 1 0.4238 45.676684 11.709213 13.560787
3584 1195 2 -0.8476 45.065175 11.109356 14.07676
3585 1195 1 0.4238 44.336797 11.653915 14.492597
3586 1196 1 0.4238 33.340122 2.503673 42.491466
3587 1196 2 -0.8476 32.898172 1.941184 43.190241
3588 1196 1 0.4238 33.596566 1.499727 43.753589
3589 1197 1 0.4238 39.322845 44.72484 26.737584
3590 1197 2 -0.8476 40.209292 45.16362 26.884836
3591 1197 1 0.4238 40.103956 45.919016 27.531582
3592 1198 1 0.4238 42.171559 29.780316 37.068927
3593 1198 2 -0.8476 41.275647 30.049424 37.422371
3594 1198 1 0.4238 41.137092 31.027866 37.26923
3595 1199 1 0.4238 44.512324 46.817864 43.409847
3596 1199 2 -0.8476 44.769682 47.422463 42.656038
3597 1199 1 0.4238 45.322035 48.177946 43.008388
3598 1200 1 0.4238 31.272798 19.139511 42.182373
3599 1200 2 -0.8476 31.027429 20.10318 42.076846
3600 1200 1 0.4238 30.253127 20.317123 42.6724
3601 1201 1 0.4238 6.712663 12.595916 31.480555
3602 1201 2 -0.8476 6.899276 13.573759 31.385687
3603 1201 1 0.4238 6.116185 14.022274 30.954871
3604 1202 1 0.4238 11.942199 38.360301 45.509043
3605 1202 2 -0.8476 12.174826 38.807158 44.645212
3606 1202 1 0.4238 12.879433 38.276208 44.174447
3607 1203 1 0.4238 16.562358 11.005115 47.093917
3608 1203 2 -0.8476 15.747414 10.916673 47.666668
3609 1203 1 0.4238 15.042904 11.548666 47.343791
3610 1204 1 0.4238 46.457309 45.943933 24.642957
3611 1204 2 -0.8476 45.88419 45.286018 25.131509
3612 1204 1 0.4238 45.243858 45.776278 25.722796
3613 1205 1 0.4238 8.529634 22.67301 32.162886
3614 1205 2 -0.8476 9.034529 23.094542 32.916139
3615 1205 1 0.4238 8.50798 23.861849 33.28218
3616 1206 1 0.4238 22.921838 18.525232 27.920266
3617 1206 2 -0.8476 22.250408 19.218856 28.181163
3618 1206 1 0.4238 21.379002 18.776278 28.392767
3619 1207 1 0.4238 8.626434 45.516258 45.864323
3620 1207 2 -0.8476 7.810614 45.255848 46.38068
3621 1207 1 0.4238 7.176776 46.028576 46.414456
3622 1208 1 0.4238 10.936315 38.67823 5.074594
3623 1208 2 -0.8476 11.638163 38.192234 5.595378
3624 1208 1 0.4238 12.217731 38.853594 6.071512
3625 1209 1 0.4238 12.881473 29.921852 8.18181
3626 1209 2 -0.8476 13.84897 30.09248 7.995167
3627 1209 1 0.4238 13.947538 30.488308 7.082148
3628 1210 1 0.4238 27.518106 33.355354 19.446724
3629 1210 2 -0.8476 28.497213 33.16799 19.525751
3630 1210 1 0.4238 28.639176 32.187149 19.659151
3631 1211 1 0.4238 47.482953 19.88102 38.293039
3632 1211 2 -0.8476 47.871796 20.615819 37.737276
3633 1211 1 0.4238 48.178041 21.358133 38.333249
3634 1212 1 0.4238 9.018413 37.992246 12.40757
3635 1212 2 -0.8476 9.794926 37.909066 13.032157
3636 1212 1 0.4238 10.18122 38.814875 13.206186
3637 1213 1 0.4238 20.448568 42.006414 45.675398
3638 1213 2 -0.8476 21.404225 42.299302 45.705988
3639 1213 1 0.4238 21.997498 41.496034 45.758779
3640 1214 1 0.4238 38.040767 37.699444 1.528833
3641 1214 2 -0.8476 38.672029 38.399491 1.862662
3642 1214 1 0.4238 39.587141 38.223389 1.499954
3643 1215 1 0.4238 23.090678 12.569127 41.156354
3644 1215 2 -0.8476 23.818123 12.356449 40.50398
3645 1215 1 0.4238 23.448438 11.794473 39.764037
3646 1216 1 0.4238 40.316242 46.999647 38.526481
3647 1216 2 -0.8476 40.43493 47.973724 38.71906
3648 1216 1 0.4238 40.130953 48.16858 39.651599
3649 1217 1 0.4238 5.994451 19.495175 36.107354
3650 1217 2 -0.8476 5.568283 20.04581 36.825114
3651 1217 1 0.4238 6.135396 20.848297 37.010581
3652 1218 1 0.4238 8.303417 24.551911 25.647156
3653 1218 2 -0.8476 8.672275 25.472466 25.518621
3654 1218 1 0.4238 7.919039 26.1261 25.445143
3655 1219 1 0.4238 5.270046 35.265533 29.696249
3656 1219 2 -0.8476 5.085007 34.415714 30.189775
3657 1219 1 0.4238 4.371564 34.575108 30.872118
3658 1220 1 0.4238 24.964168 25.177274 44.980699
3659 1220 2 -0.8476 25.007353 24.383932 44.373456
3660 1220 1 0.4238 24.912172 24.684902 43.424584
3661 1221 1 0.4238 10.262643 28.541852 48.178001
3662 1221 2 -0.8476 11.022258 28.975345 47.693162
3663 1221 1 0.4238 11.876802 28.789073 48.177989
3664 1222 1 0.4238 38.774414 41.763917 24.062505
3665 1222 2 -0.8476 39.478794 41.94782 23.376919
3666 1222 1 0.4238 39.610248 42.935386 23.29071
3667 1223 1 0.4238 24.618916 42.55542 40.678527
3668 1223 2 -0.8476 24.702757 41.7784 40.05466
3669 1223 1 0.4238 23.804899 41.559084 39.672886
3670 1224 1 0.4238 11.126108 45.420721 31.015211
3671 1224 2 -0.8476 10.325174 45.309398 30.426898
3672 1224 1 0.4238 10.596408 45.418003 29.470531
3673 1225 1 0.4238 20.781694 9.157029 11.231332
3674 1225 2 -0.8476 19.918682 8.693612 11.432467
3675 1225 1 0.4238 20.103616 7.751824 11.71324
3676 1226 1 0.4238 34.392483 17.50625 6.239882
3677 1226 2 -0.8476 33.952344 16.609268 6.28112
3678 1226 1 0.4238 34.087494 16.21311 7.189301
3679 1227 1 0.4238 25.10541 29.886765 5.952457
3680 1227 2 -0.8476 25.741246 30.525919 6.385117
3681 1227 1 0.4238 25.316291 31.429098 6.445774
3682 1228 1 0.4238 10.693097 45.302765 10.409123
3683 1228 2 -0.8476 11.352204 45.416583 9.665737
3684 1228 1 0.4238 11.307172 44.625066 9.056252
3685 1229 1 0.4238 37.132231 13.056926 28.927383
3686 1229 2 -0.8476 37.466386 12.492323 29.682078
3687 1229 1 0.4238 37.348151 12.984664 30.544412
3688 1230 1 0.4238 48.056397 39.544891 21.52211
3689 1230 2 -0.8476 48.178004 40.064529 22.367798
3690 1230 1 0.4238 47.537374 40.83224 22.382328
3691 1231 1 0.4238 44.301333 27.787676 28.031757
3692 1231 2 -0.8476 45.258725 27.834136 27.74673
3693 1231 1 0.4238 45.654592 26.91589 27.757342
3694 1232 1 0.4238 42.619125 41.823169 36.103677
3695 1232 2 -0.8476 42.263306 41.648589 37.021781
3696 1232 1 0.4238 41.296073 41.899918 37.057756
3697 1233 1 0.4238 37.518286 48.163423 14.618243
3698 1233 2 -0.8476 36.709333 47.869206 15.127195
3699 1233 1 0.4238 36.781664 48.178002 16.075569
3700 1234 1 0.4238 8.002755 31.010191 26.398844
3701 1234 2 -0.8476 7.203046 31.149176 26.982924
3702 1234 1 0.4238 6.979434 32.123306 27.015623
3703 1235 1 0.4238 11.251147 1.499998 25.204676
3704 1235 2 -0.8476 10.330441 1.669889 24.853338
3705 1235 1 0.4238 10.313064 1.499996 23.868029
3706 1236 1 0.4238 15.944885 4.466219 9.082141
3707 1236 2 -0.8476 15.178157 5.093903 9.216826
3708 1236 1 0.4238 15.360225 5.677518 10.008183
3709 1237 1 0.4238 25.663363 15.599256 46.213391
3710 1237 2 -0.8476 25.440622 16.495308 46.597419
3711 1237 1 0.4238 24.909282 17.020194 45.932459
3712 1238 1 0.4238 47.398403 45.723965 1.499941
3713 1238 2 -0.8476 46.411437 45.884792 1.505753
3714 1238 1 0.4238 46.111859 46.085124 2.438555
3715 1239 1 0.4238 29.445894 26.880709 1.500185
3716 1239 2 -0.8476 29.522658 25.923057 1.777691
3717 1239 1 0.4238 30.154452 25.849246 2.549305
3718 1240 1 0.4238 41.731809 11.961554 17.641563
3719 1240 2 -0.8476 41.546565 11.364021 18.421717
3720 1240 1 0.4238 41.041349 10.558506 18.112038
3721 1241 1 0.4238 46.29093 8.631497 34.810985
3722 1241 2 -0.8476 45.567398 8.099373 35.250696
3723 1241 1 0.4238 45.913123 7.188236 35.474977
3724 1242 1 0.4238 21.632845 10.249403 41.137492
3725 1242 2 -0.8476 22.206201 9.549347 40.711833
3726 1242 1 0.4238 23.082626 9.49979 41.190815
3727 1243 1 0.4238 13.327842 28.87188 21.556153
3728 1243 2 -0.8476 13.257322 27.98881 22.020066
3729 1243 1 0.4238 13.322342 28.12546 23.008549
3730 1244 1 0.4238 1.500001 35.419891 20.330773
3731 1244 2 -0.8476 1.855545 36.339668 20.164645
3732 1244 1 0.4238 1.5 36.964963 20.859334
3733 1245 1 0.4238 39.177088 34.861046 37.341049
3734 1245 2 -0.8476 39.166714 35.85551 37.23649
3735 1245 1 0.4238 40.104144 36.190468 37.141477
3736 1246 1 0.4238 13.960429 17.442557 45.786618
3737 1246 2 -0.8476 13.660628 16.912591 44.993362
3738 1246 1 0.4238 12.677399 16.74227 45.058568
3739 1247 1 0.4238 32.733677 1.503338 29.239528
3740 1247 2 -0.8476 33.67179 1.829143 29.356975
3741 1247 1 0.4238 34.03213 1.499999 30.229798
3742 1248 1 0.4238 6.840753 17.183509 31.264988
3743 1248 2 -0.8476 7.157563 16.294909 30.933295
3744 1248 1 0.4238 7.84673 16.431167 30.22162
3745 1249 1 0.4238 41.242711 1.499773 2.778654
3746 1249 2 -0.8476 42.098602 1.499565 2.261498
3747 1249 1 0.4238 42.027808 2.143339 1.499564
3748 1250 1 0.4238 16.505987 43.529555 14.407647
3749 1250 2 -0.8476 17.267359 44.119654 14.676155
3750 1250 1 0.4238 17.819169 44.33868 13.871461
3751 1251 1 0.4238 20.277967 43.087384 47.923122
3752 1251 2 -0.8476 20.843744 43.87144 48.178373
3753 1251 1 0.4238 21.679903 43.87174 47.629887
3754 1252 1 0.4238 29.648741 3.669996 38.443852
3755 1252 2 -0.8476 28.929153 3.015833 38.676798
3756 1252 1 0.4238 29.085059 2.663402 39.599558
3757 1253 1 0.4238 10.562663 3.831532 38.428865
3758 1253 2 -0.8476 11.312373 3.509679 37.850639
3759 1253 1 0.4238 11.909642 2.909502 38.38267
3760 1254 1 0.4238 3.986565 43.945504 21.527024
3761 1254 2 -0.8476 4.063486 43.114394 20.976262
3762 1254 1 0.4238 5.016665 42.981617 20.704563
3763 1255 1 0.4238 34.98609 12.392656 31.779852
3764 1255 2 -0.8476 34.779416 11.476244 31.437104
3765 1255 1 0.4238 35.107129 11.39052 30.496224
3766 1256 1 0.4238 23.61392 8.303969 26.257418
3767 1256 2 -0.8476 24.554462 8.621046 26.379248
3768 1256 1 0.4238 24.556571 9.610595 26.523431
3769 1257 1 0.4238 5.159138 4.969139 3.991589
3770 1257 2 -0.8476 5.833667 5.694905 3.856403
3771 1257 1 0.4238 5.513271 6.533871 4.296269
3772 1258 1 0.4238 17.124229 26.118836 28.578139
3773 1258 2 -0.8476 17.594666 25.398766 29.088226
3774 1258 1 0.4238 17.092249 24.539506 28.99205
3775 1259 1 0.4238 9.262583 26.40319 33.93655
3776 1259 2 -0.8476 9.223513 27.18247 34.562008
3777 1259 1 0.4238 9.859526 27.034251 35.319318
3778 1260 1 0.4238 26.264724 12.499163 39.193619
3779 1260 2 -0.8476 25.642385 12.862117 38.500107
3780 1260 1 0.4238 25.38277 13.797097 38.741791
3781 1261 1 0.4238 35.042163 25.403242 48.178
3782 1261 2 -0.8476 35.590059 26.2383 48.128113
3783 1261 1 0.4238 36.561382 26.001235 48.146298
3784 1262 1 0.4238 18.028407 6.808089 6.111507
3785 1262 2 -0.8476 18.824427 6.258829 6.3658
3786 1262 1 0.4238 19.564606 6.862149 6.662684
3787 1263 1 0.4238 15.597738 26.653976 16.481658
3788 1263 2 -0.8476 15.459476 27.093031 15.5939
3789 1263 1 0.4238 14.557256 26.84903 15.238285
3790 1264 1 0.4238 6.209131 30.642874 45.918656
3791 1264 2 -0.8476 6.735734 31.492449 45.888465
3792 1264 1 0.4238 6.109762 32.271884 45.863174
3793 1265 1 0.4238 31.833538 40.088109 18.112784
3794 1265 2 -0.8476 32.768991 40.223969 17.786485
3795 1265 1 0.4238 33.133937 39.355943 17.449819
3796 1266 1 0.4238 33.71514 23.116219 37.257819
3797 1266 2 -0.8476 33.170486 23.954721 37.241491
3798 1266 1 0.4238 32.1989 23.720471 37.207619
3799 1267 1 0.4238 40.22269 35.740988 10.559328
3800 1267 2 -0.8476 40.301071 34.846038 10.998556
3801 1267 1 0.4238 39.962609 34.139141 10.377476
3802 1268 1 0.4238 30.87797 22.942277 46.62159
3803 1268 2 -0.8476 30.679688 21.99528 46.874334
3804 1268 1 0.4238 29.812971 21.957529 47.371705
3805 1269 1 0.4238 25.065839 34.150283 3.469139
3806 1269 2 -0.8476 24.862674 33.172362 3.518078
3807 1269 1 0.4238 25.266706 32.789151 4.348684
3808 1270 1 0.4238 20.852127 33.569423 19.079037
3809 1270 2 -0.8476 20.288215 32.792357 19.35863
3810 1270 1 0.4238 20.631986 32.424879 20.222795
3811 1271 1 0.4238 48.169752 1.524154 30.613556
3812 1271 2 -0.8476 47.686489 2.399629 30.613687
3813 1271 1 0.4238 46.711811 2.242351 30.454732
3814 1272 1 0.4238 35.47561 11.023372 22.9268
3815 1272 2 -0.8476 36.221039 10.366222 22.815044
3816 1272 1 0.4238 35.841079 9.452444 22.671377
3817 1273 1 0.4238 14.336742 7.932268 10.755455
3818 1273 2 -0.8476 13.540642 7.37895 10.510373
3819 1273 1 0.4238 12.746105 7.973776 10.388337
3820 1274 1 0.4238 48.178002 39.264792 33.598419
3821 1274 2 -0.8476 47.886893 38.408502 33.171778
3822 1274 1 0.4238 47.062975 38.072117 33.627851
3823 1275 1 0.4238 19.588424 6.462781 20.977465
3824 1275 2 -0.8476 19.176269 5.551693 20.984267
3825 1275 1 0.4238 19.895813 4.859895 20.923675
3826 1276 1 0.4238 39.942019 48.1736 11.282004
3827 1276 2 -0.8476 39.112333 47.625303 11.386846
3828 1276 1 0.4238 38.406835 48.171348 11.838627
3829 1277 1 0.4238 37.874544 12.972527 34.064135
3830 1277 2 -0.8476 37.322891 13.212895 33.265447
3831 1277 1 0.4238 37.031103 14.166719 33.336715
3832 1278 1 0.4238 30.957666 32.107982 34.574456
3833 1278 2 -0.8476 30.940993 31.798897 35.525345
3834 1278 1 0.4238 31.176408 30.827785 35.564342
3835 1279 1 0.4238 16.260032 1.515895 6.051178
3836 1279 2 -0.8476 16.68824 1.837887 5.206809
3837 1279 1 0.4238 16.308851 2.729507 4.959671
3838 1280 1 0.4238 18.066934 41.560143 13.427203
3839 1280 2 -0.8476 18.291682 41.083514 12.577313
3840 1280 1 0.4238 17.636419 40.343216 12.427018
3841 1281 1 0.4238 31.56826 2.947997 15.703834
3842 1281 2 -0.8476 30.642961 3.308014 15.584628
3843 1281 1 0.4238 30.664852 4.079599 14.948878
3844 1282 1 0.4238 1.500003 21.014177 40.757791
3845 1282 2 -0.8476 1.757084 20.165975 41.220891
3846 1282 1 0.4238 1.532119 20.235456 42.192777
3847 1283 1 0.4238 33.781465 20.311892 37.60164
3848 1283 2 -0.8476 33.755141 19.581721 36.918882
3849 1283 1 0.4238 34.374075 19.806613 36.166324
3850 1284 1 0.4238 44.304177 25.554968 32.498678
3851 1284 2 -0.8476 44.910064 25.301759 33.252857
3852 1284 1 0.4238 45.64334 24.715292 32.908818
3853 1285 1 0.4238 20.435573 29.933693 15.309583
3854 1285 2 -0.8476 20.314399 28.976182 15.571287
3855 1285 1 0.4238 20.4526 28.391999 14.771518
3856 1286 1 0.4238 32.666073 31.427134 30.043186
3857 1286 2 -0.8476 31.769379 31.363211 29.605176
3858 1286 1 0.4238 31.161366 32.05909 29.98737
3859 1287 1 0.4238 7.781476 12.79109 44.984434
3860 1287 2 -0.8476 6.815634 12.68761 45.222011
3861 1287 1 0.4238 6.48515 13.529706 45.64822
3862 1288 1 0.4238 37.507732 34.662562 12.963078
3863 1288 2 -0.8476 37.52273 35.659087 13.045011
3864 1288 1 0.4238 36.609989 36.022625 12.858617
3865 1289 1 0.4238 26.32295 9.546566 40.065113
3866 1289 2 -0.8476 26.889546 8.731625 40.186936
3867 1289 1 0.4238 26.302079 7.937315 40.341703
3868 1290 1 0.4238 1.504979 28.179691 39.107902
3869 1290 2 -0.8476 2.007193 27.778511 38.341849
3870 1290 1 0.4238 1.55879 26.931501 38.056354
3871 1291 1 0.4238 17.76025 40.175889 18.955933
3872 1291 2 -0.8476 17.639662 40.096844 17.966382
3873 1291 1 0.4238 18.535317 40.074293 17.522205
3874 1292 1 0.4238 14.292309 10.520767 9.852402
3875 1292 2 -0.8476 13.643815 11.123332 10.317559
3876 1292 1 0.4238 13.152834 10.606633 11.018957
3877 1293 1 0.4238 47.00318 5.229852 16.541793
3878 1293 2 -0.8476 47.219598 4.374857 16.070469
3879 1293 1 0.4238 48.176469 4.136033 16.235883
3880 1294 1 0.4238 8.69733 41.05151 47.85906
3881 1294 2 -0.8476 8.751815 40.105336 48.178098
3882 1294 1 0.4238 9.698251 39.787804 48.119504
3883 1295 1 0.4238 37.803847 25.045901 35.552685
3884 1295 2 -0.8476 37.466679 25.904184 35.939554
3885 1295 1 0.4238 37.913511 26.673717 35.483309
3886 1296 1 0.4238 43.304209 12.551864 29.065441
3887 1296 2 -0.8476 42.422515 12.091299 28.962992
3888 1296 1 0.4238 42.1306 12.138921 28.007734
3889 1297 1 0.4238 35.531858 32.49859 19.959748
3890 1297 2 -0.8476 36.52172 32.628134 20.01798
3891 1297 1 0.4238 36.961704 32.191989 19.233001
3892 1298 1 0.4238 20.088388 44.986677 14.696515
3893 1298 2 -0.8476 20.470903 45.863744 14.987094
3894 1298 1 0.4238 21.128334 45.712486 15.725272
3895 1299 1 0.4238 36.180773 5.94154 4.244464
3896 1299 2 -0.8476 35.428881 6.53552 4.530553
3897 1299 1 0.4238 34.623333 6.347627 3.968603
3898 1300 1 0.4238 26.492401 32.980163 42.715411
3899 1300 2 -0.8476 26.734891 33.948549 42.656872
3900 1300 1 0.4238 27.042409 34.159652 41.729042
3901 1301 1 0.4238 35.280751 5.954958 41.93603
3902 1301 2 -0.8476 34.41116 5.471177 41.837202
3903 1301 1 0.4238 34.28834 4.845586 42.607624
3904 1302 1 0.4238 33.753 46.739341 21.321146
3905 1302 2 -0.8476 34.086073 47.223453 20.512011
3906 1302 1 0.4238 34.985035 46.867291 20.257028
3907 1303 1 0.4238 25.28921 9.862602 12.163009
3908 1303 2 -0.8476 24.570577 10.295011 12.70761
3909 1303 1 0.4238 24.921438 11.139612 13.112017
3910 1304 1 0.4238 1.499988 36.122431 32.712678
3911 1304 2 -0.8476 1.515322 35.737844 31.789717
3912 1304 1 0.4238 2.367629 35.996356 31.335024
3913 1305 1 0.4238 6.712134 3.595085 36.482601
3914 1305 2 -0.8476 6.240969 4.433619 36.756212
3915 1305 1 0.4238 5.613195 4.232968 37.508302
3916 1306 1 0.4238 15.615775 18.454006 26.687839
3917 1306 2 -0.8476 16.083591 18.162159 27.52209
3918 1306 1 0.4238 16.057594 18.901549 28.194865
3919 1307 1 0.4238 8.980972 23.29426 12.581054
3920 1307 2 -0.8476 8.474125 22.451756 12.76352
3921 1307 1 0.4238 8.191289 22.038793 11.897803
3922 1308 1 0.4238 9.127 16.547485 48.096191
3923 1308 2 -0.8476 8.610884 15.698114 47.985771
3924 1308 1 0.4238 9.206911 14.918517 48.178072
3925 1309 1 0.4238 37.4612 13.65788 3.958954
3926 1309 2 -0.8476 38.444836 13.478999 3.937439
3927 1309 1 0.4238 38.793087 13.641684 3.014263
3928 1310 1 0.4238 14.755276 41.114488 19.103182
3929 1310 2 -0.8476 15.341349 40.981262 19.902413
3930 1310 1 0.4238 14.831726 41.211264 20.731499
3931 1311 1 0.4238 18.618462 18.611284 38.707011
3932 1311 2 -0.8476 17.704724 18.994567 38.841835
3933 1311 1 0.4238 17.151592 18.356938 39.378
3934 1312 1 0.4238 44.778038 10.907022 3.87421
3935 1312 2 -0.8476 44.392499 10.112651 3.404814
3936 1312 1 0.4238 43.614151 9.762777 3.926122
3937 1313 1 0.4238 48.181429 7.169513 10.317391
3938 1313 2 -0.8476 48.120649 7.688559 11.169974
3939 1313 1 0.4238 47.293305 7.421849 11.664309
3940 1314 1 0.4238 14.947989 27.350113 3.380538
3941 1314 2 -0.8476 14.89105 27.965394 4.166787
3942 1314 1 0.4238 15.69472 27.838544 4.748184
3943 1315 1 0.4238 37.853326 31.997904 8.485514
3944 1315 2 -0.8476 38.735513 32.443942 8.636495
3945 1315 1 0.4238 39.469209 31.854506 8.298478
3946 1316 1 0.4238 28.373093 18.089693 43.393517
3947 1316 2 -0.8476 28.696662 17.934206 42.460175
3948 1316 1 0.4238 29.362341 17.18797 42.45815
3949 1317 1 0.4238 19.829991 5.387352 1.630224
3950 1317 2 -0.8476 18.957857 5.264231 2.103746
3951 1317 1 0.4238 18.314309 4.793734 1.500026
3952 1318 1 0.4238 10.491667 8.587168 4.335181
3953 1318 2 -0.8476 10.939957 9.171554 3.658772
3954 1318 1 0.4238 11.59595 8.630082 3.132957
3955 1319 1 0.4238 10.878385 44.669022 26.145827
3956 1319 2 -0.8476 10.655872 45.544839 25.717536
3957 1319 1 0.4238 9.706067 45.531261 25.404988
3958 1320 1 0.4238 33.50636 37.91066 13.373337
3959 1320 2 -0.8476 34.280617 37.367454 13.698071
3960 1320 1 0.4238 35.039049 37.975364 13.933074
3961 1321 1 0.4238 9.774112 24.614199 42.038921
3962 1321 2 -0.8476 10.680447 25.030681 41.967504
3963 1321 1 0.4238 10.751633 25.527786 41.102739
3964 1322 1 0.4238 45.23049 34.380438 45.718156
3965 1322 2 -0.8476 44.338891 33.927727 45.707913
3966 1322 1 0.4238 44.464631 32.941412 45.814552
3967 1323 1 0.4238 22.39188 43.573866 6.126743
3968 1323 2 -0.8476 22.086564 43.247453 5.232183
3969 1323 1 0.4238 22.782416 42.644424 4.842124
3970 1324 1 0.4238 7.490288 34.331804 28.550584
3971 1324 2 -0.8476 8.42939 34.672882 28.508706
3972 1324 1 0.4238 8.837733 34.637804 29.42086
3973 1325 1 0.4238 42.863521 43.060401 43.703239
3974 1325 2 -0.8476 42.496235 43.78374 43.118532
3975 1325 1 0.4238 43.237927 44.391136 42.833992
3976 1326 1 0.4238 24.352805 28.884996 24.182016
3977 1326 2 -0.8476 23.669055 28.728972 23.469176
3978 1326 1 0.4238 22.803166 29.149487 23.740104
3979 1327 1 0.4238 3.533961 28.224409 6.797315
3980 1327 2 -0.8476 4.081319 27.777997 7.50521
3981 1327 1 0.4238 4.06784 26.78834 7.362387
3982 1328 1 0.4238 4.635101 9.785562 7.749953
3983 1328 2 -0.8476 3.737058 9.455193 8.040425
3984 1328 1 0.4238 3.111049 10.229479 8.133136
3985 1329 1 0.4238 16.846674 23.679894 42.21213
3986 1329 2 -0.8476 17.701058 23.384022 41.784943
3987 1329 1 0.4238 18.202332 24.183366 41.453624
3988 1330 1 0.4238 48.135857 23.151423 48.139271
3989 1330 2 -0.8476 48.177722 24.138146 47.982347
3990 1330 1 0.4238 48.177582 24.319553 46.998939
3991 1331 1 0.4238 1.500428 25.087397 36.3611
3992 1331 2 -0.8476 1.976582 24.39781 35.815437
3993 1331 1 0.4238 2.884815 24.236164 36.201418
3994 1332 1 0.4238 31.5274 10.47265 35.901151
3995 1332 2 -0.8476 31.46529 11.463343 36.022269
3996 1332 1 0.4238 31.197298 11.88867 35.157817
3997 1333 1 0.4238 2.237158 40.344168 14.80157
3998 1333 2 -0.8476 1.499985 40.567256 15.439385
3999 1333 1 0.4238 1.884921 40.994787 16.257334
4000 1334 1 0.4238 8.522937 8.02215 7.675383
4001 1334 2 -0.8476 9.196513 8.230591 6.966265
4002 1334 1 0.4238 9.923313 7.543992 6.984776
4003 1335 1 0.4238 38.401896 26.470888 1.499999
4004 1335 2 -0.8476 39.32219 26.143574 1.714297
4005 1335 1 0.4238 39.50737 26.282811 2.687087
4006 1336 1 0.4238 48.178023 32.95421 34.526891
4007 1336 2 -0.8476 48.125027 33.95235 34.49673
4008 1336 1 0.4238 47.862358 34.299541 35.396987
4009 1337 1 0.4238 31.792022 1.556837 32.873781
4010 1337 2 -0.8476 32.649774 1.557803 33.387844
4011 1337 1 0.4238 33.419467 1.5 32.752052
4012 1338 1 0.4238 24.580343 29.38629 35.947592
4013 1338 2 -0.8476 23.685484 29.788393 36.141345
4014 1338 1 0.4238 23.338535 29.427983 37.007215
4015 1339 1 0.4238 6.060375 26.685949 43.137851
4016 1339 2 -0.8476 6.312067 27.143867 42.285229
4017 1339 1 0.4238 5.785803 27.989164 42.192933
4018 1340 1 0.4238 8.877542 11.562458 33.587008
4019 1340 2 -0.8476 9.139644 10.641702 33.298024
4020 1340 1 0.4238 8.443662 10.275427 32.680406
4021 1341 1 0.4238 23.332835 43.827901 38.52744
4022 1341 2 -0.8476 23.59459 44.466575 39.251028
4023 1341 1 0.4238 22.980239 44.355248 40.032168
4024 1342 1 0.4238 35.417934 19.146583 27.41442
4025 1342 2 -0.8476 34.467837 19.450345 27.343391
4026 1342 1 0.4238 34.414998 20.428906 27.542451
4027 1343 1 0.4238 37.890512 32.408335 27.522445
4028 1343 2 -0.8476 38.631541 32.275963 26.864149
4029 1343 1 0.4238 38.281712 32.410285 25.937016
4030 1344 1 0.4238 36.464394 28.274914 13.77258
4031 1344 2 -0.8476 35.781611 29.00366 13.720259
4032 1344 1 0.4238 34.949497 28.650694 13.292471
4033 1345 1 0.4238 1.499999 22.729725 11.192804
4034 1345 2 -0.8476 1.900386 23.619497 10.973724
4035 1345 1 0.4238 1.499999 24.319788 11.564725
4036 1346 1 0.4238 3.729292 18.384596 42.16553
4037 1346 2 -0.8476 3.754851 18.577074 41.184561
4038 1346 1 0.4238 3.996838 17.743738 40.687577
4039 1347 1 0.4238 21.753324 26.288524 36.220897
4040 1347 2 -0.8476 22.57091 26.721412 36.600582
4041 1347 1 0.4238 23.20774 26.937709 35.86054
4042 1348 1 0.4238 32.371444 42.776062 5.399354
4043 1348 2 -0.8476 31.824253 42.176894 4.814906
4044 1348 1 0.4238 32.351397 41.933298 4.000793
4045 1349 1 0.4238 39.139313 25.605364 40.028169
4046 1349 2 -0.8476 38.148506 25.529362 40.140089
4047 1349 1 0.4238 37.931318 24.677788 40.617217
4048 1350 1 0.4238 34.423544 35.855637 19.975615
4049 1350 2 -0.8476 35.296667 35.932415 20.457031
4050 1350 1 0.4238 35.509626 35.062504 20.901894
4051 1351 1 0.4238 12.185373 47.238867 35.786663
4052 1351 2 -0.8476 11.81012 48.165707 35.774267
4053 1351 1 0.4238 10.970201 48.178013 35.231696
4054 1352 1 0.4238 44.765955 46.679012 11.893319
4055 1352 2 -0.8476 43.978211 46.140192 12.191867
4056 1352 1 0.4238 43.378096 46.710009 12.753268
4057 1353 1 0.4238 8.907238 43.36578 41.7765
4058 1353 2 -0.8476 8.10098 43.029889 42.263455
4059 1353 1 0.4238 7.68274 42.285937 41.742293
4060 1354 1 0.4238 14.831313 23.011762 6.808433
4061 1354 2 -0.8476 14.093845 23.666868 6.972678
4062 1354 1 0.4238 14.477348 24.516782 7.334025
4063 1355 1 0.4238 17.607277 39.450712 39.978284
4064 1355 2 -0.8476 17.423263 39.671393 39.020454
4065 1355 1 0.4238 18.164881 40.237395 38.660394
4066 1356 1 0.4238 29.172999 29.934168 26.509869
4067 1356 2 -0.8476 29.891341 29.312082 26.821308
4068 1356 1 0.4238 30.007614 29.40558 27.810114
4069 1357 1 0.4238 1.499902 45.196634 7.106587
4070 1357 2 -0.8476 1.598614 44.495795 6.400131
4071 1357 1 0.4238 2.548028 44.183105 6.371185
4072 1358 1 0.4238 30.481237 23.499037 12.064971
4073 1358 2 -0.8476 29.661713 23.799917 12.552672
4074 1358 1 0.4238 29.87409 24.616728 13.089064
4075 1359 1 0.4238 6.358417 44.055322 25.891182
4076 1359 2 -0.8476 5.640088 44.433014 26.475436
4077 1359 1 0.4238 5.231571 43.699103 27.018103
4078 1360 1 0.4238 19.159533 32.113682 14.227641
4079 1360 2 -0.8476 19.265265 33.062147 13.928919
4080 1360 1 0.4238 18.362993 33.471585 13.793764
4081 1361 1 0.4238 7.904809 33.010054 7.632279
4082 1361 2 -0.8476 7.101129 32.575861 8.039188
4083 1361 1 0.4238 7.09234 31.603974 7.803906
4084 1362 1 0.4238 11.053865 2.826193 8.777009
4085 1362 2 -0.8476 11.947191 2.493718 8.474638
4086 1362 1 0.4238 11.914262 1.5 8.367678
4087 1363 1 0.4238 1.499945 39.5816 35.354837
4088 1363 2 -0.8476 1.613189 38.732369 34.839102
4089 1363 1 0.4238 2.585582 38.573146 34.668516
4090 1364 1 0.4238 17.965168 1.5 28.253009
4091 1364 2 -0.8476 17.855145 1.728826 27.285779
4092 1364 1 0.4238 18.693869 1.5 26.791632
4093 1365 1 0.4238 18.64404 30.119322 17.400914
4094 1365 2 -0.8476 19.220449 30.915343 17.585584
4095 1365 1 0.4238 19.029568 31.628715 16.911295
4096 1366 1 0.4238 9.083944 43.345049 35.730165
4097 1366 2 -0.8476 9.937764 42.876944 35.957913
4098 1366 1 0.4238 9.745024 41.920943 36.179077
4099 1367 1 0.4238 30.552146 43.114046 13.604942
4100 1367 2 -0.8476 29.777047 43.62285 13.97956
4101 1367 1 0.4238 29.997469 43.93278 14.904416
4102 1368 1 0.4238 6.963216 17.712256 34.381684
4103 1368 2 -0.8476 7.887304 17.617514 34.751934
4104 1368 1 0.4238 8.235581 18.517737 35.013281
4105 1369 1 0.4238 14.324284 39.840009 32.509107
4106 1369 2 -0.8476 13.349598 39.957452 32.318855
4107 1369 1 0.4238 13.148963 40.929211 32.194645
4108 1370 1 0.4238 44.514844 3.317215 32.679882
4109 1370 2 -0.8476 45.325591 3.566234 32.150091
4110 1370 1 0.4238 45.044049 3.993898 31.291117
4111 1371 1 0.4238 25.255604 22.132235 6.370196
4112 1371 2 -0.8476 24.679596 22.44771 7.124311
4113 1371 1 0.4238 25.21558 23.036399 7.729427
4114 1372 1 0.4238 17.093374 26.998868 9.306709
4115 1372 2 -0.8476 16.757619 27.572364 8.559467
4116 1372 1 0.4238 15.986438 27.119322 8.112218
4117 1373 1 0.4238 39.873796 14.700378 16.567421
4118 1373 2 -0.8476 39.964511 15.675648 16.365874
4119 1373 1 0.4238 40.897217 15.972868 16.570127
4120 1374 1 0.4238 7.42007 32.715967 30.771247
4121 1374 2 -0.8476 6.774946 32.601402 31.526687
4122 1374 1 0.4238 7.055462 31.823906 32.089546
4123 1375 1 0.4238 34.720761 43.113492 26.288182
4124 1375 2 -0.8476 34.592924 43.775903 25.550029
4125 1375 1 0.4238 34.665848 43.310316 24.668037
4126 1376 1 0.4238 6.36103 41.584255 33.170244
4127 1376 2 -0.8476 6.957242 42.382741 33.086869
4128 1376 1 0.4238 7.722366 42.295483 33.724811
4129 1377 1 0.4238 35.944463 23.506205 20.417476
4130 1377 2 -0.8476 35.794612 24.474102 20.619271
4131 1377 1 0.4238 35.564461 24.958775 19.775398
4132 1378 1 0.4238 28.444353 40.512436 3.822206
4133 1378 2 -0.8476 29.156663 41.21427 3.81555
4134 1378 1 0.4238 30.053373 40.778364 3.738766
4135 1379 1 0.4238 35.032577 23.801463 28.400488
4136 1379 2 -0.8476 35.634404 24.445767 27.928601
4137 1379 1 0.4238 35.090455 25.196218 27.553178
4138 1380 1 0.4238 21.452121 7.070961 3.415493
4139 1380 2 -0.8476 20.592144 7.30057 3.871254
4140 1380 1 0.4238 20.175229 6.467782 4.235461
4141 1381 1 0.4238 33.809373 3.881657 14.870902
4142 1381 2 -0.8476 34.268902 4.761179 14.99449
4143 1381 1 0.4238 35.257904 4.618135 15.032102
4144 1382 1 0.4238 21.339124 43.095805 2.851366
4145 1382 2 -0.8476 20.411091 43.010867 2.488679
4146 1382 1 0.4238 20.45183 42.709945 1.535901
4147 1383 1 0.4238 19.945965 16.387922 4.070265
4148 1383 2 -0.8476 19.556424 17.210304 3.655603
4149 1383 1 0.4238 20.283422 17.739141 3.217648
4150 1384 1 0.4238 1.801497 21.15505 38.280045
4151 1384 2 -0.8476 1.5 21.499221 37.390862
4152 1384 1 0.4238 1.536787 22.498543 37.390337
4153 1385 1 0.4238 44.364159 26.468331 22.127072
4154 1385 2 -0.8476 45.20226 26.868502 21.756329
4155 1385 1 0.4238 45.568225 27.535872 22.404932
4156 1386 1 0.4238 17.572495 13.30973 4.696492
4157 1386 2 -0.8476 17.282057 13.772167 3.858758
4158 1386 1 0.4238 17.777079 14.636099 3.766161
4159 1387 1 0.4238 48.178 45.517191 16.702245
4160 1387 2 -0.8476 48.119178 45.710892 15.722949
4161 1387 1 0.4238 48.178006 44.854672 15.209699
4162 1388 1 0.4238 13.405775 16.536732 1.52638
4163 1388 2 -0.8476 12.599917 16.342149 2.085602
4164 1388 1 0.4238 11.790521 16.298234 1.499984
4165 1389 1 0.4238 1.836759 35.437436 22.809514
4166 1389 2 -0.8476 1.778173 34.45706 22.997744
4167 1389 1 0.4238 2.69564 34.059507 22.983464
4168 1390 1 0.4238 7.863962 19.197943 18.29052
4169 1390 2 -0.8476 6.987762 18.901352 17.910643
4170 1390 1 0.4238 6.495808 18.358794 18.591533
4171 1391 1 0.4238 45.508546 17.806558 12.774992
4172 1391 2 -0.8476 44.525466 17.667973 12.65521
4173 1391 1 0.4238 44.369278 16.998559 11.928926
4174 1392 1 0.4238 10.996297 21.852615 26.053777
4175 1392 2 -0.8476 10.284164 22.377015 26.520544
4176 1392 1 0.4238 10.544206 23.342251 26.546955
4177 1393 1 0.4238 39.117489 44.792181 16.171766
4178 1393 2 -0.8476 38.928324 43.869505 16.507751
4179 1393 1 0.4238 37.948499 43.682995 16.43595
4180 1394 1 0.4238 42.792365 30.142526 13.25179
4181 1394 2 -0.8476 42.384952 29.560101 12.548373
4182 1394 1 0.4238 43.002171 29.503874 11.763594
4183 1395 1 0.4238 35.300182 10.536455 1.499903
4184 1395 2 -0.8476 35.07992 11.511544 1.526106
4185 1395 1 0.4238 34.09464 11.627431 1.651776
4186 1396 1 0.4238 38.169276 23.996411 44.727171
4187 1396 2 -0.8476 38.175712 22.996463 44.7192
4188 1396 1 0.4238 37.241834 22.658043 44.603688
4189 1397 1 0.4238 31.279389 37.98119 21.191225
4190 1397 2 -0.8476 30.972668 38.93184 21.14447
4191 1397 1 0.4238 31.708086 39.501702 20.77784
4192 1398 1 0.4238 28.129492 1.499997 41.718231
4193 1398 2 -0.8476 27.203406 1.697082 42.039978
4194 1398 1 0.4238 26.717566 2.23282 41.349367
4195 1399 1 0.4238 3.833199 46.089984 1.499932
4196 1399 2 -0.8476 4.450409 46.876782 1.499945
4197 1399 1 0.4238 5.39794 46.557117 1.49954
4198 1400 1 0.4238 25.467269 15.985807 4.709807
4199 1400 2 -0.8476 25.420681 16.276984 3.754272
4200 1400 1 0.4238 24.493753 16.134379 3.407186
4201 1401 1 0.4238 35.094609 23.241097 17.300901
4202 1401 2 -0.8476 34.53433 23.051562 18.107228
4203 1401 1 0.4238 33.668758 22.639706 17.822343
4204 1402 1 0.4238 4.082293 1.499988 12.496327
4205 1402 2 -0.8476 3.658321 2.379768 12.711348
4206 1402 1 0.4238 4.094912 2.771026 13.521475
4207 1403 1 0.4238 38.957443 17.649781 40.562001
4208 1403 2 -0.8476 38.116181 17.415077 41.049026
4209 1403 1 0.4238 37.464481 18.16956 40.971295
4210 1404 1 0.4238 21.838427 9.505611 3.83173
4211 1404 2 -0.8476 21.354525 10.332007 4.119668
4212 1404 1 0.4238 20.391348 10.261774 3.860133
4213 1405 1 0.4238 34.732611 25.962477 36.213076
4214 1405 2 -0.8476 34.929482 26.938547 36.120724
4215 1405 1 0.4238 35.280708 27.291252 36.988041
4216 1406 1 0.4238 2.341581 2.896643 34.807216
4217 1406 2 -0.8476 1.570494 2.500181 34.308976
4218 1406 1 0.4238 1.531225 1.516336 34.483638
4219 1407 1 0.4238 9.421463 37.445152 37.616296
4220 1407 2 -0.8476 9.11511 36.618346 38.088036
4221 1407 1 0.4238 8.455589 36.864763 38.798184
4222 1408 1 0.4238 11.171239 22.516707 43.511679
4223 1408 2 -0.8476 10.387799 22.069794 43.943525
4224 1408 1 0.4238 9.570655 22.218219 43.386527
4225 1409 1 0.4238 43.692584 3.928056 5.456996
4226 1409 2 -0.8476 43.925656 4.782632 4.992907
4227 1409 1 0.4238 43.38108 4.868086 4.158561
4228 1410 1 0.4238 38.0069 21.69722 4.393014
4229 1410 2 -0.8476 38.424196 21.132934 5.105367
4230 1410 1 0.4238 39.41012 21.298716 5.127041
4231 1411 1 0.4238 4.226367 41.823218 15.126213
4232 1411 2 -0.8476 4.610482 41.117934 14.530369
4233 1411 1 0.4238 4.844011 40.312418 15.074986
4234 1412 1 0.4238 1.509835 35.821741 1.500766
4235 1412 2 -0.8476 2.049567 34.981052 1.544722
4236 1412 1 0.4238 1.507623 34.259139 1.974998
4237 1413 1 0.4238 4.372387 45.730941 28.195403
4238 1413 2 -0.8476 4.511213 45.138675 28.989095
4239 1413 1 0.4238 5.490926 45.002163 29.135816
4240 1414 1 0.4238 29.626008 8.115269 40.359032
4241 1414 2 -0.8476 30.533267 8.448203 40.102056
4242 1414 1 0.4238 30.809394 8.029236 39.237059
4243 1415 1 0.4238 18.263401 44.130226 23.089591
4244 1415 2 -0.8476 19.00366 44.734745 23.383825
4245 1415 1 0.4238 19.371289 44.411516 24.255818
4246 1416 1 0.4238 31.85028 28.185357 1.499992
4247 1416 2 -0.8476 32.8385 28.338103 1.509476
4248 1416 1 0.4238 33.023742 29.320616 1.528263
4249 1417 1 0.4238 36.268055 39.627878 1.672876
4250 1417 2 -0.8476 36.261727 39.895584 2.636356
4251 1417 1 0.4238 35.342066 40.192067 2.893884
4252 1418 1 0.4238 24.934806 39.091751 37.721858
4253 1418 2 -0.8476 24.35946 39.893492 37.560031
4254 1418 1 0.4238 24.937732 40.681747 37.34966
4255 1419 1 0.4238 30.052069 16.65014 38.361453
4256 1419 2 -0.8476 30.467445 15.939876 38.929774
4257 1419 1 0.4238 30.227506 16.096834 39.887789
4258 1420 1 0.4238 22.39484 15.714257 38.827142
4259 1420 2 -0.8476 22.858503 14.841761 38.981307
4260 1420 1 0.4238 22.177923 14.116804 39.087364
4261 1421 1 0.4238 43.85193 32.090018 6.069776
4262 1421 2 -0.8476 43.809167 32.003244 7.065086
4263 1421 1 0.4238 44.126247 32.852318 7.487618
4264 1422 1 0.4238 17.53211 45.052319 44.561567
4265 1422 2 -0.8476 17.43467 45.539205 43.693553
4266 1422 1 0.4238 16.531224 45.965711 43.650211
4267 1423 1 0.4238 41.143289 6.49109 5.249248
4268 1423 2 -0.8476 41.676538 6.145858 6.021556
4269 1423 1 0.4238 41.539686 6.740813 6.813579
4270 1424 1 0.4238 24.303932 24.582325 5.171726
4271 1424 2 -0.8476 25.064314 24.923584 5.724322
4272 1424 1 0.4238 24.705968 25.447538 6.497019
4273 1425 1 0.4238 35.838239 9.701266 38.826736
4274 1425 2 -0.8476 36.8068 9.739213 39.072601
4275 1425 1 0.4238 37.219431 8.837742 38.941889
4276 1426 1 0.4238 6.661815 5.754819 22.890773
4277 1426 2 -0.8476 6.61312 6.752166 22.944874
4278 1426 1 0.4238 6.555255 7.133586 22.022285
4279 1427 1 0.4238 28.908087 48.178009 5.323259
4280 1427 2 -0.8476 28.960945 47.931615 6.290986
4281 1427 1 0.4238 29.8616 48.177961 6.648943
4282 1428 1 0.4238 6.714036 45.320484 37.140091
4283 1428 2 -0.8476 7.631687 44.958142 37.303265
4284 1428 1 0.4238 8.02661 45.400927 38.108236
4285 1429 1 0.4238 8.367185 29.140902 36.265787
4286 1429 2 -0.8476 7.860949 28.365467 36.643182
4287 1429 1 0.4238 8.368409 27.97921 37.413435
4288 1430 1 0.4238 15.555572 18.046495 33.502319
4289 1430 2 -0.8476 14.608367 18.361894 33.444646
4290 1430 1 0.4238 14.524617 19.249863 33.896858
4291 1431 1 0.4238 6.860784 38.802018 41.433422
4292 1431 2 -0.8476 7.772 38.96577 41.055439
4293 1431 1 0.4238 7.797463 39.868564 40.62612
4294 1432 1 0.4238 45.802996 14.709551 48.149376
4295 1432 2 -0.8476 45.161208 13.94277 48.161793
4296 1432 1 0.4238 44.224459 14.292392 48.178103
4297 1433 1 0.4238 15.67181 39.02867 22.136783
4298 1433 2 -0.8476 16.562209 39.2058 21.71748
4299 1433 1 0.4238 16.661157 38.64472 20.895654
4300 1434 1 0.4238 48.151355 10.976299 36.002344
4301 1434 2 -0.8476 47.840124 11.037485 35.053982
4302 1434 1 0.4238 48.178059 10.248586 34.54072
4303 1435 1 0.4238 39.868369 8.709437 4.457364
4304 1435 2 -0.8476 39.434748 9.610455 4.445523
4305 1435 1 0.4238 38.440696 9.50188 4.437087
4306 1436 1 0.4238 21.830078 46.683613 1.498311
4307 1436 2 -0.8476 21.010852 46.181885 1.776048
4308 1436 1 0.4238 21.117411 45.215059 1.543903
4309 1437 1 0.4238 12.351707 32.564347 15.390777
4310 1437 2 -0.8476 11.509616 32.209216 15.79669
4311 1437 1 0.4238 11.52182 31.209684 15.768667
4312 1438 1 0.4238 17.335734 24.708021 31.724919
4313 1438 2 -0.8476 18.021522 23.980869 31.694166
4314 1438 1 0.4238 17.563932 23.092283 31.662117
4315 1439 1 0.4238 39.560138 18.566427 11.500789
4316 1439 2 -0.8476 40.221948 19.286865 11.708099
4317 1439 1 0.4238 41.103871 18.873937 11.935476
4318 1440 1 0.4238 13.485259 15.251285 48.178001
4319 1440 2 -0.8476 12.944534 14.458559 47.896572
4320 1440 1 0.4238 11.980753 14.620186 48.10871
4321 1441 1 0.4238 10.415401 6.640584 10.348475
4322 1441 2 -0.8476 9.694743 6.640857 9.655185
4323 1441 1 0.4238 8.828478 6.911697 10.074983
4324 1442 1 0.4238 39.574739 20.989722 43.223899
4325 1442 2 -0.8476 39.593727 19.99298 43.145516
4326 1442 1 0.4238 39.151318 19.717259 42.292139
4327 1443 1 0.4238 26.996526 15.014844 29.076926
4328 1443 2 -0.8476 26.532711 14.266757 28.602331
4329 1443 1 0.4238 26.491544 14.467655 27.623584
4330 1444 1 0.4238 22.532793 5.882179 1.500065
4331 1444 2 -0.8476 23.477769 5.628914 1.707133
4332 1444 1 0.4238 24.082084 6.398244 1.499927
4333 1445 1 0.4238 12.267595 19.867219 6.778742
4334 1445 2 -0.8476 12.997202 20.531738 6.617229
4335 1445 1 0.4238 12.633458 21.457589 6.719651
4336 1446 1 0.4238 29.848891 6.999568 46.427848
4337 1446 2 -0.8476 30.58128 7.578546 46.069532
4338 1446 1 0.4238 31.31829 7.002824 45.715469
4339 1447 1 0.4238 20.883665 43.399803 12.936026
4340 1447 2 -0.8476 20.211334 43.482514 12.200411
4341 1447 1 0.4238 20.113368 44.444367 11.944989
4342 1448 1 0.4238 8.423121 43.297318 10.967746
4343 1448 2 -0.8476 9.132105 43.022679 10.318197
4344 1448 1 0.4238 8.927799 43.408958 9.418726
4345 1449 1 0.4238 2.356802 17.202617 44.391942
4346 1449 2 -0.8476 1.499938 16.697781 44.287415
4347 1449 1 0.4238 1.698875 15.725788 44.162304
4348 1450 1 0.4238 39.448064 3.90089 24.925768
4349 1450 2 -0.8476 39.902912 3.54618 25.742649
4350 1450 1 0.4238 40.893545 3.56548 25.607466
4351 1451 1 0.4238 26.276551 24.81244 3.538996
4352 1451 2 -0.8476 27.137504 24.406231 3.84519
4353 1451 1 0.4238 27.904066 24.917879 3.457119
4354 1452 1 0.4238 4.152042 16.436159 14.04208
4355 1452 2 -0.8476 3.946562 16.882923 14.912815
4356 1452 1 0.4238 4.132705 17.86251 14.836923
4357 1453 1 0.4238 28.340564 26.259878 5.555773
4358 1453 2 -0.8476 29.26072 26.255421 5.164246
4359 1453 1 0.4238 29.638015 25.330468 5.210169
4360 1454 1 0.4238 47.805718 1.499994 16.458443
4361 1454 2 -0.8476 46.898368 1.916868 16.404295
4362 1454 1 0.4238 46.384741 1.501003 15.653799
4363 1455 1 0.4238 18.505595 23.986052 14.067581
4364 1455 2 -0.8476 17.673708 23.67204 14.52514
4365 1455 1 0.4238 17.182769 23.039015 13.926594
4366 1456 1 0.4238 5.299131 25.272937 48.173078
4367 1456 2 -0.8476 5.603355 24.320427 48.15999
4368 1456 1 0.4238 4.80663 23.71616 48.150442
4369 1457 1 0.4238 27.302758 24.369111 27.539645
4370 1457 2 -0.8476 26.960904 23.435144 27.43552
4371 1457 1 0.4238 27.709937 22.835515 27.15375
4372 1458 1 0.4238 28.737032 35.462512 1.541268
4373 1458 2 -0.8476 27.899345 35.616667 2.065212
4374 1458 1 0.4238 27.974806 35.165885 2.954651
4375 1459 1 0.4238 1.499802 33.495507 5.199226
4376 1459 2 -0.8476 1.684738 34.030743 6.023436
4377 1459 1 0.4238 2.234209 33.486898 6.657718
4378 1460 1 0.4238 48.17801 3.946456 1.49999
4379 1460 2 -0.8476 47.791455 4.695444 2.038126
4380 1460 1 0.4238 46.979993 5.053507 1.57626
4381 1461 1 0.4238 16.638144 9.203816 9.070711
4382 1461 2 -0.8476 17.256595 8.517491 8.687989
4383 1461 1 0.4238 17.252351 8.584402 7.690239
4384 1462 1 0.4238 36.668846 15.748399 12.227879
4385 1462 2 -0.8476 36.402151 16.711558 12.193256
4386 1462 1 0.4238 37.21873 17.280152 12.093762
4387 1463 1 0.4238 48.178011 14.034351 28.382418
4388 1463 2 -0.8476 47.613041 13.214079 28.471658
4389 1463 1 0.4238 48.178031 12.453353 28.791163
4390 1464 1 0.4238 19.133615 16.165708 18.169557
4391 1464 2 -0.8476 19.839294 15.491938 18.388764
4392 1464 1 0.4238 19.483403 14.57164 18.226309
4393 1465 1 0.4238 19.345666 45.9182 33.039153
4394 1465 2 -0.8476 20.18701 45.722082 32.535488
4395 1465 1 0.4238 20.200152 44.757737 32.271166
4396 1466 1 0.4238 9.244165 39.935211 3.730576
4397 1466 2 -0.8476 9.157099 40.875236 3.40077
4398 1466 1 0.4238 8.405125 41.328194 3.879689
4399 1467 1 0.4238 10.489552 39.74235 15.751679
4400 1467 2 -0.8476 10.473658 40.740521 15.693355
4401 1467 1 0.4238 9.545571 41.047338 15.482365
4402 1468 1 0.4238 15.095182 25.617274 43.042055
4403 1468 2 -0.8476 15.791348 26.331627 43.113146
4404 1468 1 0.4238 15.347839 27.227364 43.144036
4405 1469 1 0.4238 47.575921 41.42387 24.810999
4406 1469 2 -0.8476 48.178078 40.638964 24.957045
4407 1469 1 0.4238 47.626086 39.820582 25.116905
4408 1470 1 0.4238 4.941517 21.236449 47.256165
4409 1470 2 -0.8476 4.62598 21.011383 48.178001
4410 1470 1 0.4238 3.745621 20.540251 48.12321
4411 1471 1 0.4238 1.669304 10.652821 29.352191
4412 1471 2 -0.8476 1.499986 11.449201 29.932803
4413 1471 1 0.4238 2.361199 11.929352 30.099435
4414 1472 1 0.4238 23.234223 37.38232 25.284705
4415 1472 2 -0.8476 22.645535 37.814367 24.601491
4416 1472 1 0.4238 22.359199 37.132033 23.92886
4417 1473 1 0.4238 8.563691 26.789555 44.238898
4418 1473 2 -0.8476 8.802721 26.820511 43.26838
4419 1473 1 0.4238 9.685949 27.276034 43.157002
4420 1474 1 0.4238 16.887378 22.790881 8.575794
4421 1474 2 -0.8476 17.365985 22.714367 9.450483
4422 1474 1 0.4238 16.890898 22.055625 10.033879
4423 1475 1 0.4238 9.190747 32.045315 28.649735
4424 1475 2 -0.8476 9.946535 31.507062 28.276815
4425 1475 1 0.4238 10.355717 30.95764 29.00531
4426 1476 1 0.4238 48.172271 30.466297 46.766079
4427 1476 2 -0.8476 47.633743 30.228509 47.574438
4428 1476 1 0.4238 48.178059 29.645919 48.178018
4429 1477 1 0.4238 4.327628 45.591861 42.343313
4430 1477 2 -0.8476 4.900753 45.529825 43.16043
4431 1477 1 0.4238 5.601361 44.829488 43.023768
4432 1478 1 0.4238 18.718976 35.270337 15.837856
4433 1478 2 -0.8476 19.319972 35.022458 16.597698
4434 1478 1 0.4238 19.812867 34.182059 16.372346
4435 1479 1 0.4238 35.931818 7.479846 43.807046
4436 1479 2 -0.8476 36.348327 6.61822 44.097082
4437 1479 1 0.4238 37.341787 6.725121 44.137201
4438 1480 1 0.4238 29.991486 24.445711 27.420277
4439 1480 2 -0.8476 29.77876 24.912681 26.561972
4440 1480 1 0.4238 29.654847 24.236005 25.836192
4441 1481 1 0.4238 39.367753 39.172362 24.511324
4442 1481 2 -0.8476 38.47189 38.898005 24.860835
4443 1481 1 0.4238 38.178428 38.058593 24.403377
4444 1482 1 0.4238 34.532028 17.583583 25.339455
4445 1482 2 -0.8476 35.323152 16.976896 25.26165
4446 1482 1 0.4238 35.378832 16.619677 24.329291
4447 1483 1 0.4238 46.304493 27.308809 34.384898
4448 1483 2 -0.8476 46.804599 28.160148 34.543378
4449 1483 1 0.4238 46.803084 28.370568 35.520987
4450 1484 1 0.4238 42.043529 7.51696 3.154748
4451 1484 2 -0.8476 42.677936 7.11383 2.495193
4452 1484 1 0.4238 42.288414 7.177303 1.576366
4453 1485 1 0.4238 4.96476 26.600653 10.914497
4454 1485 2 -0.8476 4.992599 26.589368 11.914045
4455 1485 1 0.4238 4.745451 25.678337 12.244107
4456 1486 1 0.4238 18.807716 9.327513 20.525012
4457 1486 2 -0.8476 19.261993 8.867828 19.761912
4458 1486 1 0.4238 20.213518 8.679454 20.005046
4459 1487 1 0.4238 32.105552 31.551315 38.034904
4460 1487 2 -0.8476 32.598998 32.324149 37.635856
4461 1487 1 0.4238 33.277856 31.985569 36.984308
4462 1488 1 0.4238 16.541631 19.339535 10.0522
4463 1488 2 -0.8476 15.61702 19.64023 10.286032
4464 1488 1 0.4238 14.976035 18.885226 10.147804
4465 1489 1 0.4238 15.670165 8.447268 15.496598
4466 1489 2 -0.8476 16.49911 8.018215 15.137761
4467 1489 1 0.4238 16.644313 7.140299 15.594026
4468 1490 1 0.4238 18.736433 42.556406 9.075075
4469 1490 2 -0.8476 18.518963 43.524373 8.949596
4470 1490 1 0.4238 17.552246 43.620807 8.712617
4471 1491 1 0.4238 39.431941 46.718437 25.023212
4472 1491 2 -0.8476 40.093347 47.464523 24.946408
4473 1491 1 0.4238 39.873236 48.175186 25.614621
4474 1492 1 0.4238 24.982569 5.352581 14.752047
4475 1492 2 -0.8476 25.217213 5.633961 15.682513
4476 1492 1 0.4238 25.504527 4.834488 16.210048
4477 1493 1 0.4238 21.370598 13.232406 43.1908
4478 1493 2 -0.8476 21.168782 12.254421 43.243858
4479 1493 1 0.4238 20.266752 12.122038 43.654731
4480 1494 1 0.4238 10.696324 22.659093 48.177951
4481 1494 2 -0.8476 10.63621 22.879405 47.204375
4482 1494 1 0.4238 11.283598 22.3134 46.693959
4483 1495 1 0.4238 10.544697 48.178202 37.930282
4484 1495 2 -0.8476 10.02251 47.346361 38.118328
4485 1495 1 0.4238 9.153142 47.588762 38.548957
4486 1496 1 0.4238 3.652893 40.519685 10.214945
4487 1496 2 -0.8476 4.072953 41.426792 10.18837
4488 1496 1 0.4238 4.396366 41.617318 9.261492
4489 1497 1 0.4238 20.959825 27.893522 17.990507
4490 1497 2 -0.8476 20.037927 27.957988 18.372537
4491 1497 1 0.4238 19.390173 27.507937 17.757828
4492 1498 1 0.4238 6.503609 27.044208 34.265876
4493 1498 2 -0.8476 6.159925 26.706114 33.389763
4494 1498 1 0.4238 6.712838 25.927564 33.092865
4495 1499 1 0.4238 13.269848 45.39705 26.11695
4496 1499 2 -0.8476 13.544596 45.950893 26.902935
4497 1499 1 0.4238 12.739031 46.393808 27.296498
4498 1500 1 0.4238 39.763356 47.687157 8.83631
4499 1500 2 -0.8476 39.391614 47.916041 7.936632
4500 1500 1 0.4238 40.137721 48.178019 7.324513
4501 1501 1 0.4238 33.194341 5.501258 17.44705
4502 1501 2 -0.8476 32.747437 4.712089 17.025756
4503 1501 1 0.4238 32.801675 3.928568 17.644749
4504 1502 1 0.4238 41.721897 28.773379 30.100767
4505 1502 2 -0.8476 40.816139 29.177905 30.227101
4506 1502 1 0.4238 40.14811 28.453264 30.396313
4507 1503 1 0.4238 31.161896 48.171666 42.689082
4508 1503 2 -0.8476 31.210074 47.751992 41.782687
4509 1503 1 0.4238 30.533775 48.178014 41.18175
4510 1504 1 0.4238 26.706775 14.790231 44.090481
4511 1504 2 -0.8476 27.062727 15.723912 44.051251
4512 1504 1 0.4238 26.31039 16.36061 43.882123
4513 1505 1 0.4238 11.353513 15.689801 29.32104
4514 1505 2 -0.8476 10.404913 16.004096 29.283927
4515 1505 1 0.4238 10.369624 16.982275 29.488668
4516 1506 1 0.4238 31.536806 3.707668 26.89851
4517 1506 2 -0.8476 32.312645 3.776766 27.525646
4518 1506 1 0.4238 33.151097 3.930812 27.002897
4519 1507 1 0.4238 17.696997 43.468517 17.228631
4520 1507 2 -0.8476 16.905133 43.484902 17.839109
4521 1507 1 0.4238 16.853943 42.621986 18.341857
4522 1508 1 0.4238 26.204262 48.170231 25.718045
4523 1508 2 -0.8476 25.214872 48.177608 25.572952
4524 1508 1 0.4238 24.7908 47.464509 26.131211
4525 1509 1 0.4238 19.327464 29.085947 28.220141
4526 1509 2 -0.8476 19.907383 28.284177 28.075714
4527 1509 1 0.4238 19.490621 27.487998 28.514358
4528 1510 1 0.4238 33.657725 17.769435 1.499995
4529 1510 2 -0.8476 33.388405 16.806387 1.502291
4530 1510 1 0.4238 34.190325 16.236452 1.681456
4531 1511 1 0.4238 22.982926 14.116237 3.702846
4532 1511 2 -0.8476 22.221316 13.669366 4.172161
4533 1511 1 0.4238 22.56199 13.195962 4.984459
4534 1512 1 0.4238 40.498834 25.059177 25.855122
4535 1512 2 -0.8476 39.763437 25.71894 25.700513
4536 1512 1 0.4238 40.156492 26.602986 25.447591
4537 1513 1 0.4238 17.400642 30.659203 26.845188
4538 1513 2 -0.8476 16.961972 30.362447 27.693425
4539 1513 1 0.4238 16.360894 29.586054 27.503901
4540 1514 1 0.4238 31.569659 17.838715 10.026498
4541 1514 2 -0.8476 32.568691 17.837689 10.070483
4542 1514 1 0.4238 32.878108 17.049314 10.602201
4543 1515 1 0.4238 21.82518 28.730926 34.389598
4544 1515 2 -0.8476 21.498677 28.358526 33.520855
4545 1515 1 0.4238 21.677547 27.375091 33.491522
4546 1516 1 0.4238 46.095781 1.66026 25.578254
4547 1516 2 -0.8476 46.495995 1.5 24.675954
4548 1516 1 0.4238 47.493361 1.502854 24.748424
4549 1517 1 0.4238 42.529606 26.857935 1.499989
4550 1517 2 -0.8476 43.021177 27.50322 2.084768
4551 1517 1 0.4238 43.091619 28.386373 1.621004
4552 1518 1 0.4238 23.285144 16.885995 47.828282
4553 1518 2 -0.8476 23.008423 17.810029 48.092073
4554 1518 1 0.4238 22.012866 17.848008 48.178232
4555 1519 1 0.4238 12.044815 9.731608 42.647748
4556 1519 2 -0.8476 11.683259 10.424758 43.271303
4557 1519 1 0.4238 11.436806 11.243534 42.75278
4558 1520 1 0.4238 1.499168 42.736877 46.544192
4559 1520 2 -0.8476 1.765317 43.319279 45.776095
4560 1520 1 0.4238 1.516325 42.87226 44.916923
4561 1521 1 0.4238 22.201085 36.589638 41.377567
4562 1521 2 -0.8476 21.924247 35.941174 42.08669
4563 1521 1 0.4238 22.12873 36.324718 42.98729
4564 1522 1 0.4238 1.499999 21.758574 26.714004
4565 1522 2 -0.8476 2.437934 21.414893 26.667511
4566 1522 1 0.4238 2.448454 20.539037 26.185053
4567 1523 1 0.4238 23.290951 30.089899 32.379605
4568 1523 2 -0.8476 23.275292 29.519858 31.558138
4569 1523 1 0.4238 23.575675 30.059884 30.771918
4570 1524 1 0.4238 22.483636 11.291969 11.271489
4571 1524 2 -0.8476 22.339451 11.792887 12.124889
4572 1524 1 0.4238 21.693865 11.291327 12.700785
4573 1525 1 0.4238 40.700178 42.048201 3.922894
4574 1525 2 -0.8476 41.332718 41.611453 4.562537
4575 1525 1 0.4238 40.818503 41.039334 5.201491
4576 1526 1 0.4238 1.499964 47.969249 26.368296
4577 1526 2 -0.8476 2.043975 48.178176 27.180947
4578 1526 1 0.4238 1.499961 48.000426 28.000979
4579 1527 1 0.4238 6.006168 9.150078 16.333562
4580 1527 2 -0.8476 6.643825 9.858676 16.635691
4581 1527 1 0.4238 6.844713 9.733996 17.607338
4582 1528 1 0.4238 48.163384 42.947532 20.740618
4583 1528 2 -0.8476 48.100507 42.659053 19.785199
4584 1528 1 0.4238 48.118121 41.660385 19.736712
4585 1529 1 0.4238 16.593331 4.572362 14.606742
4586 1529 2 -0.8476 17.364625 3.958605 14.438193
4587 1529 1 0.4238 17.042674 3.142952 13.957509
4588 1530 1 0.4238 41.763082 14.292591 47.740556
4589 1530 2 -0.8476 41.249366 15.124125 47.52926
4590 1530 1 0.4238 40.494895 15.223705 48.177995
4591 1531 1 0.4238 3.689854 16.515668 48.178075
4592 1531 2 -0.8476 3.41032 17.285573 47.604397
4593 1531 1 0.4238 3.254656 18.089589 48.178267
4594 1532 1 0.4238 48.178011 25.116591 44.140908
4595 1532 2 -0.8476 47.590881 25.614091 43.502337
4596 1532 1 0.4238 48.146292 26.246612 42.962489
4597 1533 1 0.4238 14.325892 45.901634 10.201693
4598 1533 2 -0.8476 15.143154 46.401873 10.487779
4599 1533 1 0.4238 15.951864 45.983298 10.074521
4600 1534 1 0.4238 13.448871 1.628508 33.491919
4601 1534 2 -0.8476 13.116862 2.350865 32.885314
4602 1534 1 0.4238 13.046966 3.208296 33.395143
4603 1535 1 0.4238 34.571312 31.525102 14.717669
4604 1535 2 -0.8476 33.830618 30.856061 14.778957
4605 1535 1 0.4238 33.93466 30.319387 15.616307
4606 1536 1 0.4238 16.366898 43.393541 25.609803
4607 1536 2 -0.8476 15.440284 43.0216 25.554612
4608 1536 1 0.4238 14.859671 43.47121 26.233389
4609 1537 1 0.4238 26.419379 8.772702 23.565105
4610 1537 2 -0.8476 25.560617 9.149979 23.91179
4611 1537 1 0.4238 24.793859 8.617203 23.553696
4612 1538 1 0.4238 7.921375 21.453062 35.369065
4613 1538 2 -0.8476 8.808481 21.914071 35.391732
4614 1538 1 0.4238 9.498018 21.33137 34.961616
4615 1539 1 0.4238 5.227116 34.120596 24.445714
4616 1539 2 -0.8476 5.262229 34.43424 23.496823
4617 1539 1 0.4238 6.163509 34.824044 23.307753
4618 1540 1 0.4238 47.450582 37.845054 26.638887
4619 1540 2 -0.8476 46.494442 37.88467 26.348668
4620 1540 1 0.4238 46.066425 38.707449 26.722615
4621 1541 1 0.4238 34.928751 48.178 12.618143
4622 1541 2 -0.8476 35.927375 48.168631 12.669727
4623 1541 1 0.4238 36.251801 47.222764 12.678866
4624 1542 1 0.4238 4.726988 42.74908 12.342378
4625 1542 2 -0.8476 5.725287 42.804073 12.361752
4626 1542 1 0.4238 6.008484 43.758245 12.265031
4627 1543 1 0.4238 9.129679 12.537249 19.069781
4628 1543 2 -0.8476 9.41098 11.581879 19.159988
4629 1543 1 0.4238 8.603529 11.008254 19.297739
4630 1544 1 0.4238 5.851799 37.569402 15.72849
4631 1544 2 -0.8476 6.204259 37.231823 16.601309
4632 1544 1 0.4238 5.806899 36.335243 16.796882
4633 1545 1 0.4238 31.946973 44.830243 48.169088
4634 1545 2 -0.8476 31.724002 45.304603 47.317462
4635 1545 1 0.4238 32.498835 45.242092 46.688394
4636 1546 1 0.4238 48.178931 10.083188 39.779263
4637 1546 2 -0.8476 47.60143 9.271811 39.869594
4638 1546 1 0.4238 48.178081 8.456634 39.923993
4639 1547 1 0.4238 14.512293 39.776652 45.807237
4640 1547 2 -0.8476 15.419072 40.189088 45.719783
4641 1547 1 0.4238 15.327336 41.18145 45.637315
4642 1548 1 0.4238 46.86085 16.707099 10.7652
4643 1548 2 -0.8476 46.900567 15.713556 10.87147
4644 1548 1 0.4238 46.293114 15.433295 11.614742
4645 1549 1 0.4238 18.737476 3.980649 7.706426
4646 1549 2 -0.8476 18.129314 3.921029 6.914855
4647 1549 1 0.4238 17.264055 3.502029 7.190112
4648 1550 1 0.4238 1.727737 35.520775 38.737865
4649 1550 2 -0.8476 2.462526 36.032449 38.292585
4650 1550 1 0.4238 3.226614 36.140124 38.928646
4651 1551 1 0.4238 11.077695 42.993777 29.846666
4652 1551 2 -0.8476 10.864263 42.045763 30.08271
4653 1551 1 0.4238 9.933294 41.830368 29.787918
4654 1552 1 0.4238 37.947469 1.499985 17.482883
4655 1552 2 -0.8476 37.819729 2.03695 18.31676
4656 1552 1 0.4238 38.114079 1.499979 19.107342
4657 1553 1 0.4238 10.006459 44.165121 20.558212
4658 1553 2 -0.8476 9.882229 43.517494 19.80645
4659 1553 1 0.4238 10.710465 42.967279 19.700205
4660 1554 1 0.4238 21.32481 32.933078 8.958156
4661 1554 2 -0.8476 21.024041 32.372524 8.186589
4662 1554 1 0.4238 20.059803 32.134583 8.303337
4663 1555 1 0.4238 38.565335 43.291484 13.919458
4664 1555 2 -0.8476 38.677309 43.045058 12.956787
4665 1555 1 0.4238 38.097043 43.632491 12.392683
4666 1556 1 0.4238 6.365502 20.563408 2.353865
4667 1556 2 -0.8476 5.878416 19.768533 1.992032
4668 1556 1 0.4238 5.062663 20.072959 1.500228
4669 1557 1 0.4238 22.403754 20.20669 41.051507
4670 1557 2 -0.8476 22.342204 19.720221 41.923034
4671 1557 1 0.4238 21.384181 19.515101 42.123328
4672 1558 1 0.4238 16.603287 16.371493 37.563342
4673 1558 2 -0.8476 17.600473 16.316556 37.614357
4674 1558 1 0.4238 17.933661 15.664665 36.933164
4675 1559 1 0.4238 43.259884 10.182353 16.547442
4676 1559 2 -0.8476 42.521889 9.645996 16.13795
4677 1559 1 0.4238 42.390747 9.930124 15.188175
4678 1560 1 0.4238 47.415876 20.214879 41.194445
4679 1560 2 -0.8476 47.175491 20.975325 40.591173
4680 1560 1 0.4238 46.379811 21.455266 40.960701
4681 1561 1 0.4238 36.964251 17.802542 17.528271
4682 1561 2 -0.8476 36.048625 18.136681 17.304708
4683 1561 1 0.4238 35.445406 17.359972 17.123467
4684 1562 1 0.4238 7.086911 40.781226 45.769916
4685 1562 2 -0.8476 7.724947 41.070236 45.056206
4686 1562 1 0.4238 8.419205 41.670707 45.452993
4687 1563 1 0.4238 34.515252 38.449254 30.892711
4688 1563 2 -0.8476 35.352429 38.079293 30.489891
4689 1563 1 0.4238 35.255332 37.091531 30.367836
4690 1564 1 0.4238 1.500396 14.560458 25.669337
4691 1564 2 -0.8476 1.532811 15.478166 25.273406
4692 1564 1 0.4238 2.412907 15.614001 24.818458
4693 1565 1 0.4238 43.808712 38.472153 7.215441
4694 1565 2 -0.8476 43.101493 39.007336 6.753465
4695 1565 1 0.4238 42.199206 38.678805 7.032652
4696 1566 1 0.4238 18.231785 14.801716 8.811074
4697 1566 2 -0.8476 18.673982 15.391014 9.487233
4698 1566 1 0.4238 18.585191 14.981464 10.395189
4699 1567 1 0.4238 20.32103 16.899544 37.435305
4700 1567 2 -0.8476 20.211205 17.540846 36.675917
4701 1567 1 0.4238 21.070228 17.606506 36.168209
4702 1568 1 0.4238 35.375857 8.88761 5.432026
4703 1568 2 -0.8476 35.009166 9.616786 6.009815
4704 1568 1 0.4238 34.815248 9.254105 6.921329
4705 1569 1 0.4238 44.384179 2.654531 18.226845
4706 1569 2 -0.8476 44.535048 1.687848 18.433635
4707 1569 1 0.4238 45.516953 1.498851 18.445597
4708 1570 1 0.4238 9.566444 1.559883 36.640019
4709 1570 2 -0.8476 9.040821 2.405975 36.728618
4710 1570 1 0.4238 9.235501 3.002403 35.949919
4711 1571 1 0.4238 23.018514 48.178 28.928613
4712 1571 2 -0.8476 23.850557 47.624018 28.900199
4713 1571 1 0.4238 24.608217 48.178 28.555156
4714 1572 1 0.4238 44.677296 31.606891 32.56619
4715 1572 2 -0.8476 44.675136 30.606947 32.555776
4716 1572 1 0.4238 45.599389 30.273557 32.369747
4717 1573 1 0.4238 6.222294 17.940433 38.30303
4718 1573 2 -0.8476 7.032707 17.355551 38.336861
4719 1573 1 0.4238 7.32405 17.135505 37.405895
4720 1574 1 0.4238 42.007847 24.166944 21.012964
4721 1574 2 -0.8476 42.597488 23.573831 21.56118
4722 1574 1 0.4238 43.51261 23.973136 21.616912
4723 1575 1 0.4238 38.560817 40.394876 28.06867
4724 1575 2 -0.8476 38.369363 40.517253 27.094827
4725 1575 1 0.4238 38.303949 41.493461 26.888096
4726 1576 1 0.4238 45.799272 27.294851 42.450849
4727 1576 2 -0.8476 45.868856 28.134706 42.989181
4728 1576 1 0.4238 45.716126 28.924773 42.395492
4729 1577 1 0.4238 30.454044 38.720455 10.4796
4730 1577 2 -0.8476 30.40491 39.718592 10.443406
4731 1577 1 0.4238 29.494204 40.018014 10.727939
4732 1578 1 0.4238 23.547979 24.07535 2.843314
4733 1578 2 -0.8476 22.859624 23.411488 2.550988
4734 1578 1 0.4238 22.8095 23.401142 1.552299
4735 1579 1 0.4238 2.568358 24.382579 1.530892
4736 1579 2 -0.8476 1.598167 24.622943 1.499996
4737 1579 1 0.4238 1.499973 25.617558 1.533137
4738 1580 1 0.4238 38.170201 3.363496 20.772896
4739 1580 2 -0.8476 38.596401 2.697845 21.385483
4740 1580 1 0.4238 39.556362 2.940526 21.525411
4741 1581 1 0.4238 45.039658 47.312138 4.334545
4742 1581 2 -0.8476 45.578817 48.154213 4.349301
4743 1581 1 0.4238 46.458801 47.978869 4.790755
4744 1582 1 0.4238 22.905703 12.033849 48.178079
4745 1582 2 -0.8476 23.415336 11.746615 47.367049
4746 1582 1 0.4238 24.235907 11.248879 47.64798
4747 1583 1 0.4238 36.976636 17.184942 1.531096
4748 1583 2 -0.8476 36.630487 16.490635 2.162062
4749 1583 1 0.4238 37.301121 16.335414 2.887428
4750 1584 1 0.4238 47.366685 39.385833 18.302916
4751 1584 2 -0.8476 48.178002 39.170268 18.846328
4752 1584 1 0.4238 48.058942 38.279002 19.283901
4753 1585 1 0.4238 2.98559 4.29685 20.809056
4754 1585 2 -0.8476 3.649158 3.641795 20.447695
4755 1585 1 0.4238 4.487987 4.123063 20.193242
4756 1586 1 0.4238 8.990401 1.499864 30.142596
4757 1586 2 -0.8476 9.895414 1.923685 30.179026
4758 1586 1 0.4238 9.890709 2.766446 29.640759
4759 1587 1 0.4238 24.506736 3.910948 9.179051
4760 1587 2 -0.8476 23.710428 3.546348 8.69639
4761 1587 1 0.4238 23.103739 4.298356 8.438685
4762 1588 1 0.4238 23.904444 36.97201 3.414192
4763 1588 2 -0.8476 23.683925 36.731763 4.359524
4764 1588 1 0.4238 24.373373 37.119342 4.971441
4765 1589 1 0.4238 22.170178 8.136657 22.932015
4766 1589 2 -0.8476 21.825815 7.606392 22.157268
4767 1589 1 0.4238 22.413891 6.811113 22.009973
4768 1590 1 0.4238 34.210076 11.673944 27.356108
4769 1590 2 -0.8476 34.75649 12.436408 27.702635
4770 1590 1 0.4238 34.499255 13.27564 27.223553
4771 1591 1 0.4238 15.921329 9.359176 5.439542
4772 1591 2 -0.8476 16.162622 8.425622 5.174487
4773 1591 1 0.4238 15.559308 8.122029 4.437029
4774 1592 1 0.4238 34.159466 37.218516 7.213421
4775 1592 2 -0.8476 34.407725 38.034631 6.691575
4776 1592 1 0.4238 33.786885 38.134736 5.914056
4777 1593 1 0.4238 45.152204 20.223259 48.17851
4778 1593 2 -0.8476 46.127713 20.442935 48.167371
4779 1593 1 0.4238 46.245518 21.435421 48.13432
4780 1594 1 0.4238 13.772344 38.74097 20.179094
4781 1594 2 -0.8476 13.741172 37.836272 20.604006
4782 1594 1 0.4238 14.41997 37.241915 20.172761
4783 1595 1 0.4238 10.602879 31.0924 7.491528
4784 1595 2 -0.8476 9.790383 31.16939 8.069389
4785 1595 1 0.4238 9.336134 30.280313 8.125955
4786 1596 1 0.4238 44.49431 44.286359 16.922931
4787 1596 2 -0.8476 44.762799 45.224634 17.140999
4788 1596 1 0.4238 45.352629 45.579662 16.415703
4789 1597 1 0.4238 3.605208 26.226423 27.445716
4790 1597 2 -0.8476 2.943104 26.356584 26.707694
4791 1597 1 0.4238 2.151252 26.858893 27.055051
4792 1598 1 0.4238 41.258601 4.114489 45.894719
4793 1598 2 -0.8476 42.108325 4.570041 46.160127
4794 1598 1 0.4238 41.907366 5.503552 46.457066
4795 1599 1 0.4238 32.555455 34.479284 4.092943
4796 1599 2 -0.8476 33.046 35.24233 4.513806
4797 1599 1 0.4238 32.558952 35.539234 5.335166
4798 1600 1 0.4238 5.990818 14.280748 6.76767
4799 1600 2 -0.8476 6.912761 14.308366 7.154009
4800 1600 1 0.4238 7.252482 15.24877 7.138833
4801 1601 1 0.4238 17.315392 23.014165 22.58221
4802 1601 2 -0.8476 16.638948 23.730716 22.411983
4803 1601 1 0.4238 16.055243 23.462758 21.645506
4804 1602 1 0.4238 41.069344 19.756713 28.652914
4805 1602 2 -0.8476 41.596835 20.59941 28.545137
4806 1602 1 0.4238 42.041891 20.827122 29.411204
4807 1603 1 0.4238 40.955071 21.766928 20.257792
4808 1603 2 -0.8476 40.282412 22.01479 19.560588
4809 1603 1 0.4238 39.836236 22.871997 19.81773
4810 1604 1 0.4238 20.218119 4.988769 26.406878
4811 1604 2 -0.8476 20.809738 4.196322 26.258501
4812 1604 1 0.4238 20.251815 3.367669 26.213167
4813 1605 1 0.4238 46.891587 34.988159 43.951408
4814 1605 2 -0.8476 47.33491 35.344592 44.773856
4815 1605 1 0.4238 48.177875 35.818544 44.519341
4816 1606 1 0.4238 36.831064 6.034952 31.533996
4817 1606 2 -0.8476 37.498719 5.919796 32.269507
4818 1606 1 0.4238 38.404224 6.191037 31.94318
4819 1607 1 0.4238 37.234879 9.751607 30.112814
4820 1607 2 -0.8476 37.217843 8.753155 30.165746
4821 1607 1 0.4238 37.521747 8.462233 31.072943
4822 1608 1 0.4238 33.064582 1.502077 48.050419
4823 1608 2 -0.8476 33.902838 2.032209 48.178038
4824 1608 1 0.4238 34.686013 1.499962 47.856556
4825 1609 1 0.4238 34.987645 25.337383 10.970745
4826 1609 2 -0.8476 35.801929 25.804113 11.315861
4827 1609 1 0.4238 35.591 26.238894 12.191346
4828 1610 1 0.4238 38.138287 24.061398 21.949896
4829 1610 2 -0.8476 38.377513 24.58355 22.76851
4830 1610 1 0.4238 37.559485 24.721094 23.327
4831 1611 1 0.4238 10.66805 24.399556 24.01171
4832 1611 2 -0.8476 11.002611 23.469701 23.858612
4833 1611 1 0.4238 10.231152 22.867498 23.653178
4834 1612 1 0.4238 7.557886 26.106007 47.49935
4835 1612 2 -0.8476 7.710955 27.081371 47.658203
4836 1612 1 0.4238 8.366311 27.429431 46.987858
4837 1613 1 0.4238 9.887307 41.088294 43.472055
4838 1613 2 -0.8476 9.685134 40.99352 42.497302
4839 1613 1 0.4238 10.414335 40.471486 42.05487
4840 1614 1 0.4238 17.880615 40.07597 9.723353
4841 1614 2 -0.8476 17.021162 40.41657 9.342129
4842 1614 1 0.4238 16.32872 40.454321 10.062614
4843 1615 1 0.4238 25.689336 48.177998 48.055089
4844 1615 2 -0.8476 24.819266 47.7231 47.865229
4845 1615 1 0.4238 24.863975 46.774324 48.178
4846 1616 1 0.4238 4.124033 14.336638 46.755472
4847 1616 2 -0.8476 4.645474 15.087281 46.349721
4848 1616 1 0.4238 4.033665 15.663259 45.807559
4849 1617 1 0.4238 8.631897 12.756155 2.817979
4850 1617 2 -0.8476 8.826579 11.939513 3.361297
4851 1617 1 0.4238 9.296277 12.203758 4.20365
4852 1618 1 0.4238 21.886987 1.5 28.665228
4853 1618 2 -0.8476 21.373142 1.501748 27.807346
4854 1618 1 0.4238 21.97808 1.768317 27.05702
4855 1619 1 0.4238 29.807599 25.721758 7.881065
4856 1619 2 -0.8476 29.992929 26.694841 7.744089
4857 1619 1 0.4238 29.184536 27.226811 7.996098
4858 1620 1 0.4238 45.661411 17.584025 16.969227
4859 1620 2 -0.8476 45.714463 16.610091 16.748685
4860 1620 1 0.4238 44.814396 16.284376 16.459223
4861 1621 1 0.4238 9.140615 19.871 13.401527
4862 1621 2 -0.8476 8.558402 19.620779 14.175102
4863 1621 1 0.4238 7.690535 20.113577 14.112197
4864 1622 1 0.4238 39.044775 46.264123 48.178077
4865 1622 2 -0.8476 38.089654 45.967908 48.178038
4866 1622 1 0.4238 38.050576 44.968672 48.178024
4867 1623 1 0.4238 12.488886 15.51285 36.954577
4868 1623 2 -0.8476 12.580313 14.677032 37.495916
4869 1623 1 0.4238 13.536013 14.556792 37.764579
4870 1624 1 0.4238 19.87028 21.383596 24.183721
4871 1624 2 -0.8476 19.102149 20.743499 24.167841
4872 1624 1 0.4238 19.449655 19.806852 24.123894
4873 1625 1 0.4238 32.442756 32.553228 8.902591
4874 1625 2 -0.8476 32.071026 31.838339 8.310349
4875 1625 1 0.4238 32.708528 31.068634 8.276516
4876 1626 1 0.4238 24.126809 22.764848 26.955101
4877 1626 2 -0.8476 24.62695 21.90038 26.904553
4878 1626 1 0.4238 23.992693 21.161084 26.678371
4879 1627 1 0.4238 15.292791 1.929362 28.308675
4880 1627 2 -0.8476 15.51524 2.78122 27.834487
4881 1627 1 0.4238 14.670193 3.248413 27.574439
4882 1628 1 0.4238 18.003123 25.223753 18.362781
4883 1628 2 -0.8476 17.039577 24.960312 18.316114
4884 1628 1 0.4238 16.876585 24.439694 17.478026
4885 1629 1 0.4238 19.097968 48.178 38.463958
4886 1629 2 -0.8476 19.761404 47.618056 38.96026
4887 1629 1 0.4238 20.552708 48.178 39.205819
4888 1630 1 0.4238 47.707548 44.845136 7.095651
4889 1630 2 -0.8476 48.15138 43.972109 6.893571
4890 1630 1 0.4238 47.558714 43.426074 6.301463
4891 1631 1 0.4238 39.142662 9.872512 46.904332
4892 1631 2 -0.8476 39.554902 10.423641 46.178856
4893 1631 1 0.4238 40.486893 10.104661 46.006682
4894 1632 1 0.4238 37.62695 23.265748 18.281704
4895 1632 2 -0.8476 38.296656 23.518684 17.583479
4896 1632 1 0.4238 38.319761 22.814989 16.873353
4897 1633 1 0.4238 44.484285 8.091261 15.932576
4898 1633 2 -0.8476 44.679686 7.800384 14.995981
4899 1633 1 0.4238 44.016065 8.214551 14.373026
4900 1634 1 0.4238 14.229275 29.935874 48.17801
4901 1634 2 -0.8476 14.682999 29.141311 47.774519
4902 1634 1 0.4238 15.354455 29.447853 47.099849
4903 1635 1 0.4238 30.05299 29.836683 11.39138
4904 1635 2 -0.8476 29.963037 30.817299 11.217308
4905 1635 1 0.4238 30.508443 31.065096 10.416603
4906 1636 1 0.4238 6.128814 11.939865 8.066175
4907 1636 2 -0.8476 5.644067 12.524576 8.716663
4908 1636 1 0.4238 6.307129 13.027149 9.271431
4909 1637 1 0.4238 5.358401 1.499857 36.317252
4910 1637 2 -0.8476 4.462201 1.871736 36.559186
4911 1637 1 0.4238 4.423945 2.034412 37.545123
4912 1638 1 0.4238 14.427224 5.347466 20.255502
4913 1638 2 -0.8476 14.750071 4.585264 19.694414
4914 1638 1 0.4238 15.565442 4.185245 20.112928
4915 1639 1 0.4238 26.451522 45.304183 20.348845
4916 1639 2 -0.8476 26.038298 45.47375 21.243548
4917 1639 1 0.4238 25.065661 45.675654 21.128604
4918 1640 1 0.4238 3.38963 39.373022 4.325908
4919 1640 2 -0.8476 2.814795 40.076823 4.743313
4920 1640 1 0.4238 2.262705 40.518795 4.036308
4921 1641 1 0.4238 38.523544 11.131328 41.001133
4922 1641 2 -0.8476 38.859498 10.594835 41.775284
4923 1641 1 0.4238 39.234894 9.729489 41.443237
4924 1642 1 0.4238 24.875069 19.689836 46.695081
4925 1642 2 -0.8476 25.294758 19.074798 47.362606
4926 1642 1 0.4238 25.55233 19.593457 48.177867
4927 1643 1 0.4238 41.151168 27.342034 40.357437
4928 1643 2 -0.8476 40.98844 27.084612 41.309935
4929 1643 1 0.4238 41.192709 27.862 41.904865
4930 1644 1 0.4238 29.666153 25.467215 18.46857
4931 1644 2 -0.8476 28.809825 24.987682 18.276868
4932 1644 1 0.4238 28.336996 25.439407 17.520312
4933 1645 1 0.4238 6.457975 43.191016 45.98512
4934 1645 2 -0.8476 6.321093 43.687082 45.127693
4935 1645 1 0.4238 7.157387 43.644889 44.581038
4936 1646 1 0.4238 18.861693 5.98129 10.175518
4937 1646 2 -0.8476 18.140808 5.505877 9.671228
4938 1646 1 0.4238 17.898465 6.034907 8.857965
4939 1647 1 0.4238 27.728986 20.473503 41.607292
4940 1647 2 -0.8476 28.120292 21.34696 41.317546
4941 1647 1 0.4238 27.557494 22.096381 41.666293
4942 1648 1 0.4238 41.887124 30.70817 2.200761
4943 1648 2 -0.8476 41.261414 31.265373 1.654856
4944 1648 1 0.4238 41.666403 32.166454 1.499823
4945 1649 1 0.4238 11.245744 45.922564 40.67392
4946 1649 2 -0.8476 10.348744 46.146284 40.292685
4947 1649 1 0.4238 9.870609 45.302676 40.048325
4948 1650 1 0.4238 1.500008 30.82954 18.191414
4949 1650 2 -0.8476 2.077312 31.640111 18.289878
4950 1650 1 0.4238 1.500034 32.448375 18.405891
4951 1651 1 0.4238 9.538299 14.393508 45.75631
4952 1651 2 -0.8476 10.437694 14.750532 46.008546
4953 1651 1 0.4238 10.40185 15.749254 46.044163
4954 1652 1 0.4238 31.729098 1.499994 40.864488
4955 1652 2 -0.8476 30.797453 1.564666 41.222057
4956 1652 1 0.4238 30.632218 2.492718 41.555847
4957 1653 1 0.4238 45.689688 45.237178 37.44052
4958 1653 2 -0.8476 45.937552 45.310756 36.474523
4959 1653 1 0.4238 45.171454 45.004303 35.909564
4960 1654 1 0.4238 36.950324 32.420445 32.424891
4961 1654 2 -0.8476 36.129409 32.323032 32.987571
4962 1654 1 0.4238 35.750317 33.227425 33.183437
4963 1655 1 0.4238 4.795296 16.674143 43.651661
4964 1655 2 -0.8476 4.209198 15.96794 43.254464
4965 1655 1 0.4238 4.523833 15.755121 42.329417
4966 1656 1 0.4238 31.906759 24.667075 4.32147
4967 1656 2 -0.8476 31.319737 23.951099 3.943603
4968 1656 1 0.4238 31.799225 23.074229 3.978099
4969 1657 1 0.4238 31.764397 18.219791 25.80002
4970 1657 2 -0.8476 30.802915 18.458716 25.935921
4971 1657 1 0.4238 30.23673 17.643093 25.816783
4972 1658 1 0.4238 43.76266 1.504781 41.449446
4973 1658 2 -0.8476 43.430205 2.075766 42.20008
4974 1658 1 0.4238 43.237259 1.501369 42.995592
4975 1659 1 0.4238 18.21179 38.447632 36.596318
4976 1659 2 -0.8476 18.045237 37.687664 37.224577
4977 1659 1 0.4238 17.060163 37.547133 37.323974
4978 1660 1 0.4238 35.988011 40.364875 17.380265
4979 1660 2 -0.8476 36.025838 40.270495 16.385447
4980 1660 1 0.4238 35.891308 39.311426 16.136272
4981 1661 1 0.4238 35.960524 32.318957 5.736421
4982 1661 2 -0.8476 36.546745 33.128823 5.714902
4983 1661 1 0.4238 37.505961 32.846326 5.724904
4984 1662 1 0.4238 27.757471 24.993802 14.767331
4985 1662 2 -0.8476 27.636949 25.983835 14.840196
4986 1662 1 0.4238 26.793468 26.252074 14.374805
4987 1663 1 0.4238 7.159198 29.506745 9.537908
4988 1663 2 -0.8476 6.868222 28.66262 9.08759
4989 1663 1 0.4238 6.285211 28.885522 8.306302
4990 1664 1 0.4238 9.257907 14.438779 39.391884
4991 1664 2 -0.8476 8.518131 14.399556 40.063594
4992 1664 1 0.4238 8.421773 13.462411 40.398964
4993 1665 1 0.4238 36.73915 39.983082 6.055845
4994 1665 2 -0.8476 37.574152 39.766599 6.561717
4995 1665 1 0.4238 38.203104 40.542611 6.514531
4996 1666 1 0.4238 3.632083 40.509352 1.556441
4997 1666 2 -0.8476 4.057565 39.688572 1.937604
4998 1666 1 0.4238 4.944139 39.538816 1.49993
4999 1667 1 0.4238 39.943253 5.814577 11.526313
5000 1667 2 -0.8476 39.956428 5.264771 10.691125
5001 1667 1 0.4238 40.709838 5.565141 10.106188
5002 1668 1 0.4238 20.720135 7.949643 46.592951
5003 1668 2 -0.8476 20.480989 6.996434 46.408014
5004 1668 1 0.4238 19.518516 6.844592 46.632931
5005 1669 1 0.4238 41.396975 32.618411 12.146439
5006 1669 2 -0.8476 40.46585 32.406076 12.442954
5007 1669 1 0.4238 40.437335 31.477252 12.812376
5008 1670 1 0.4238 3.382745 21.377653 6.794303
5009 1670 2 -0.8476 4.091714 21.19386 7.475174
5010 1670 1 0.4238 4.374676 20.23683 7.411734
5011 1671 1 0.4238 21.823807 13.528191 9.864179
5012 1671 2 -0.8476 21.096736 14.125025 9.524832
5013 1671 1 0.4238 20.768613 13.783092 8.644254
5014 1672 1 0.4238 37.783211 1.520053 29.639514
5015 1672 2 -0.8476 36.809991 1.733431 29.725029
5016 1672 1 0.4238 36.497222 1.499979 30.645722
5017 1673 1 0.4238 11.269128 23.581296 1.499997
5018 1673 2 -0.8476 12.033936 22.987708 1.75044
5019 1673 1 0.4238 12.197611 23.052401 2.734831
5020 1674 1 0.4238 9.995725 24.735277 44.526133
5021 1674 2 -0.8476 9.67957 24.190352 45.30273
5022 1674 1 0.4238 9.317031 24.797134 46.010105
5023 1675 1 0.4238 16.594049 10.909939 20.34394
5024 1675 2 -0.8476 15.88303 11.501652 20.723844
5025 1675 1 0.4238 16.308999 12.264144 21.210832
5026 1676 1 0.4238 9.577103 14.463006 6.66066
5027 1676 2 -0.8476 9.687903 13.546834 6.275495
5028 1676 1 0.4238 9.003606 12.934077 6.670801
5029 1677 1 0.4238 41.059567 32.369862 15.331173
5030 1677 2 -0.8476 41.758816 31.758706 15.702034
5031 1677 1 0.4238 42.318628 32.256021 16.364822
5032 1678 1 0.4238 42.517563 48.157628 20.115818
5033 1678 2 -0.8476 42.176484 47.638603 20.899576
5034 1678 1 0.4238 41.486031 48.177999 21.38158
5035 1679 1 0.4238 40.934377 3.699098 12.42336
5036 1679 2 -0.8476 41.179347 2.730768 12.375129
5037 1679 1 0.4238 41.316973 2.375322 13.299638
5038 1680 1 0.4238 29.435627 35.015808 36.422991
5039 1680 2 -0.8476 30.390922 35.278277 36.2869
5040 1680 1 0.4238 30.943819 34.45849 36.137723
5041 1681 1 0.4238 22.572667 34.31578 4.433545
5042 1681 2 -0.8476 22.016458 34.082746 3.635844
5043 1681 1 0.4238 21.067466 34.35115 3.801292
5044 1682 1 0.4238 17.598546 43.920497 20.344214
5045 1682 2 -0.8476 18.442366 44.079652 19.831733
5046 1682 1 0.4238 19.226464 43.997687 20.446933
5047 1683 1 0.4238 36.107236 42.579649 14.902645
5048 1683 2 -0.8476 35.316947 42.702707 14.302394
5049 1683 1 0.4238 35.629578 42.962752 13.388808
5050 1684 1 0.4238 45.517986 38.81691 47.548175
5051 1684 2 -0.8476 45.566687 39.690837 47.064562
5052 1684 1 0.4238 46.105761 39.580148 46.229609
5053 1685 1 0.4238 43.4835 23.203524 32.281418
5054 1685 2 -0.8476 42.611727 23.473483 31.872599
5055 1685 1 0.4238 42.500256 23.013877 30.991499
5056 1686 1 0.4238 16.009784 30.6323 35.280651
5057 1686 2 -0.8476 16.971111 30.386702 35.156027
5058 1686 1 0.4238 17.509287 31.215048 35.000436
5059 1687 1 0.4238 21.474305 29.246854 39.462755
5060 1687 2 -0.8476 22.363587 28.789954 39.483241
5061 1687 1 0.4238 22.286398 27.890888 39.052286
5062 1688 1 0.4238 17.327081 1.499996 12.094773
5063 1688 2 -0.8476 18.303947 1.713102 12.112608
5064 1688 1 0.4238 18.675141 1.500003 13.01638
5065 1689 1 0.4238 36.673557 30.48517 3.984018
5066 1689 2 -0.8476 35.675347 30.542652 4.000512
5067 1689 1 0.4238 35.289041 29.621171 4.041001
5068 1690 1 0.4238 45.693741 34.635757 2.976406
5069 1690 2 -0.8476 45.203296 35.487674 3.159983
5070 1690 1 0.4238 45.738885 36.051856 3.788348
5071 1691 1 0.4238 37.708225 21.455148 20.802411
5072 1691 2 -0.8476 37.235958 20.626759 21.103636
5073 1691 1 0.4238 37.749426 20.202997 21.849811
5074 1692 1 0.4238 35.190758 37.29339 24.275831
5075 1692 2 -0.8476 35.329235 36.817887 23.407084
5076 1692 1 0.4238 34.89787 35.916636 23.447949
5077 1693 1 0.4238 37.230332 5.620204 28.83042
5078 1693 2 -0.8476 36.744401 6.30884 28.292228
5079 1693 1 0.4238 36.00927 6.704399 28.842786
5080 1694 1 0.4238 24.474581 17.890741 25.7778
5081 1694 2 -0.8476 24.705945 17.390104 24.943635
5082 1694 1 0.4238 23.923253 17.399555 24.321298
5083 1695 1 0.4238 16.175398 19.546492 6.134502
5084 1695 2 -0.8476 15.821991 20.180874 6.822007
5085 1695 1 0.4238 15.417432 19.663598 7.576167
5086 1696 1 0.4238 17.623662 3.763645 18.441449
5087 1696 2 -0.8476 18.363367 4.397251 18.668119
5088 1696 1 0.4238 19.242707 3.930527 18.573622
5089 1697 1 0.4238 4.671341 42.782333 1.49924
5090 1697 2 -0.8476 4.536427 43.714504 1.83518
5091 1697 1 0.4238 5.421308 44.113518 2.075539
5092 1698 1 0.4238 13.551105 6.941086 3.156421
5093 1698 2 -0.8476 13.108547 6.704164 2.291545
5094 1698 1 0.4238 13.515227 5.866215 1.927604
5095 1699 1 0.4238 36.983859 1.499948 7.679956
5096 1699 2 -0.8476 37.780415 2.077062 7.86006
5097 1699 1 0.4238 38.583927 1.49998 8.006155
5098 1700 1 0.4238 7.403018 34.54764 25.815626
5099 1700 2 -0.8476 7.549549 35.504904 26.064976
5100 1700 1 0.4238 6.808139 36.063464 25.69306
5101 1701 1 0.4238 45.977368 30.768968 4.132619
5102 1701 2 -0.8476 46.28708 31.65812 3.79574
5103 1701 1 0.4238 45.582278 32.345273 3.972018
5104 1702 1 0.4238 23.396248 24.888292 31.682485
5105 1702 2 -0.8476 22.515161 25.269844 31.403016
5106 1702 1 0.4238 22.624071 26.241611 31.193716
5107 1703 1 0.4238 28.70943 32.639385 25.817054
5108 1703 2 -0.8476 29.253092 32.3345 25.035084
5109 1703 1 0.4238 28.925389 32.785779 24.20505
5110 1704 1 0.4238 14.608767 27.077508 28.057804
5111 1704 2 -0.8476 13.973224 26.374595 28.377177
5112 1704 1 0.4238 14.467218 25.515982 28.514122
5113 1705 1 0.4238 17.837356 33.576668 18.392048
5114 1705 2 -0.8476 17.820912 34.093079 19.248231
5115 1705 1 0.4238 18.449145 34.868282 19.182031
5116 1706 1 0.4238 26.07011 45.743245 17.917437
5117 1706 2 -0.8476 25.341377 45.05861 17.932339
5118 1706 1 0.4238 24.599232 45.374576 18.523428
5119 1707 1 0.4238 7.328948 3.931193 14.86456
5120 1707 2 -0.8476 8.273362 3.608277 14.926269
5121 1707 1 0.4238 8.706167 3.997291 15.739502
5122 1708 1 0.4238 22.414224 24.105789 7.139187
5123 1708 2 -0.8476 21.427948 23.952842 7.076998
5124 1708 1 0.4238 20.945782 24.810869 7.253928
5125 1709 1 0.4238 20.525069 8.539689 37.478877
5126 1709 2 -0.8476 20.885069 8.626124 36.549937
5127 1709 1 0.4238 20.578804 9.491338 36.152942
5128 1710 1 0.4238 41.395201 47.831476 48.178325
5129 1710 2 -0.8476 41.051368 47.475931 47.309207
5130 1710 1 0.4238 40.500832 48.177366 46.85655
5131 1711 1 0.4238 2.523948 14.691541 34.939986
5132 1711 2 -0.8476 3.030618 14.834369 35.790212
5133 1711 1 0.4238 2.541926 15.492557 36.362897
5134 1712 1 0.4238 33.989669 27.355405 25.802826
5135 1712 2 -0.8476 34.383313 26.577672 25.312749
5136 1712 1 0.4238 33.717299 25.832438 25.280323
5137 1713 1 0.4238 28.081945 42.979918 34.027792
5138 1713 2 -0.8476 28.881383 42.533475 33.625811
5139 1713 1 0.4238 29.263373 41.881312 34.280614
5140 1714 1 0.4238 35.967559 25.107379 38.500472
5141 1714 2 -0.8476 36.227473 24.381724 37.863393
5142 1714 1 0.4238 37.174417 24.110366 38.035621
5143 1715 1 0.4238 14.436564 18.064644 21.769476
5144 1715 2 -0.8476 13.98767 18.781485 22.302987
5145 1715 1 0.4238 13.465588 19.375226 21.690695
5146 1716 1 0.4238 17.967642 17.236603 29.239564
5147 1716 2 -0.8476 18.821551 17.698005 28.998842
5148 1716 1 0.4238 18.829383 18.614533 29.398735
5149 1717 1 0.4238 2.990632 44.199057 39.10367
5150 1717 2 -0.8476 2.446033 45.012067 38.897693
5151 1717 1 0.4238 1.498173 44.857756 39.176529
5152 1718 1 0.4238 1.500024 40.369288 12.345006
5153 1718 2 -0.8476 1.528358 41.366399 12.274528
5154 1718 1 0.4238 2.478139 41.667725 12.190159
5155 1719 1 0.4238 9.728071 31.77135 17.840382
5156 1719 2 -0.8476 9.186877 31.069808 18.304005
5157 1719 1 0.4238 9.18604 31.245877 19.288382
5158 1720 1 0.4238 30.909431 26.821809 48.178
5159 1720 2 -0.8476 31.760183 27.290006 47.939226
5160 1720 1 0.4238 31.592415 27.920098 47.181046
5161 1721 1 0.4238 19.533832 5.475016 30.29927
5162 1721 2 -0.8476 18.619351 5.324272 30.674771
5163 1721 1 0.4238 18.403929 6.049354 31.328873
5164 1722 1 0.4238 35.971072 32.701398 36.746428
5165 1722 2 -0.8476 36.10097 32.460042 35.784724
5166 1722 1 0.4238 35.573249 31.63735 35.573328
5167 1723 1 0.4238 5.356575 46.932443 8.622244
5168 1723 2 -0.8476 5.23406 47.769345 8.088779
5169 1723 1 0.4238 6.127008 48.17802 7.900028
5170 1724 1 0.4238 46.003716 27.289011 31.90314
5171 1724 2 -0.8476 45.458774 27.787967 31.229284
5172 1724 1 0.4238 45.438161 27.274724 30.371289
5173 1725 1 0.4238 33.785777 27.349537 44.575055
5174 1725 2 -0.8476 33.400273 28.265689 44.46527
5175 1725 1 0.4238 32.490021 28.295971 44.878216
5176 1726 1 0.4238 34.115108 38.567943 19.872969
5177 1726 2 -0.8476 34.388822 38.794911 20.807616
5178 1726 1 0.4238 33.988934 38.133357 21.441994
5179 1727 1 0.4238 28.491677 1.499995 6.962947
5180 1727 2 -0.8476 28.431759 1.527216 7.960779
5181 1727 1 0.4238 27.50375 1.782497 8.232127
5182 1728 1 0.4238 5.709997 1.985665 16.266311
5183 1728 2 -0.8476 4.842935 1.499831 16.155994
5184 1728 1 0.4238 4.295849 1.601481 16.986875
5185 1729 1 0.4238 17.764125 9.409854 31.349984
5186 1729 2 -0.8476 16.934061 9.837864 30.992489
5187 1729 1 0.4238 16.280364 9.128559 30.728733
5188 1730 1 0.4238 19.896074 38.6732 8.485302
5189 1730 2 -0.8476 19.779076 37.737133 8.817101
5190 1730 1 0.4238 20.115624 37.671974 9.75651
5191 1731 1 0.4238 47.957274 1.499975 9.168485
5192 1731 2 -0.8476 47.141521 2.077049 9.207642
5193 1731 1 0.4238 46.324839 1.499969 9.210721
5194 1732 1 0.4238 12.086637 5.677993 12.933805
5195 1732 2 -0.8476 11.859323 6.542693 13.381714
5196 1732 1 0.4238 11.678969 7.240056 12.688059
5197 1733 1 0.4238 16.172314 15.360835 28.117921
5198 1733 2 -0.8476 15.753157 15.631545 28.984537
5199 1733 1 0.4238 15.017256 14.993945 29.212388
5200 1734 1 0.4238 13.987191 43.683681 9.099069
5201 1734 2 -0.8476 14.871188 43.234389 9.228241
5202 1734 1 0.4238 14.72887 42.324633 9.618228
5203 1735 1 0.4238 48.17731 26.630466 48.178
5204 1735 2 -0.8476 47.179249 26.60918 48.119504
5205 1735 1 0.4238 46.825112 27.544365 48.123459
5206 1736 1 0.4238 36.836404 35.562079 25.572464
5207 1736 2 -0.8476 37.326532 35.476098 24.705065
5208 1736 1 0.4238 37.188934 34.557709 24.334082
5209 1737 1 0.4238 5.300512 45.160037 39.195839
5210 1737 2 -0.8476 4.744996 45.980547 39.06106
5211 1737 1 0.4238 4.347241 46.260976 39.934645
5212 1738 1 0.4238 22.789509 6.416881 6.544763
5213 1738 2 -0.8476 22.28376 6.833941 5.789594
5214 1738 1 0.4238 21.989436 7.752704 6.052741
5215 1739 1 0.4238 1.723132 18.061171 15.827094
5216 1739 2 -0.8476 1.499997 17.287467 15.23414
5217 1739 1 0.4238 1.536712 16.440098 15.763873
5218 1740 1 0.4238 11.30464 48.178004 12.743659
5219 1740 2 -0.8476 11.285657 48.085032 11.748171
5220 1740 1 0.4238 11.8014 47.271509 11.479491
5221 1741 1 0.4238 20.851581 8.323615 25.995204
5222 1741 2 -0.8476 19.898745 8.341088 26.298187
5223 1741 1 0.4238 19.58715 7.406951 26.472244
5224 1742 1 0.4238 12.49212 26.356848 43.547454
5225 1742 2 -0.8476 12.382079 27.103458 42.891355
5226 1742 1 0.4238 12.897922 26.895592 42.060273
5227 1743 1 0.4238 29.136013 28.035048 17.248951
5228 1743 2 -0.8476 29.495784 28.968033 17.259202
5229 1743 1 0.4238 29.044919 29.491201 17.9824
5230 1744 1 0.4238 31.847685 4.670187 12.405527
5231 1744 2 -0.8476 32.390788 3.915854 12.036718
5232 1744 1 0.4238 32.421786 3.98386 11.039515
5233 1745 1 0.4238 12.38469 27.172235 4.277709
5234 1745 2 -0.8476 12.505134 26.325436 4.795806
5235 1745 1 0.4238 11.713029 26.182177 5.389142
5236 1746 1 0.4238 28.884686 7.031197 11.684559
5237 1746 2 -0.8476 29.421638 7.047574 12.528012
5238 1746 1 0.4238 29.854258 6.156478 12.66508
5239 1747 1 0.4238 17.79131 20.067435 26.434736
5240 1747 2 -0.8476 18.410009 19.303278 26.61715
5241 1747 1 0.4238 19.316109 19.656354 26.850219
5242 1748 1 0.4238 16.097622 15.388959 25.185811
5243 1748 2 -0.8476 16.798135 15.230311 24.490029
5244 1748 1 0.4238 16.418288 15.421512 23.584955
5245 1749 1 0.4238 23.464259 47.542301 5.56311
5246 1749 2 -0.8476 23.767646 47.704585 6.502057
5247 1749 1 0.4238 23.046762 48.178098 7.008131
5248 1750 1 0.4238 23.095185 5.414823 37.015906
5249 1750 2 -0.8476 22.923787 5.91762 37.863147
5250 1750 1 0.4238 22.620652 6.845205 37.644755
5251 1751 1 0.4238 42.129718 12.457542 6.92966
5252 1751 2 -0.8476 41.927954 13.33638 6.497299
5253 1751 1 0.4238 42.783468 13.81563 6.301301
5254 1752 1 0.4238 28.013176 23.097869 7.647264
5255 1752 2 -0.8476 28.007314 23.886708 7.032691
5256 1752 1 0.4238 27.495112 23.660033 6.204279
5257 1753 1 0.4238 14.305139 1.763373 24.215531
5258 1753 2 -0.8476 13.929414 1.502719 25.104852
5259 1753 1 0.4238 14.660102 1.500007 25.787557
5260 1754 1 0.4238 28.606774 28.036019 12.983402
5261 1754 2 -0.8476 28.825342 28.782636 13.611727
5262 1754 1 0.4238 28.800363 28.444628 14.552538
5263 1755 1 0.4238 11.521199 42.443161 10.772321
5264 1755 2 -0.8476 11.562018 41.444212 10.793208
5265 1755 1 0.4238 10.633633 41.072955 10.80958
5266 1756 1 0.4238 26.00349 7.767483 18.464172
5267 1756 2 -0.8476 26.526186 7.15481 17.871366
5268 1756 1 0.4238 27.363998 6.873069 18.339012
5269 1757 1 0.4238 17.031791 42.321405 33.191871
5270 1757 2 -0.8476 16.246982 41.740783 32.975186
5271 1757 1 0.4238 15.442779 42.313304 32.815571
5272 1758 1 0.4238 22.076804 23.529927 24.825765
5273 1758 2 -0.8476 22.294895 22.584916 24.58206
5274 1758 1 0.4238 23.27393 22.506647 24.394008
5275 1759 1 0.4238 35.678412 39.416876 8.342233
5276 1759 2 -0.8476 36.09304 38.516493 8.474118
5277 1759 1 0.4238 36.997119 38.623248 8.887935
5278 1760 1 0.4238 41.179004 45.180764 13.275965
5279 1760 2 -0.8476 40.245116 45.286987 13.617387
5280 1760 1 0.4238 39.645469 45.564953 12.866948
5281 1761 1 0.4238 3.498656 27.284965 31.748974
5282 1761 2 -0.8476 2.784606 27.911041 32.062281
5283 1761 1 0.4238 1.890896 27.570021 31.770757
5284 1762 1 0.4238 8.466858 38.436276 25.402261
5285 1762 2 -0.8476 8.914936 38.422846 24.508368
5286 1762 1 0.4238 9.234058 39.343037 24.28163
5287 1763 1 0.4238 18.426782 37.666383 6.459334
5288 1763 2 -0.8476 17.638078 37.075032 6.627411
5289 1763 1 0.4238 17.049952 37.06593 5.818694
5290 1764 1 0.4238 44.161987 15.368414 14.128558
5291 1764 2 -0.8476 45.087791 15.098567 13.863851
5292 1764 1 0.4238 45.087833 14.13873 13.583293
5293 1765 1 0.4238 13.08628 44.319572 11.68844
5294 1765 2 -0.8476 13.79493 44.356533 12.39303
5295 1765 1 0.4238 14.687331 44.179853 11.977815
5296 1766 1 0.4238 24.3245 19.519541 1.599876
5297 1766 2 -0.8476 24.276275 20.513372 1.500004
5298 1766 1 0.4238 23.327629 20.812935 1.601647
5299 1767 1 0.4238 30.848337 40.549575 13.021388
5300 1767 2 -0.8476 30.406447 39.714872 13.350028
5301 1767 1 0.4238 30.993844 38.928798 13.157536
5302 1768 1 0.4238 31.665079 46.157456 9.204753
5303 1768 2 -0.8476 31.139086 45.585156 9.833883
5304 1768 1 0.4238 30.238901 45.99426 9.983219
5305 1769 1 0.4238 18.953368 10.496168 9.169378
5306 1769 2 -0.8476 19.58278 11.238051 8.938186
5307 1769 1 0.4238 20.478391 11.053648 9.343002
5308 1770 1 0.4238 18.342152 36.432907 34.757389
5309 1770 2 -0.8476 17.492321 36.080061 34.36587
5310 1770 1 0.4238 17.31916 35.16065 34.718995
5311 1771 1 0.4238 48.178012 13.641004 25.20962
5312 1771 2 -0.8476 47.223469 13.774155 24.942938
5313 1771 1 0.4238 47.173128 14.457223 24.214321
5314 1772 1 0.4238 40.855059 28.251883 22.741072
5315 1772 2 -0.8476 39.91584 28.589534 22.803202
5316 1772 1 0.4238 39.300925 27.828319 23.00919
5317 1773 1 0.4238 1.499304 48.179037 45.352473
5318 1773 2 -0.8476 1.930854 47.794907 46.168689
5319 1773 1 0.4238 1.499805 48.178433 46.985453
5320 1774 1 0.4238 41.226565 2.861635 43.592723
5321 1774 2 -0.8476 41.67577 3.744797 43.45767
5322 1774 1 0.4238 40.9838 4.463068 43.385111
5323 1775 1 0.4238 42.0891 16.939137 24.778209
5324 1775 2 -0.8476 42.609644 17.401958 24.060693
5325 1775 1 0.4238 43.486297 17.709611 24.430597
5326 1776 1 0.4238 3.924212 47.204329 14.269222
5327 1776 2 -0.8476 4.244006 48.151751 14.258091
5328 1776 1 0.4238 5.216544 48.178007 14.48935
5329 1777 1 0.4238 28.323155 31.90029 16.952484
5330 1777 2 -0.8476 28.568676 31.624901 16.023033
5331 1777 1 0.4238 28.071198 30.792247 15.779716
5332 1778 1 0.4238 33.207903 20.705844 33.234375
5333 1778 2 -0.8476 33.702079 21.487956 32.854781
5334 1778 1 0.4238 33.089813 22.014895 32.26532
5335 1779 1 0.4238 38.040178 22.301837 1.956132
5336 1779 2 -0.8476 38.94024 22.48509 1.560774
5337 1779 1 0.4238 39.082721 23.47302 1.499996
5338 1780 1 0.4238 3.869433 48.108268 28.887632
5339 1780 2 -0.8476 4.477322 47.78697 29.613744
5340 1780 1 0.4238 4.188649 48.17822 30.48758
5341 1781 1 0.4238 40.784929 10.030573 28.874936
5342 1781 2 -0.8476 41.608389 9.492574 29.05513
5343 1781 1 0.4238 41.585787 9.153429 29.995592
5344 1782 1 0.4238 41.128973 20.181663 8.349622
5345 1782 2 -0.8476 40.497052 20.956686 8.353644
5346 1782 1 0.4238 41.016727 21.810288 8.389702
5347 1783 1 0.4238 34.232625 45.8727 43.805287
5348 1783 2 -0.8476 33.383082 45.612383 44.264102
5349 1783 1 0.4238 32.656974 46.250562 44.008186
5350 1784 1 0.4238 7.275303 10.751079 47.24588
5351 1784 2 -0.8476 7.893572 10.731143 46.460166
5352 1784 1 0.4238 7.861443 9.827257 46.033601
5353 1785 1 0.4238 19.795501 2.206251 33.777529
5354 1785 2 -0.8476 19.095474 1.499995 33.671871
5355 1785 1 0.4238 18.268348 1.906017 33.283272
5356 1786 1 0.4238 23.004179 3.932564 45.507245
5357 1786 2 -0.8476 22.041828 3.963607 45.777273
5358 1786 1 0.4238 21.788345 4.904949 46.000034
5359 1787 1 0.4238 23.418554 23.160389 9.575387
5360 1787 2 -0.8476 24.252299 23.468328 10.033692
5361 1787 1 0.4238 24.011485 24.073966 10.792119
5362 1788 1 0.4238 43.766128 23.970879 3.822005
5363 1788 2 -0.8476 43.588526 23.053631 4.178536
5364 1788 1 0.4238 44.432764 22.518126 4.156265
5365 1789 1 0.4238 11.681928 28.704636 40.520076
5366 1789 2 -0.8476 10.757338 28.428575 40.782608
5367 1789 1 0.4238 10.305327 27.994168 40.003521
5368 1790 1 0.4238 44.879242 34.433465 5.488862
5369 1790 2 -0.8476 45.306357 34.89539 6.266163
5370 1790 1 0.4238 45.13126 35.878171 6.20715
5371 1791 1 0.4238 33.23513 8.420824 4.125607
5372 1791 2 -0.8476 32.898918 8.114647 5.016235
5373 1791 1 0.4238 32.537976 8.897341 5.523296
5374 1792 1 0.4238 2.315849 30.992649 20.837385
5375 1792 2 -0.8476 1.5 31.570605 20.856293
5376 1792 1 0.4238 1.769786 32.523647 20.993871
5377 1793 1 0.4238 32.64094 39.419547 3.851373
5378 1793 2 -0.8476 32.406473 38.447956 3.819208
5379 1793 1 0.4238 31.706961 38.296828 3.12075
5380 1794 1 0.4238 40.643112 37.652921 22.589328
5381 1794 2 -0.8476 40.522245 36.739428 22.977814
5382 1794 1 0.4238 40.616435 36.785028 23.972323
5383 1795 1 0.4238 25.049354 41.590479 14.064247
5384 1795 2 -0.8476 24.833644 40.616537 13.994205
5385 1795 1 0.4238 25.605846 40.132913 13.582123
5386 1796 1 0.4238 21.090566 1.504585 21.485998
5387 1796 2 -0.8476 21.530113 1.734195 20.617622
5388 1796 1 0.4238 21.221808 2.636504 20.316314
5389 1797 1 0.4238 22.347142 42.421358 43.393863
5390 1797 2 -0.8476 22.570613 42.562856 42.429477
5391 1797 1 0.4238 22.390572 41.722154 41.918785
5392 1798 1 0.4238 14.270622 43.270131 47.85006
5393 1798 2 -0.8476 14.284015 44.257136 47.689931
5394 1798 1 0.4238 13.522923 44.68435 48.178015
5395 1799 1 0.4238 29.91991 19.14297 4.832807
5396 1799 2 -0.8476 29.844887 18.192533 5.134538
5397 1799 1 0.4238 30.246836 17.590958 4.444217
5398 1800 1 0.4238 9.94641 27.25963 9.486031
5399 1800 2 -0.8476 10.130819 28.235398 9.603797
5400 1800 1 0.4238 11.11869 28.390645 9.600866
5401 1801 1 0.4238 32.591931 1.816374 25.649615
5402 1801 2 -0.8476 32.741667 1.499998 26.586357
5403 1801 1 0.4238 33.721167 1.506206 26.787705
5404 1802 1 0.4238 40.931623 36.137938 41.930726
5405 1802 2 -0.8476 40.365095 35.390379 42.277426
5406 1802 1 0.4238 39.421039 35.705321 42.375253
5407 1803 1 0.4238 4.048548 8.992562 35.811533
5408 1803 2 -0.8476 3.898411 8.312415 36.529069
5409 1803 1 0.4238 3.808232 8.773531 37.411814
5410 1804 1 0.4238 5.041944 44.078982 8.159075
5411 1804 2 -0.8476 5.867911 44.281073 8.685326
5412 1804 1 0.4238 6.083105 43.505504 9.278777
5413 1805 1 0.4238 37.172427 17.186788 22.301565
5414 1805 2 -0.8476 36.300048 17.161973 21.813364
5415 1805 1 0.4238 36.053474 18.086958 21.52422
5416 1806 1 0.4238 1.671097 7.82511 39.599394
5417 1806 2 -0.8476 1.501545 6.882672 39.311187
5418 1806 1 0.4238 1.569954 6.821207 38.315426
5419 1807 1 0.4238 7.673711 17.512849 3.567976
5420 1807 2 -0.8476 8.29923 17.364667 4.333983
5421 1807 1 0.4238 8.141648 18.062421 5.032773
5422 1808 1 0.4238 11.706822 7.798282 48.175067
5423 1808 2 -0.8476 12.61588 7.381613 48.176177
5424 1808 1 0.4238 13.311719 8.099807 48.178518
5425 1809 1 0.4238 46.145073 4.475157 37.994075
5426 1809 2 -0.8476 46.50048 5.408011 37.935169
5427 1809 1 0.4238 45.833584 6.043923 38.323583
5428 1810 1 0.4238 45.711587 22.193746 25.072094
5429 1810 2 -0.8476 45.705146 22.734773 25.913075
5430 1810 1 0.4238 45.995527 22.162349 26.679893
5431 1811 1 0.4238 29.603136 30.995237 45.262412
5432 1811 2 -0.8476 30.240277 30.261341 45.026941
5433 1811 1 0.4238 30.996717 30.254042 45.680963
5434 1812 1 0.4238 3.096764 36.778898 29.075383
5435 1812 2 -0.8476 2.190401 36.458172 28.800351
5436 1812 1 0.4238 1.50002 37.120642 29.091052
5437 1813 1 0.4238 3.711269 11.935383 46.195979
5438 1813 2 -0.8476 4.705245 11.864433 46.279502
5439 1813 1 0.4238 5.022254 11.045189 45.801648
5440 1814 1 0.4238 7.658593 48.178017 48.113178
5441 1814 2 -0.8476 6.73895 47.790662 48.178078
5442 1814 1 0.4238 6.162581 48.178009 47.458521
5443 1815 1 0.4238 29.803458 2.652731 25.418839
5444 1815 2 -0.8476 29.941092 1.670917 25.288081
5445 1815 1 0.4238 30.256926 1.5 24.354788
5446 1816 1 0.4238 31.2254 29.768134 31.760924
5447 1816 2 -0.8476 31.472359 29.005838 32.359184
5448 1816 1 0.4238 31.415097 29.299017 33.313525
5449 1817 1 0.4238 47.905052 43.282796 1.68422
5450 1817 2 -0.8476 47.008941 42.874349 1.510562
5451 1817 1 0.4238 46.300146 43.426938 1.949031
5452 1818 1 0.4238 39.845217 3.613778 7.538958
5453 1818 2 -0.8476 40.34051 4.479855 7.60674
5454 1818 1 0.4238 39.690594 5.23908 7.572281
5455 1819 1 0.4238 1.728192 11.990645 44.058215
5456 1819 2 -0.8476 1.500506 11.913892 45.02892
5457 1819 1 0.4238 1.498844 12.823747 45.443844
5458 1820 1 0.4238 41.634085 40.207733 22.632392
5459 1820 2 -0.8476 41.793465 40.028998 23.603294
5460 1820 1 0.4238 42.489199 39.317428 23.701392
5461 1821 1 0.4238 11.896412 10.248838 8.393693
5462 1821 2 -0.8476 11.636373 9.292797 8.258171
5463 1821 1 0.4238 10.824821 9.087361 8.805143
5464 1822 1 0.4238 24.268304 21.681586 12.096505
5465 1822 2 -0.8476 23.599805 21.32454 12.748905
5466 1822 1 0.4238 23.388245 22.027625 13.427812
5467 1823 1 0.4238 17.963637 41.610642 44.722548
5468 1823 2 -0.8476 17.89415 40.61795 44.821218
5469 1823 1 0.4238 18.797293 40.23903 45.023089
5470 1824 1 0.4238 43.485278 30.571003 4.11833
5471 1824 2 -0.8476 43.574567 29.659024 3.717928
5472 1824 1 0.4238 42.800093 29.093364 4.001157
5473 1825 1 0.4238 43.48488 43.591498 14.373439
5474 1825 2 -0.8476 44.006318 44.17871 13.754339
5475 1825 1 0.4238 44.504556 43.612034 13.098109
5476 1826 1 0.4238 23.937438 47.539434 9.25508
5477 1826 2 -0.8476 24.806228 47.950309 8.978703
5478 1826 1 0.4238 25.341022 48.178067 9.792411
5479 1827 1 0.4238 41.884015 18.131999 1.500011
5480 1827 2 -0.8476 42.279891 17.213695 1.499923
5481 1827 1 0.4238 42.282789 16.851889 2.432172
5482 1828 1 0.4238 46.722306 18.156704 3.74926
5483 1828 2 -0.8476 47.276031 17.336075 3.607995
5484 1828 1 0.4238 48.168582 17.595639 3.23924
5485 1829 1 0.4238 45.251811 14.206827 6.236383
5486 1829 2 -0.8476 45.53121 13.447159 5.649152
5487 1829 1 0.4238 44.946742 12.655582 5.827486
5488 1830 1 0.4238 39.116355 46.015708 4.645048
5489 1830 2 -0.8476 39.987295 45.595489 4.390332
5490 1830 1 0.4238 40.215322 45.845328 3.449277
5491 1831 1 0.4238 30.83893 2.685117 9.605016
5492 1831 2 -0.8476 31.273977 1.956156 10.133551
5493 1831 1 0.4238 30.587625 1.499965 10.699952
5494 1832 1 0.4238 30.804887 4.62614 32.991795
5495 1832 2 -0.8476 30.596833 4.519298 33.96406
5496 1832 1 0.4238 30.910172 5.327465 34.462742
5497 1833 1 0.4238 28.030862 7.135496 25.053076
5498 1833 2 -0.8476 27.232848 6.838344 25.57736
5499 1833 1 0.4238 27.45449 5.999918 26.075271
5500 1834 1 0.4238 33.85792 29.825874 6.080598
5501 1834 2 -0.8476 34.54778 30.301164 6.626667
5502 1834 1 0.4238 34.859966 29.702147 7.364039
5503 1835 1 0.4238 17.281111 31.824026 24.09349
5504 1835 2 -0.8476 18.162008 32.245366 24.309114
5505 1835 1 0.4238 18.026483 33.214577 24.514696
5506 1836 1 0.4238 7.406311 11.845837 42.191807
5507 1836 2 -0.8476 8.21047 11.494882 42.671555
5508 1836 1 0.4238 8.938502 12.179991 42.647172
5509 1837 1 0.4238 44.231443 45.781669 19.898782
5510 1837 2 -0.8476 43.73892 44.91432 19.970377
5511 1837 1 0.4238 42.757894 45.093263 20.044987
5512 1838 1 0.4238 34.185239 5.186193 23.972295
5513 1838 2 -0.8476 33.476057 5.234672 24.675652
5514 1838 1 0.4238 32.802382 4.512204 24.520084
5515 1839 1 0.4238 7.742746 45.995626 43.575592
5516 1839 2 -0.8476 8.411976 45.336025 43.233457
5517 1839 1 0.4238 8.959055 45.760112 42.511755
5518 1840 1 0.4238 40.823178 15.624001 22.74451
5519 1840 2 -0.8476 39.910758 15.3836 22.413303
5520 1840 1 0.4238 39.593987 16.082639 21.772211
5521 1841 1 0.4238 6.576797 5.979135 11.569007
5522 1841 2 -0.8476 6.43318 6.229123 12.526546
5523 1841 1 0.4238 6.174764 5.416018 13.04816
5524 1842 1 0.4238 20.484077 48.177995 44.799456
5525 1842 2 -0.8476 21.20565 47.604638 45.18752
5526 1842 1 0.4238 21.852448 48.177818 45.690627
5527 1843 1 0.4238 48.1581 48.147343 10.790003
5528 1843 2 -0.8476 47.286721 47.971022 10.332171
5529 1843 1 0.4238 46.53398 48.17803 10.957093
5530 1844 1 0.4238 20.748887 48.17795 15.891064
5531 1844 2 -0.8476 21.469591 48.145858 15.198564
5532 1844 1 0.4238 22.359851 48.068266 15.647359
5533 1845 1 0.4238 32.353967 32.919591 32.308602
5534 1845 2 -0.8476 33.278296 33.182689 32.032206
5535 1845 1 0.4238 33.39209 34.169622 32.14628
5536 1846 1 0.4238 24.640259 12.972915 31.675654
5537 1846 2 -0.8476 25.383959 13.448285 32.14569
5538 1846 1 0.4238 25.604853 14.290375 31.653664
5539 1847 1 0.4238 20.528799 35.665048 39.410687
5540 1847 2 -0.8476 20.468173 36.558822 38.966284
5541 1847 1 0.4238 20.542755 36.444256 37.975672
5542 1848 1 0.4238 39.484369 44.127198 34.603288
5543 1848 2 -0.8476 40.064261 43.525385 34.054156
5544 1848 1 0.4238 40.767844 43.118131 34.636491
5545 1849 1 0.4238 28.027347 7.527721 48.16954
5546 1849 2 -0.8476 27.038764 7.678397 48.170473
5547 1849 1 0.4238 26.851319 8.660643 48.177987
5548 1850 1 0.4238 33.653551 42.450337 45.770521
5549 1850 2 -0.8476 34.593738 42.745525 45.600482
5550 1850 1 0.4238 34.598093 43.711197 45.340757
5551 1851 1 0.4238 35.350753 8.26011 2.532199
5552 1851 2 -0.8476 36.282802 8.279081 2.170365
5553 1851 1 0.4238 36.934782 8.200254 2.924492
5554 1852 1 0.4238 18.900093 2.391605 39.862225
5555 1852 2 -0.8476 18.580749 1.5413 39.443893
5556 1852 1 0.4238 17.582805 1.499999 39.492881
5557 1853 1 0.4238 28.901492 3.881014 48.178081
5558 1853 2 -0.8476 29.89356 4.000257 48.138305
5559 1853 1 0.4238 30.109615 4.973985 48.066375
5560 1854 1 0.4238 30.272553 40.600927 39.602829
5561 1854 2 -0.8476 29.647686 41.082416 40.217409
5562 1854 1 0.4238 29.582991 40.585858 41.082998
5563 1855 1 0.4238 32.033146 11.111733 3.857813
5564 1855 2 -0.8476 32.176802 11.569599 4.735151
5565 1855 1 0.4238 33.144802 11.521803 4.981508
5566 1856 1 0.4238 10.515243 1.499798 43.408561
5567 1856 2 -0.8476 9.723634 2.074526 43.201098
5568 1856 1 0.4238 8.91262 1.499172 43.095155
5569 1857 1 0.4238 25.049352 43.051415 6.656827
5570 1857 2 -0.8476 24.477601 42.556042 7.31082
5571 1857 1 0.4238 24.073984 41.758089 6.863201
5572 1858 1 0.4238 41.368983 29.856292 45.760956
5573 1858 2 -0.8476 41.645421 30.776016 45.482228
5574 1858 1 0.4238 42.622582 30.897547 45.656543
5575 1859 1 0.4238 7.977544 34.431273 1.499871
5576 1859 2 -0.8476 8.910934 34.688686 1.749914
5577 1859 1 0.4238 9.04676 34.539621 2.729368
5578 1860 1 0.4238 18.468586 21.272438 28.898683
5579 1860 2 -0.8476 17.654111 21.673239 29.318193
5580 1860 1 0.4238 17.090083 20.947115 29.711405
5581 1861 1 0.4238 1.499985 8.685086 5.561636
5582 1861 2 -0.8476 1.698089 8.971071 6.499169
5583 1861 1 0.4238 1.791241 8.163389 7.081382
5584 1862 1 0.4238 29.47423 46.191268 18.212005
5585 1862 2 -0.8476 28.825029 45.850713 18.892122
5586 1862 1 0.4238 29.325153 45.428626 19.648243
5587 1863 1 0.4238 19.55383 43.659872 43.987931
5588 1863 2 -0.8476 19.550634 44.27775 43.201664
5589 1863 1 0.4238 20.087815 43.876129 42.459953
5590 1864 1 0.4238 15.001873 23.808726 30.606453
5591 1864 2 -0.8476 14.193244 23.882364 31.190145
5592 1864 1 0.4238 13.741722 24.759215 31.025041
5593 1865 1 0.4238 48.17799 19.915935 17.904297
5594 1865 2 -0.8476 47.886691 20.410257 18.723315
5595 1865 1 0.4238 48.17796 19.907603 19.537257
5596 1866 1 0.4238 36.780648 36.604152 15.542414
5597 1866 2 -0.8476 37.632048 36.121023 15.746627
5598 1866 1 0.4238 37.458936 35.136427 15.771179
5599 1867 1 0.4238 24.755846 8.012162 14.204344
5600 1867 2 -0.8476 25.415004 8.259211 14.91461
5601 1867 1 0.4238 25.344149 9.237498 15.109373
5602 1868 1 0.4238 34.265832 4.016174 38.964014
5603 1868 2 -0.8476 33.591599 4.412046 39.587469
5604 1868 1 0.4238 33.394719 3.76234 40.321717
5605 1869 1 0.4238 18.403976 31.454278 47.267201
5606 1869 2 -0.8476 18.670447 31.770176 48.177806
5607 1869 1 0.4238 19.625035 32.067647 48.161303
5608 1870 1 0.4238 43.886948 40.312645 13.809174
5609 1870 2 -0.8476 43.524665 41.101859 13.313299
5610 1870 1 0.4238 42.971802 40.785937 12.542237
5611 1871 1 0.4238 23.939261 47.366251 38.132555
5612 1871 2 -0.8476 24.443971 48.178003 37.838741
5613 1871 1 0.4238 25.399672 47.934534 37.673337
5614 1872 1 0.4238 39.438427 24.019873 10.057179
5615 1872 2 -0.8476 39.040144 24.937097 10.04877
5616 1872 1 0.4238 38.042776 24.86723 10.029394
5617 1873 1 0.4238 23.792361 41.551957 16.508702
5618 1873 2 -0.8476 22.882919 41.3829 16.888616
5619 1873 1 0.4238 22.648815 42.113105 17.530485
5620 1874 1 0.4238 16.333949 15.966035 31.852314
5621 1874 2 -0.8476 15.678129 15.211125 31.849013
5622 1874 1 0.4238 15.479603 14.937949 32.790268
5623 1875 1 0.4238 38.806996 8.193076 10.466654
5624 1875 2 -0.8476 38.764048 7.344521 9.939293
5625 1875 1 0.4238 39.277394 7.454671 9.088209
5626 1876 1 0.4238 7.754663 42.767017 15.774455
5627 1876 2 -0.8476 6.795828 42.758902 15.490606
5628 1876 1 0.4238 6.429142 43.688477 15.528424
5629 1877 1 0.4238 26.297597 48.178017 6.744355
5630 1877 2 -0.8476 26.570148 47.240461 6.528242
5631 1877 1 0.4238 25.956623 46.600085 6.990309
5632 1878 1 0.4238 9.899941 23.33541 17.771862
5633 1878 2 -0.8476 9.333894 24.158257 17.822008
5634 1878 1 0.4238 9.860217 24.900068 18.23758
5635 1879 1 0.4238 3.966251 10.559692 39.270962
5636 1879 2 -0.8476 4.344045 9.720646 39.662463
5637 1879 1 0.4238 3.682772 9.322209 40.298046
5638 1880 1 0.4238 25.590642 5.416729 19.78499
5639 1880 2 -0.8476 24.672872 5.773881 19.611378
5640 1880 1 0.4238 24.48212 5.740066 18.630323
5641 1881 1 0.4238 38.769398 38.674981 48.178289
5642 1881 2 -0.8476 39.686664 38.930253 47.872579
5643 1881 1 0.4238 39.858152 39.889372 48.097705
5644 1882 1 0.4238 29.874815 44.781063 34.085604
5645 1882 2 -0.8476 29.471711 45.616558 33.712165
5646 1882 1 0.4238 30.2001 46.236964 33.4214
5647 1883 1 0.4238 6.709645 15.382331 11.082579
5648 1883 2 -0.8476 7.290762 15.930528 10.481094
5649 1883 1 0.4238 6.895828 15.949396 9.562579
5650 1884 1 0.4238 7.888608 7.033424 1.796688
5651 1884 2 -0.8476 6.907072 7.113166 1.970553
5652 1884 1 0.4238 6.555527 7.936685 1.525321
5653 1885 1 0.4238 18.153547 26.404791 23.4767
5654 1885 2 -0.8476 18.983836 25.952769 23.802731
5655 1885 1 0.4238 18.799281 24.980631 23.947254
5656 1886 1 0.4238 30.585287 12.141993 9.540565
5657 1886 2 -0.8476 31.348268 12.055956 8.899895
5658 1886 1 0.4238 32.211319 12.07759 9.404549
5659 1887 1 0.4238 11.384168 12.023873 28.854942
5660 1887 2 -0.8476 12.35296 12.26424 28.91548
5661 1887 1 0.4238 12.44661 13.168614 29.331818
5662 1888 1 0.4238 35.779732 35.507897 5.675381
5663 1888 2 -0.8476 36.606445 36.051939 5.53198
5664 1888 1 0.4238 37.213434 35.574731 4.896499
5665 1889 1 0.4238 2.652891 3.782922 31.924199
5666 1889 2 -0.8476 1.895374 4.160453 32.456776
5667 1889 1 0.4238 1.499951 4.938508 31.968646
5668 1890 1 0.4238 16.378869 14.336637 44.006875
5669 1890 2 -0.8476 15.481745 14.136776 43.612889
5670 1890 1 0.4238 14.949946 14.981265 43.549424
5671 1891 1 0.4238 34.315921 25.931812 3.222745
5672 1891 2 -0.8476 34.364741 26.837156 2.800882
5673 1891 1 0.4238 34.864286 26.775732 1.936775
5674 1892 1 0.4238 25.041793 43.943305 34.421672
5675 1892 2 -0.8476 25.517573 43.208603 34.905248
5676 1892 1 0.4238 24.871678 42.726015 35.496796
5677 1893 1 0.4238 41.620579 18.925626 18.53269
5678 1893 2 -0.8476 41.620737 19.917401 18.404695
5679 1893 1 0.4238 42.165998 20.149434 17.599182
5680 1894 1 0.4238 39.80296 39.438941 44.788513
5681 1894 2 -0.8476 40.450846 39.181996 45.505606
5682 1894 1 0.4238 40.921663 39.999264 45.837877
5683 1895 1 0.4238 2.496254 26.43339 9.635927
5684 1895 2 -0.8476 1.682499 25.861732 9.530998
5685 1895 1 0.4238 1.506242 25.708031 8.558728
5686 1896 1 0.4238 17.464934 22.376175 19.14096
5687 1896 2 -0.8476 17.86523 22.176139 20.035247
5688 1896 1 0.4238 18.85032 22.345477 20.004897
5689 1897 1 0.4238 18.774268 20.925537 40.464413
5690 1897 2 -0.8476 19.761724 20.800499 40.367997
5691 1897 1 0.4238 20.235616 21.610024 40.714545
5692 1898 1 0.4238 38.996428 8.162402 28.458834
5693 1898 2 -0.8476 39.722437 7.589805 28.839679
5694 1898 1 0.4238 39.392487 7.142119 29.670768
5695 1899 1 0.4238 23.47142 39.773277 1.499858
5696 1899 2 -0.8476 23.4686 40.747036 1.727419
5697 1899 1 0.4238 22.527076 41.083761 1.739585
5698 1900 1 0.4238 43.79751 37.113631 1.544507
5699 1900 2 -0.8476 42.829801 37.365694 1.546335
5700 1900 1 0.4238 42.744903 38.36208 1.548858
5701 1901 1 0.4238 8.535071 5.218792 27.667466
5702 1901 2 -0.8476 8.375787 6.205745 27.64394
5703 1901 1 0.4238 7.400126 6.382923 27.514737
5704 1902 1 0.4238 45.449506 32.348183 15.485748
5705 1902 2 -0.8476 44.640856 31.767246 15.578465
5706 1902 1 0.4238 44.50892 31.242889 14.73725
5707 1903 1 0.4238 7.925528 30.125524 5.375899
5708 1903 2 -0.8476 8.815812 30.503403 5.630069
5709 1903 1 0.4238 8.718916 31.478028 5.831851
5710 1904 1 0.4238 26.738873 1.499985 14.377927
5711 1904 2 -0.8476 27.28029 1.866875 13.621448
5712 1904 1 0.4238 28.209491 1.500251 13.668061
5713 1905 1 0.4238 1.506764 9.944979 2.855528
5714 1905 2 -0.8476 2.281564 9.818658 3.474985
5715 1905 1 0.4238 2.927944 10.572706 3.35835
5716 1906 1 0.4238 36.8654 3.500081 39.373211
5717 1906 2 -0.8476 36.304366 3.150027 40.123347
5718 1906 1 0.4238 36.04229 3.905272 40.724113
5719 1907 1 0.4238 6.195838 7.16331 33.792361
5720 1907 2 -0.8476 5.858465 6.543949 34.501284
5721 1907 1 0.4238 6.359829 6.705607 35.351284
5722 1908 1 0.4238 6.379609 3.200764 45.961313
5723 1908 2 -0.8476 6.013886 4.088567 46.240692
5724 1908 1 0.4238 6.707165 4.794783 46.097086
5725 1909 1 0.4238 43.787332 22.29575 18.397011
5726 1909 2 -0.8476 43.271993 22.872566 19.030815
5727 1909 1 0.4238 42.424507 23.173629 18.593633
5728 1910 1 0.4238 18.525081 25.188051 21.045833
5729 1910 2 -0.8476 18.726162 26.14154 20.821278
5730 1910 1 0.4238 19.634328 26.380529 21.16496
5731 1911 1 0.4238 8.567069 7.632315 31.014061
5732 1911 2 -0.8476 7.953213 7.662463 31.802903
5733 1911 1 0.4238 7.005012 7.690711 31.486492
5734 1912 1 0.4238 28.32854 4.135213 13.391364
5735 1912 2 -0.8476 27.577021 4.608429 12.931706
5736 1912 1 0.4238 26.704837 4.278316 13.292704
5737 1913 1 0.4238 7.421939 23.581223 41.247247
5738 1913 2 -0.8476 6.42875 23.676652 41.314093
5739 1913 1 0.4238 6.187248 24.646967 41.326952
5740 1914 1 0.4238 4.990509 11.325534 26.509389
5741 1914 2 -0.8476 5.234943 10.456231 26.938999
5742 1914 1 0.4238 5.481208 9.792851 26.232402
5743 1915 1 0.4238 40.46605 41.753716 44.116166
5744 1915 2 -0.8476 40.279996 42.590489 44.631136
5745 1915 1 0.4238 39.826169 43.253983 44.03631
5746 1916 1 0.4238 40.394751 7.320755 42.702547
5747 1916 2 -0.8476 39.657525 6.662599 42.855283
5748 1916 1 0.4238 38.949339 6.7882 42.16052
5749 1917 1 0.4238 2.268844 46.636278 37.005469
5750 1917 2 -0.8476 1.520664 46.860606 36.381046
5751 1917 1 0.4238 1.499976 46.196691 35.633525
5752 1918 1 0.4238 33.379436 8.522991 28.941023
5753 1918 2 -0.8476 33.984663 8.977157 28.287239
5754 1918 1 0.4238 34.788962 9.328793 28.766253
5755 1919 1 0.4238 43.007687 44.988908 5.02348
5756 1919 2 -0.8476 42.996795 44.078121 4.610748
5757 1919 1 0.4238 42.256917 44.024912 3.940115
5758 1920 1 0.4238 37.146173 45.120058 10.235067
5759 1920 2 -0.8476 37.881405 45.539299 10.767675
5760 1920 1 0.4238 38.753541 45.401113 10.298331
5761 1921 1 0.4238 2.543825 4.460524 43.246469
5762 1921 2 -0.8476 3.315759 3.895852 42.954471
5763 1921 1 0.4238 4.035992 4.48203 42.583445
5764 1922 1 0.4238 35.699964 22.940529 40.132785
5765 1922 2 -0.8476 34.813796 22.720733 39.724869
5766 1922 1 0.4238 34.655567 21.735021 39.782626
5767 1923 1 0.4238 17.941786 22.852751 45.917821
5768 1923 2 -0.8476 18.839453 22.416363 45.856493
5769 1923 1 0.4238 19.551571 23.08929 46.056633
5770 1924 1 0.4238 12.622674 37.764647 40.955728
5771 1924 2 -0.8476 13.538446 37.744812 41.356934
5772 1924 1 0.4238 13.606352 36.977653 41.994787
5773 1925 1 0.4238 37.04783 30.271807 42.263548
5774 1925 2 -0.8476 36.379814 30.861931 41.810217
5775 1925 1 0.4238 36.415588 31.776576 42.212888
5776 1926 1 0.4238 36.77521 13.365639 1.564523
5777 1926 2 -0.8476 36.047307 14.048402 1.501345
5778 1926 1 0.4238 35.379453 13.891909 2.228999
5779 1927 1 0.4238 40.239477 43.968569 8.871239
5780 1927 2 -0.8476 39.382812 43.452748 8.863807
5781 1927 1 0.4238 39.582284 42.474476 8.920333
5782 1928 1 0.4238 46.034772 35.025202 23.466852
5783 1928 2 -0.8476 46.083904 35.88661 23.972384
5784 1928 1 0.4238 45.596719 35.791852 24.840527
5785 1929 1 0.4238 15.323982 45.085405 30.944766
5786 1929 2 -0.8476 16.084987 44.719808 31.480686
5787 1929 1 0.4238 16.586579 45.47384 31.904762
5788 1930 1 0.4238 15.631298 7.537031 47.435048
5789 1930 2 -0.8476 15.42514 6.989397 46.624126
5790 1930 1 0.4238 14.586592 6.467053 46.779028
5791 1931 1 0.4238 17.282059 48.146236 48.009554
5792 1931 2 -0.8476 18.237784 48.14663 47.715291
5793 1931 1 0.4238 18.725666 47.399175 48.16616
5794 1932 1 0.4238 10.299308 44.102296 15.638047
5795 1932 2 -0.8476 10.721906 43.429804 16.245638
5796 1932 1 0.4238 10.107229 43.239501 17.011116
5797 1933 1 0.4238 6.515401 22.916504 7.33263
5798 1933 2 -0.8476 6.174942 22.562261 6.461654
5799 1933 1 0.4238 6.326553 21.574642 6.421385
5800 1934 1 0.4238 30.614152 3.032517 18.45827
5801 1934 2 -0.8476 29.894197 2.533314 17.976129
5802 1934 1 0.4238 30.265027 1.676248 17.618466
5803 1935 1 0.4238 40.513318 9.544671 2.191099
5804 1935 2 -0.8476 41.228393 9.440101 1.499918
5805 1935 1 0.4238 42.114384 9.677178 1.898433
5806 1936 1 0.4238 10.403457 2.585922 1.499931
5807 1936 2 -0.8476 10.512518 1.621391 1.740318
5808 1936 1 0.4238 11.361751 1.499911 2.254171
5809 1937 1 0.4238 3.549329 11.500349 41.816037
5810 1937 2 -0.8476 4.503298 11.292257 41.60007
5811 1937 1 0.4238 5.012667 12.145075 41.484985
5812 1938 1 0.4238 15.35201 36.196976 29.517963
5813 1938 2 -0.8476 15.049739 35.319506 29.145565
5814 1938 1 0.4238 14.077922 35.371958 28.915741
5815 1939 1 0.4238 4.245557 44.920162 23.814564
5816 1939 2 -0.8476 4.002861 45.728933 23.27885
5817 1939 1 0.4238 3.018553 45.728806 23.102397
5818 1940 1 0.4238 3.742198 11.996966 24.400453
5819 1940 2 -0.8476 3.151086 12.772969 24.620466
5820 1940 1 0.4238 3.677626 13.462643 25.117562
5821 1941 1 0.4238 10.544165 48.161755 17.82621
5822 1941 2 -0.8476 10.200745 47.605697 18.583086
5823 1941 1 0.4238 10.098066 48.177541 19.396997
5824 1942 1 0.4238 3.741345 37.503547 21.829663
5825 1942 2 -0.8476 4.099915 36.922476 21.099057
5826 1942 1 0.4238 4.405806 36.052199 21.485123
5827 1943 1 0.4238 19.077641 20.374572 31.491364
5828 1943 2 -0.8476 20.010326 20.017563 31.439965
5829 1943 1 0.4238 20.475541 20.413308 30.648156
5830 1944 1 0.4238 12.834733 24.547884 14.044507
5831 1944 2 -0.8476 11.903157 24.794597 13.777489
5832 1944 1 0.4238 11.543284 24.105722 13.148248
5833 1945 1 0.4238 15.370176 22.538574 48.063403
5834 1945 2 -0.8476 16.160586 21.927012 48.028115
5835 1945 1 0.4238 15.860158 20.985059 48.178004
5836 1946 1 0.4238 47.482286 21.278795 10.892146
5837 1946 2 -0.8476 48.178039 21.800601 10.398541
5838 1946 1 0.4238 47.733128 22.428714 9.760162
5839 1947 1 0.4238 36.69719 17.086256 43.259987
5840 1947 2 -0.8476 37.180635 17.335909 44.099007
5841 1947 1 0.4238 38.120488 17.59583 43.877386
5842 1948 1 0.4238 34.968093 18.671441 32.737943
5843 1948 2 -0.8476 34.943386 18.655085 33.737504
5844 1948 1 0.4238 35.858194 18.839954 34.096601
5845 1949 1 0.4238 13.242561 3.967164 5.568211
5846 1949 2 -0.8476 13.681471 4.010955 4.670747
5847 1949 1 0.4238 13.181666 4.650005 4.086102
5848 1950 1 0.4238 27.417736 10.890679 30.696002
5849 1950 2 -0.8476 26.798871 11.671228 30.607969
5850 1950 1 0.4238 27.332868 12.507909 30.486263
5851 1951 1 0.4238 29.880465 1.552883 21.883863
5852 1951 2 -0.8476 29.25014 1.499992 21.109335
5853 1951 1 0.4238 29.769886 1.513137 20.255115
5854 1952 1 0.4238 30.174862 35.074306 16.843732
5855 1952 2 -0.8476 30.131827 34.644923 17.745829
5856 1952 1 0.4238 30.451665 33.699694 17.68066
5857 1953 1 0.4238 22.337964 20.07793 18.619162
5858 1953 2 -0.8476 21.694204 20.704858 18.180375
5859 1953 1 0.4238 22.106405 21.613553 18.114319
5860 1954 1 0.4238 37.203915 47.428607 9.277213
5861 1954 2 -0.8476 36.607259 48.178105 9.564011
5862 1954 1 0.4238 35.837648 47.810404 10.086022
5863 1955 1 0.4238 42.093206 24.947209 46.686311
5864 1955 2 -0.8476 42.859507 24.919967 46.044408
5865 1955 1 0.4238 43.065232 23.969581 45.811077
5866 1956 1 0.4238 47.003805 36.519346 48.177187
5867 1956 2 -0.8476 47.214921 36.285893 47.228013
5868 1956 1 0.4238 48.173749 36.010725 47.157793
5869 1957 1 0.4238 48.178069 8.415977 20.806438
5870 1957 2 -0.8476 47.202133 8.242372 20.938385
5871 1957 1 0.4238 46.749363 8.191155 20.048231
5872 1958 1 0.4238 19.55872 22.303698 17.363378
5873 1958 2 -0.8476 20.08467 23.076297 17.007755
5874 1958 1 0.4238 19.461161 23.748111 16.607878
5875 1959 1 0.4238 24.837943 22.106227 21.783772
5876 1959 2 -0.8476 23.86184 21.893097 21.826168
5877 1959 1 0.4238 23.738209 20.901196 21.855252
5878 1960 1 0.4238 25.344139 36.547823 22.124442
5879 1960 2 -0.8476 24.631296 36.185419 22.724873
5880 1960 1 0.4238 24.475406 35.220712 22.512649
5881 1961 1 0.4238 42.020893 7.202467 44.626646
5882 1961 2 -0.8476 42.334853 6.466077 44.027347
5883 1961 1 0.4238 43.201563 6.103863 44.370298
5884 1962 1 0.4238 38.721049 7.763278 48.178342
5885 1962 2 -0.8476 37.784547 8.11392 48.174545
5886 1962 1 0.4238 37.141804 7.347839 48.173811
5887 1963 1 0.4238 14.316641 45.286277 45.41183
5888 1963 2 -0.8476 15.140736 44.727325 45.319959
5889 1963 1 0.4238 14.886814 43.760367 45.297253
5890 1964 1 0.4238 39.695579 21.936379 22.68103
5891 1964 2 -0.8476 40.346887 22.693027 22.738304
5892 1964 1 0.4238 41.011869 22.506397 23.461469
5893 1965 1 0.4238 11.829795 9.324496 20.113275
5894 1965 2 -0.8476 11.430706 9.749248 19.300679
5895 1965 1 0.4238 11.298557 9.055447 18.592741
5896 1966 1 0.4238 5.161653 40.312761 40.393944
5897 1966 2 -0.8476 4.568648 40.030829 39.639717
5898 1966 1 0.4238 3.612039 40.112218 39.919493
5899 1967 1 0.4238 20.860844 35.818507 28.828347
5900 1967 2 -0.8476 19.938111 35.636265 29.167981
5901 1967 1 0.4238 19.928664 34.762994 29.655124
5902 1968 1 0.4238 1.73373 15.044522 46.567434
5903 1968 2 -0.8476 1.499837 15.706241 47.27977
5904 1968 1 0.4238 1.526661 15.257722 48.173141
5905 1969 1 0.4238 29.277171 48.177999 26.746094
5906 1969 2 -0.8476 30.01386 47.667012 26.303171
5907 1969 1 0.4238 29.655878 46.800809 25.954544
5908 1970 1 0.4238 5.016805 22.572537 1.499992
5909 1970 2 -0.8476 5.110019 23.555388 1.659101
5910 1970 1 0.4238 4.761418 23.78028 2.568991
5911 1971 1 0.4238 45.065707 5.017686 14.976171
5912 1971 2 -0.8476 44.36101 4.5509 15.510505
5913 1971 1 0.4238 44.781215 3.82354 16.053067
5914 1972 1 0.4238 36.504567 23.68323 30.694791
5915 1972 2 -0.8476 36.752492 24.609782 30.411887
5916 1972 1 0.4238 37.727924 24.758217 30.574678
5917 1973 1 0.4238 5.398158 3.243993 11.13612
5918 1973 2 -0.8476 6.089286 2.650523 11.548592
5919 1973 1 0.4238 6.763655 3.209526 12.031024
5920 1974 1 0.4238 48.177998 32.628967 22.638264
5921 1974 2 -0.8476 47.600871 33.340415 22.237307
5922 1974 1 0.4238 48.178 34.067316 21.865102
5923 1975 1 0.4238 13.913868 39.096338 11.122943
5924 1975 2 -0.8476 12.989393 39.395705 11.359005
5925 1975 1 0.4238 12.866195 39.34706 12.350194
5926 1976 1 0.4238 17.011841 39.622762 31.416746
5927 1976 2 -0.8476 17.617627 38.838329 31.283748
5928 1976 1 0.4238 17.086666 37.993104 31.34436
5929 1977 1 0.4238 27.671932 31.216538 13.09727
5930 1977 2 -0.8476 27.971533 32.135254 13.354565
5931 1977 1 0.4238 28.970777 32.16529 13.379221
5932 1978 1 0.4238 16.466398 6.477122 1.531747
5933 1978 2 -0.8476 15.81462 6.99396 2.086782
5934 1978 1 0.4238 15.297242 7.61672 1.49985
5935 1979 1 0.4238 42.478524 29.959681 6.324101
5936 1979 2 -0.8476 42.25715 29.720762 7.26957
5937 1979 1 0.4238 41.565699 30.352574 7.619868
5938 1980 1 0.4238 13.91138 16.452734 23.923358
5939 1980 2 -0.8476 13.424612 17.164927 24.429162
5940 1980 1 0.4238 13.628602 17.079725 25.404421
5941 1981 1 0.4238 44.850755 44.765528 40.960907
5942 1981 2 -0.8476 45.627498 44.913364 40.348685
5943 1981 1 0.4238 45.685653 44.158237 39.695692
5944 1982 1 0.4238 28.078127 20.892866 44.152399
5945 1982 2 -0.8476 28.321305 21.803845 44.485538
5946 1982 1 0.4238 29.287771 21.817975 44.741941
5947 1983 1 0.4238 4.269957 22.98211 44.153493
5948 1983 2 -0.8476 4.976817 23.610458 43.82864
5949 1983 1 0.4238 4.547977 24.372555 43.343559
5950 1984 1 0.4238 46.533284 1.499653 12.505563
5951 1984 2 -0.8476 47.049725 1.736191 11.682557
5952 1984 1 0.4238 48.013969 1.507804 11.81699
5953 1985 1 0.4238 33.605933 45.082374 5.894314
5954 1985 2 -0.8476 33.964638 45.469728 6.7436
5955 1985 1 0.4238 34.756971 46.044568 6.53923
5956 1986 1 0.4238 37.099159 30.843392 16.848764
5957 1986 2 -0.8476 36.631076 30.307399 16.146191
5958 1986 1 0.4238 36.878159 29.343226 16.242725
5959 1987 1 0.4238 16.074789 16.014516 10.698426
5960 1987 2 -0.8476 15.93708 16.692607 11.420388
5961 1987 1 0.4238 14.993412 16.644025 11.747695
5962 1988 1 0.4238 47.507998 47.031285 12.95365
5963 1988 2 -0.8476 47.234086 46.094905 13.173118
5964 1988 1 0.4238 46.498448 46.112843 13.850255
5965 1989 1 0.4238 8.658758 36.490802 41.534859
5966 1989 2 -0.8476 9.034544 35.768518 42.115455
5967 1989 1 0.4238 8.2895 35.304881 42.594985
5968 1990 1 0.4238 1.499993 36.016252 4.074223
5969 1990 2 -0.8476 2.479418 35.814939 4.088309
5970 1990 1 0.4238 2.994988 36.670661 4.132208
5971 1991 1 0.4238 31.451186 48.178009 38.769151
5972 1991 2 -0.8476 32.085751 48.178002 37.996281
5973 1991 1 0.4238 32.208128 47.242263 37.665501
5974 1992 1 0.4238 10.432792 46.684545 44.59069
5975 1992 2 -0.8476 10.65625 45.740718 44.347263
5976 1992 1 0.4238 11.628747 45.67548 44.123672
5977 1993 1 0.4238 6.914834 47.9169 16.308642
5978 1993 2 -0.8476 7.873992 48.178477 16.416314
5979 1993 1 0.4238 8.425795 47.361136 16.582044
5980 1994 1 0.4238 12.965484 5.182345 38.69872
5981 1994 2 -0.8476 13.282661 5.59498 37.844828
5982 1994 1 0.4238 12.543926 5.576377 37.171089
5983 1995 1 0.4238 1.702912 18.181306 10.88405
5984 1995 2 -0.8476 1.499973 18.92989 11.51527
5985 1995 1 0.4238 1.658962 19.804483 11.057222
5986 1996 1 0.4238 25.352817 47.871539 41.788444
5987 1996 2 -0.8476 25.782303 48.178139 40.939009
5988 1996 1 0.4238 25.355599 47.71344 40.163137
5989 1997 1 0.4238 46.156885 44.786838 11.036007
5990 1997 2 -0.8476 45.61678 44.00372 10.727765
5991 1997 1 0.4238 44.650965 44.259876 10.687954
5992 1998 1 0.4238 29.917111 6.511213 42.660918
5993 1998 2 -0.8476 29.95597 6.624015 43.653775
5994 1998 1 0.4238 29.043129 6.49211 44.040199
5995 1999 1 0.4238 45.537121 43.958598 21.762674
5996 1999 2 -0.8476 45.223563 43.021434 21.91566
5997 1999 1 0.4238 45.824736 42.38561 21.431595
5998 2000 1 0.4238 44.472935 18.903314 15.079122
5999 2000 2 -0.8476 43.772081 18.212468 15.256699
6000 2000 1 0.4238 43.410644 18.334281 16.181104
6001 2001 1 0.4238 10.920604 31.170854 13.121005
6002 2001 2 -0.8476 10.157122 31.793625 13.292036
6003 2001 1 0.4238 10.491703 32.735924 13.30328
6004 2002 1 0.4238 28.296266 5.164317 28.697971
6005 2002 2 -0.8476 28.80882 4.382542 28.342844
6006 2002 1 0.4238 29.7874 4.534864 28.481332
6007 2003 1 0.4238 33.530007 24.252506 23.061335
6008 2003 2 -0.8476 34.135045 24.972074 22.720526
6009 2003 1 0.4238 33.602827 25.800785 22.547374
6010 2004 1 0.4238 25.235542 22.569788 3.908869
6011 2004 2 -0.8476 24.6639 21.808422 3.603013
6012 2004 1 0.4238 24.850578 21.003951 4.166908
6013 2005 1 0.4238 29.831328 26.071349 33.294291
6014 2005 2 -0.8476 29.482421 25.627778 34.119826
6015 2005 1 0.4238 30.005641 24.794159 34.296801
6016 2006 1 0.4238 17.347297 48.178016 40.248646
6017 2006 2 -0.8476 17.911474 47.777648 40.970734
6018 2006 1 0.4238 17.361082 47.138604 41.508034
6019 2007 1 0.4238 26.656173 37.735652 4.061498
6020 2007 2 -0.8476 27.563444 37.752187 4.481717
6021 2007 1 0.4238 28.253488 37.922849 3.778358
6022 2008 1 0.4238 24.119206 4.801222 22.070814
6023 2008 2 -0.8476 24.819622 4.251548 22.526088
6024 2008 1 0.4238 25.402526 3.818482 21.838572
6025 2009 1 0.4238 39.854064 18.548252 16.49214
6026 2009 2 -0.8476 39.119024 19.209866 16.640408
6027 2009 1 0.4238 39.506172 20.129763 16.702908
6028 2010 1 0.4238 7.964293 14.002872 29.011944
6029 2010 2 -0.8476 7.905442 13.013233 28.880983
6030 2010 1 0.4238 6.946342 12.745704 28.788488
6031 2011 1 0.4238 44.721755 44.454551 46.236187
6032 2011 2 -0.8476 43.912011 44.216973 45.69965
6033 2011 1 0.4238 43.574631 45.031134 45.227087
6034 2012 1 0.4238 8.451797 33.350739 15.927088
6035 2012 2 -0.8476 9.32888 33.821607 16.021998
6036 2012 1 0.4238 9.356575 34.301095 16.899109
6037 2013 1 0.4238 10.821389 35.891147 40.096375
6038 2013 2 -0.8476 10.68492 35.003372 39.656793
6039 2013 1 0.4238 9.778331 34.651742 39.890142
6040 2014 1 0.4238 28.127651 1.500001 33.165401
6041 2014 2 -0.8476 29.127645 1.500002 33.161951
6042 2014 1 0.4238 29.460949 2.442816 33.159092
6043 2015 1 0.4238 41.370597 8.053679 10.533732
6044 2015 2 -0.8476 42.102574 8.273476 9.88883
6045 2015 1 0.4238 41.846056 7.960794 8.974265
6046 2016 1 0.4238 1.499952 41.814558 1.575686
6047 2016 2 -0.8476 2.082824 42.625743 1.528372
6048 2016 1 0.4238 1.511166 43.445744 1.499969
6049 2017 1 0.4238 17.045852 12.248075 32.265773
6050 2017 2 -0.8476 17.297747 12.885315 32.99411
6051 2017 1 0.4238 16.72231 12.7203 33.795136
6052 2018 1 0.4238 22.461154 43.869013 26.121523
6053 2018 2 -0.8476 21.509376 44.107144 26.314944
6054 2018 1 0.4238 21.021987 43.296084 26.638414
6055 2019 1 0.4238 46.363603 14.988897 26.951672
6056 2019 2 -0.8476 46.217328 15.539397 27.773593
6057 2019 1 0.4238 45.827186 14.96581 28.493862
6058 2020 1 0.4238 8.290228 16.364595 19.171286
6059 2020 2 -0.8476 8.455624 15.541045 19.713881
6060 2020 1 0.4238 8.696175 15.800805 20.649113
6061 2021 1 0.4238 12.499404 42.710653 23.941681
6062 2021 2 -0.8476 12.00265 42.775463 24.80715
6063 2021 1 0.4238 11.357782 42.014565 24.879118
6064 2022 1 0.4238 15.654735 34.672085 11.415468
6065 2022 2 -0.8476 16.61907 34.93676 11.413147
6066 2022 1 0.4238 17.190044 34.115812 11.418776
6067 2023 1 0.4238 48.178104 3.141706 38.575665
6068 2023 2 -0.8476 47.601125 2.32496 38.571142
6069 2023 1 0.4238 48.178002 1.509113 38.61123
6070 2024 1 0.4238 6.881602 10.550672 10.578281
6071 2024 2 -0.8476 6.738956 9.856522 9.872725
6072 2024 1 0.4238 7.366661 9.093023 10.024562
6073 2025 1 0.4238 20.891293 24.261762 48.087818
6074 2025 2 -0.8476 21.505074 23.474522 48.028431
6075 2025 1 0.4238 20.984453 22.633937 48.177994
6076 2026 1 0.4238 12.241444 22.388401 28.441033
6077 2026 2 -0.8476 12.517827 23.015709 29.16911
6078 2026 1 0.4238 12.258528 23.949124 28.921115
6079 2027 1 0.4238 39.943008 44.792133 42.068375
6080 2027 2 -0.8476 39.342186 45.535767 41.775081
6081 2027 1 0.4238 39.58737 45.816045 40.847003
6082 2028 1 0.4238 23.406279 30.555133 17.267778
6083 2028 2 -0.8476 22.42788 30.402259 17.128617
6084 2028 1 0.4238 21.92353 30.718303 17.932201
6085 2029 1 0.4238 10.61389 6.41453 29.34461
6086 2029 2 -0.8476 10.595836 5.432296 29.531401
6087 2029 1 0.4238 9.815354 5.21906 30.119089
6088 2030 1 0.4238 10.662275 41.724424 33.030168
6089 2030 2 -0.8476 10.278454 42.613642 33.279111
6090 2030 1 0.4238 9.895399 43.05093 32.465447
6091 2031 1 0.4238 45.846621 8.113973 3.977233
6092 2031 2 -0.8476 44.964199 7.659947 3.853977
6093 2031 1 0.4238 45.097648 6.668934 3.844851
6094 2032 1 0.4238 34.78784 31.574274 1.90335
6095 2032 2 -0.8476 33.935373 31.90685 1.499996
6096 2032 1 0.4238 33.882426 32.899974 1.604399
6097 2033 1 0.4238 2.191053 39.366609 20.792432
6098 2033 2 -0.8476 1.824084 40.296311 20.823853
6099 2033 1 0.4238 1.506899 40.560412 19.913005
6100 2034 1 0.4238 42.617438 47.349627 23.451292
6101 2034 2 -0.8476 42.984504 48.178011 23.874426
6102 2034 1 0.4238 42.818079 48.150643 24.8601
6103 2035 1 0.4238 25.059798 17.611952 8.190482
6104 2035 2 -0.8476 25.757571 17.278776 7.556364
6105 2035 1 0.4238 25.469397 16.40034 7.175174
6106 2036 1 0.4238 14.23749 35.50666 33.418867
6107 2036 2 -0.8476 15.158296 35.367126 33.05466
6108 2036 1 0.4238 15.446265 36.183858 32.554639
6109 2037 1 0.4238 20.705536 28.714535 36.897063
6110 2037 2 -0.8476 19.927515 28.296418 37.365957
6111 2037 1 0.4238 19.353871 29.01255 37.763557
6112 2038 1 0.4238 27.236863 16.51236 33.897663
6113 2038 2 -0.8476 26.271125 16.724553 34.047078
6114 2038 1 0.4238 25.726857 15.892246 33.942021
6115 2039 1 0.4238 9.743697 6.026982 21.237734
6116 2039 2 -0.8476 9.036855 6.183995 21.92746
6117 2039 1 0.4238 9.387798 5.928894 22.828439
6118 2040 1 0.4238 16.934956 2.917597 47.528563
6119 2040 2 -0.8476 16.725862 2.186693 48.178224
6120 2040 1 0.4238 17.452316 1.499961 48.152479
6121 2041 1 0.4238 1.531347 47.410425 33.231317
6122 2041 2 -0.8476 1.526534 48.17138 33.880103
6123 2041 1 0.4238 2.385297 48.178021 34.392433
6124 2042 1 0.4238 38.494021 41.31088 15.86283
6125 2042 2 -0.8476 38.875414 40.710799 16.565997
6126 2042 1 0.4238 39.673168 41.148438 16.980798
6127 2043 1 0.4238 39.175514 1.944924 42.496884
6128 2043 2 -0.8476 38.407325 1.49848 42.038002
6129 2043 1 0.4238 38.235204 1.948655 41.161808
6130 2044 1 0.4238 15.851199 5.285978 17.353439
6131 2044 2 -0.8476 15.004201 4.826157 17.086682
6132 2044 1 0.4238 14.294999 5.509119 16.911764
6133 2045 1 0.4238 19.340572 42.670942 15.269477
6134 2045 2 -0.8476 19.385069 41.824803 15.80058
6135 2045 1 0.4238 20.267399 41.770731 16.268095
6136 2046 1 0.4238 34.683054 15.953043 44.692973
6137 2046 2 -0.8476 34.693139 16.885307 45.054611
6138 2046 1 0.4238 35.213371 16.90602 45.908384
6139 2047 1 0.4238 31.58242 5.870505 4.831912
6140 2047 2 -0.8476 30.91422 6.612777 4.781491
6141 2047 1 0.4238 29.992199 6.228575 4.733894
6142 2048 1 0.4238 21.171436 26.620061 43.931749
6143 2048 2 -0.8476 22.086981 27.019247 43.88249
6144 2048 1 0.4238 22.767808 26.319391 44.098536
6145 2049 1 0.4238 34.561578 8.867516 34.854204
6146 2049 2 -0.8476 34.654387 8.19701 34.118128
6147 2049 1 0.4238 35.420566 7.586321 34.318198
6148 2050 1 0.4238 39.93342 38.404967 17.679324
6149 2050 2 -0.8476 39.116578 37.916084 17.98553
6150 2050 1 0.4238 38.339432 38.17294 17.411013
6151 2051 1 0.4238 21.772467 39.36133 34.738463
6152 2051 2 -0.8476 20.887644 39.718243 34.438961
6153 2051 1 0.4238 20.182237 39.024235 34.583023
6154 2052 1 0.4238 8.816996 37.009533 6.39668
6155 2052 2 -0.8476 9.589943 37.04296 7.03027
6156 2052 1 0.4238 9.629381 37.944746 7.460651
6157 2053 1 0.4238 23.758225 25.72841 41.298157
6158 2053 2 -0.8476 23.0311 26.406184 41.407299
6159 2053 1 0.4238 23.435255 27.315288 41.508236
6160 2054 1 0.4238 21.805851 39.064233 42.724959
6161 2054 2 -0.8476 21.924811 39.623449 43.545402
6162 2054 1 0.4238 21.084034 40.13396 43.725604
6163 2055 1 0.4238 3.789727 11.65554 32.132696
6164 2055 2 -0.8476 4.287223 12.515004 32.250259
6165 2055 1 0.4238 3.863087 13.225189 31.688347
6166 2056 1 0.4238 25.015323 27.91256 20.966858
6167 2056 2 -0.8476 24.745577 26.949942 20.942283
6168 2056 1 0.4238 25.539437 26.387106 20.712063
6169 2057 1 0.4238 26.880915 2.90557 28.935914
6170 2057 2 -0.8476 26.093964 2.489187 29.391253
6171 2057 1 0.4238 26.260069 1.510979 29.515821
6172 2058 1 0.4238 24.647696 13.635735 45.045864
6173 2058 2 -0.8476 24.206056 12.75571 45.220539
6174 2058 1 0.4238 23.223663 12.836538 45.052108
6175 2059 1 0.4238 32.589652 12.330994 30.048671
6176 2059 2 -0.8476 32.567727 11.481696 29.521214
6177 2059 1 0.4238 32.478239 10.704623 30.14423
6178 2060 1 0.4238 12.47967 40.698537 17.626805
6179 2060 2 -0.8476 11.993066 41.558441 17.781017
6180 2060 1 0.4238 12.6502 42.311314 17.817844
6181 2061 1 0.4238 44.481807 30.679958 37.390097
6182 2061 2 -0.8476 45.32128 30.583043 37.924785
6183 2061 1 0.4238 45.982697 30.036898 37.410731
6184 2062 1 0.4238 11.587804 11.776997 33.1946
6185 2062 2 -0.8476 11.727881 12.380156 32.409376
6186 2062 1 0.4238 12.417876 11.983942 31.803636
6187 2063 1 0.4238 39.075623 42.687459 31.611113
6188 2063 2 -0.8476 39.141495 41.8589 31.0551
6189 2063 1 0.4238 39.233718 42.110474 30.091666
6190 2064 1 0.4238 46.86195 8.611869 44.754257
6191 2064 2 -0.8476 47.763155 8.874664 45.098885
6192 2064 1 0.4238 48.160423 8.111762 45.608942
6193 2065 1 0.4238 23.704725 31.115284 43.697289
6194 2065 2 -0.8476 24.493547 31.073529 43.084087
6195 2065 1 0.4238 24.264881 31.514776 42.216324
6196 2066 1 0.4238 19.762601 35.066111 8.232037
6197 2066 2 -0.8476 19.12195 34.626002 8.86122
6198 2066 1 0.4238 18.933168 35.239587 9.62795
6199 2067 1 0.4238 16.161981 15.952833 40.214862
6200 2067 2 -0.8476 15.444887 15.955536 40.911833
6201 2067 1 0.4238 14.799739 15.213635 40.729166
6202 2068 1 0.4238 30.305754 3.7859 4.304717
6203 2068 2 -0.8476 30.722422 3.436629 5.144001
6204 2068 1 0.4238 30.137724 2.726259 5.535795
6205 2069 1 0.4238 36.327951 37.740086 48.164606
6206 2069 2 -0.8476 35.695748 38.496234 47.995611
6207 2069 1 0.4238 34.759432 38.194255 48.174833
6208 2070 1 0.4238 15.260725 21.225474 35.634211
6209 2070 2 -0.8476 15.77058 21.952619 36.093894
6210 2070 1 0.4238 16.640692 21.589938 36.427612
6211 2071 1 0.4238 1.500001 28.692872 34.059408
6212 2071 2 -0.8476 1.946103 28.642153 34.952952
6213 2071 1 0.4238 1.505423 27.934969 35.505845
6214 2072 1 0.4238 33.761901 48.178 32.819302
6215 2072 2 -0.8476 32.955542 47.624776 32.610188
6216 2072 1 0.4238 32.131311 48.178 32.730964
6217 2073 1 0.4238 46.751763 47.84817 16.046916
6218 2073 2 -0.8476 47.189761 48.109316 15.186707
6219 2073 1 0.4238 48.178005 48.17803 15.323279
6220 2074 1 0.4238 25.054134 24.447886 47.370239
6221 2074 2 -0.8476 24.601399 25.050078 48.027807
6222 2074 1 0.4238 25.164349 25.862807 48.177998
6223 2075 1 0.4238 45.298519 40.735186 1.499889
6224 2075 2 -0.8476 44.727908 39.913968 1.501761
6225 2075 1 0.4238 45.311977 39.102265 1.50352
6226 2076 1 0.4238 19.100524 45.618842 40.551689
6227 2076 2 -0.8476 19.953747 45.382688 40.08667
6228 2076 1 0.4238 20.728752 45.611022 40.675932
6229 2077 1 0.4238 4.858117 30.462958 6.992926
6230 2077 2 -0.8476 4.124969 30.78477 6.393818
6231 2077 1 0.4238 3.467166 31.315974 6.927781
6232 2078 1 0.4238 35.765587 18.164833 3.955165
6233 2078 2 -0.8476 36.408808 18.827637 4.338515
6234 2078 1 0.4238 37.216026 18.3481 4.682672
6235 2079 1 0.4238 43.027787 1.499946 33.53782
6236 2079 2 -0.8476 42.109867 1.750102 33.229851
6237 2079 1 0.4238 41.443846 1.506686 33.93495
6238 2080 1 0.4238 43.094774 21.152476 11.153283
6239 2080 2 -0.8476 42.202755 21.021901 10.720555
6240 2080 1 0.4238 41.551849 21.68379 11.09234
6241 2081 1 0.4238 37.369022 35.00465 28.214648
6242 2081 2 -0.8476 36.384048 34.832475 28.201154
6243 2081 1 0.4238 35.894879 35.701142 28.12285
6244 2082 1 0.4238 1.510775 14.75314 39.696299
6245 2082 2 -0.8476 1.517883 15.339658 38.886394
6246 2082 1 0.4238 2.274424 15.990242 38.95263
6247 2083 1 0.4238 36.346617 20.635334 12.849884
6248 2083 2 -0.8476 35.727287 20.55778 13.631175
6249 2083 1 0.4238 35.201073 19.710706 13.556579
6250 2084 1 0.4238 15.279848 15.071405 35.566553
6251 2084 2 -0.8476 15.126191 16.018871 35.286023
6252 2084 1 0.4238 14.197333 16.114027 34.928019
6253 2085 1 0.4238 48.177994 36.484266 38.665673
6254 2085 2 -0.8476 47.59762 35.720231 38.383866
6255 2085 1 0.4238 48.097483 35.142158 37.73891
6256 2086 1 0.4238 16.910974 26.231723 40.617052
6257 2086 2 -0.8476 16.114193 25.631834 40.544433
6258 2086 1 0.4238 15.873241 25.512845 39.581218
6259 2087 1 0.4238 16.408139 13.334108 10.328227
6260 2087 2 -0.8476 16.213853 12.637791 9.637289
6261 2087 1 0.4238 16.70319 11.796095 9.865534
6262 2088 1 0.4238 29.026515 38.568128 48.178005
6263 2088 2 -0.8476 29.475335 39.46175 48.177936
6264 2088 1 0.4238 30.467454 39.336451 48.17747
6265 2089 1 0.4238 6.874151 24.641954 29.294046
6266 2089 2 -0.8476 7.262799 25.29525 29.943782
6267 2089 1 0.4238 7.638236 24.801804 30.728357
6268 2090 1 0.4238 28.422284 18.172876 20.458692
6269 2090 2 -0.8476 28.433182 19.170429 20.527749
6270 2090 1 0.4238 29.315099 19.517043 20.208251
6271 2091 1 0.4238 38.753111 25.37728 19.628547
6272 2091 2 -0.8476 39.638926 25.573379 20.049114
6273 2091 1 0.4238 39.506295 26.162105 20.846491
6274 2092 1 0.4238 14.701057 46.578697 33.136555
6275 2092 2 -0.8476 13.82804 46.129872 33.327337
6276 2092 1 0.4238 13.463889 45.736679 32.483067
6277 2093 1 0.4238 18.128663 23.068906 2.360362
6278 2093 2 -0.8476 17.886611 22.619917 1.500234
6279 2093 1 0.4238 17.420588 21.756725 1.694452
6280 2094 1 0.4238 11.206087 31.739657 21.078522
6281 2094 2 -0.8476 11.609435 30.864684 20.810693
6282 2094 1 0.4238 10.963298 30.126517 21.004643
6283 2095 1 0.4238 10.73291 8.750938 32.08793
6284 2095 2 -0.8476 11.482893 9.103612 32.647525
6285 2095 1 0.4238 12.023723 8.339768 32.999724
6286 2096 1 0.4238 15.452019 31.556974 32.376394
6287 2096 2 -0.8476 15.179298 32.119421 33.156956
6288 2096 1 0.4238 15.919449 32.751153 33.387369
6289 2097 1 0.4238 14.494434 8.285093 38.199525
6290 2097 2 -0.8476 14.708546 7.617005 37.486915
6291 2097 1 0.4238 15.305054 8.038084 36.803636
6292 2098 1 0.4238 48.142588 32.990328 45.710633
6293 2098 2 -0.8476 47.175472 32.82031 45.899793
6294 2098 1 0.4238 46.783012 32.27128 45.161863
6295 2099 1 0.4238 19.489658 10.181065 14.828338
6296 2099 2 -0.8476 19.511072 9.698849 13.952547
6297 2099 1 0.4238 18.580997 9.440259 13.691601
6298 2100 1 0.4238 46.67977 15.929018 22.254393
6299 2100 2 -0.8476 47.205459 16.545617 22.840445
6300 2100 1 0.4238 48.17796 16.323432 22.770621
6301 2101 1 0.4238 30.451681 26.297257 45.523444
6302 2101 2 -0.8476 29.980694 27.17352 45.421791
6303 2101 1 0.4238 29.916003 27.406565 44.451479
6304 2102 1 0.4238 17.742281 10.608994 22.845698
6305 2102 2 -0.8476 16.994853 10.857493 23.461815
6306 2102 1 0.4238 16.184619 10.31562 23.238443
6307 2103 1 0.4238 22.609973 35.212654 45.661312
6308 2103 2 -0.8476 21.708987 35.632108 45.550484
6309 2103 1 0.4238 21.003131 34.989063 45.847569
6310 2104 1 0.4238 48.177856 9.114713 42.545622
6311 2104 2 -0.8476 47.617789 8.300942 42.390373
6312 2104 1 0.4238 48.177642 7.481994 42.51642
6313 2105 1 0.4238 23.187665 38.621483 48.178002
6314 2105 2 -0.8476 23.328606 39.611187 48.153083
6315 2105 1 0.4238 24.30897 39.808084 48.142239
6316 2106 1 0.4238 17.364834 13.31146 38.229865
6317 2106 2 -0.8476 16.447226 13.638969 38.004625
6318 2106 1 0.4238 15.870406 13.601778 38.820649
6319 2107 1 0.4238 30.92425 28.677905 42.294364
6320 2107 2 -0.8476 31.78996 28.211847 42.111779
6321 2107 1 0.4238 31.769026 27.298488 42.518396
6322 2108 1 0.4238 8.049204 23.545718 48.109327
6323 2108 2 -0.8476 7.992307 22.547644 48.134047
6324 2108 1 0.4238 7.032781 22.269476 48.178003
6325 2109 1 0.4238 48.178099 41.181457 7.211404
6326 2109 2 -0.8476 48.039269 40.900634 6.261739
6327 2109 1 0.4238 47.063761 40.75579 6.096199
6328 2110 1 0.4238 28.089846 12.355045 37.131364
6329 2110 2 -0.8476 28.821558 11.873273 36.649189
6330 2110 1 0.4238 28.539152 11.696085 35.7064
6331 2111 1 0.4238 34.237043 3.223208 21.877802
6332 2111 2 -0.8476 35.188795 3.489255 22.030726
6333 2111 1 0.4238 35.556247 3.905605 21.199082
6334 2112 1 0.4238 1.501573 22.550259 4.985225
6335 2112 2 -0.8476 1.509708 22.710308 3.99815
6336 2112 1 0.4238 1.538296 23.693931 3.820197
6337 2113 1 0.4238 36.790184 20.60659 16.313825
6338 2113 2 -0.8476 36.434753 20.858779 17.213864
6339 2113 1 0.4238 37.095724 20.599205 17.91795
6340 2114 1 0.4238 36.685331 18.747036 30.636293
6341 2114 2 -0.8476 36.281874 18.29235 29.842263
6342 2114 1 0.4238 35.317642 18.098742 30.023294
6343 2115 1 0.4238 16.041483 45.014615 35.67544
6344 2115 2 -0.8476 16.047659 45.15048 34.684731
6345 2115 1 0.4238 15.454766 44.471664 34.251504
6346 2116 1 0.4238 15.345708 24.048407 46.070965
6347 2116 2 -0.8476 15.38937 24.972853 45.692161
6348 2116 1 0.4238 16.270655 25.105978 45.238715
6349 2117 1 0.4238 20.933063 9.623679 1.504433
6350 2117 2 -0.8476 21.072933 8.633514 1.501151
6351 2117 1 0.4238 20.187966 8.171683 1.560694
6352 2118 1 0.4238 13.216476 43.284336 20.175694
6353 2118 2 -0.8476 13.793049 43.787982 19.532339
6354 2118 1 0.4238 14.752545 43.556544 19.692971
6355 2119 1 0.4238 43.868981 27.623807 34.852925
6356 2119 2 -0.8476 43.154878 28.316504 34.954054
6357 2119 1 0.4238 43.57494 29.22205 35.013497
6358 2120 1 0.4238 1.506246 1.500014 5.685774
6359 2120 2 -0.8476 2.08383 1.503639 6.502098
6360 2120 1 0.4238 1.506938 1.530903 7.318462
6361 2121 1 0.4238 40.999899 30.708161 10.218682
6362 2121 2 -0.8476 40.370554 29.985774 10.505178
6363 2121 1 0.4238 39.438029 30.346114 10.528697
6364 2122 1 0.4238 26.913705 10.854968 1.577563
6365 2122 2 -0.8476 27.544773 10.081383 1.63519
6366 2122 1 0.4238 27.903001 10.012105 2.56625
6367 2123 1 0.4238 16.724053 14.56094 1.5
6368 2123 2 -0.8476 15.890804 15.042794 1.771132
6369 2123 1 0.4238 16.117627 15.982264 2.027932
6370 2124 1 0.4238 42.487488 34.029848 4.373825
6371 2124 2 -0.8476 42.928889 34.825584 3.959133
6372 2124 1 0.4238 42.249659 35.357943 3.45392
6373 2125 1 0.4238 22.496921 39.484625 8.807249
6374 2125 2 -0.8476 23.341629 39.790835 8.368268
6375 2125 1 0.4238 24.120695 39.314359 8.775732
6376 2126 1 0.4238 43.60153 18.009067 44.225007
6377 2126 2 -0.8476 44.479214 17.799242 44.655873
6378 2126 1 0.4238 44.61203 18.394145 45.44862
6379 2127 1 0.4238 36.289928 34.682431 18.226003
6380 2127 2 -0.8476 37.244992 34.816957 18.490116
6381 2127 1 0.4238 37.463436 35.792492 18.465318
6382 2128 1 0.4238 47.817408 12.649173 44.547528
6383 2128 2 -0.8476 48.090836 11.722561 44.805652
6384 2128 1 0.4238 48.178836 11.665853 45.800157
6385 2129 1 0.4238 39.141238 28.981178 1.49997
6386 2129 2 -0.8476 39.948031 29.135648 2.070254
6387 2129 1 0.4238 40.605111 28.395851 1.925524
6388 2130 1 0.4238 12.296658 19.538126 32.37163
6389 2130 2 -0.8476 12.449138 18.892188 31.623623
6390 2130 1 0.4238 11.62392 18.345429 31.481954
6391 2131 1 0.4238 44.738206 42.880289 48.178153
6392 2131 2 -0.8476 45.158604 41.972949 48.178071
6393 2131 1 0.4238 46.154183 42.06688 48.178037
6394 2132 1 0.4238 48.158299 20.417877 33.057057
6395 2132 2 -0.8476 47.540778 19.631341 33.062496
6396 2132 1 0.4238 46.679264 19.88699 33.501173
6397 2133 1 0.4238 1.677912 7.269727 13.372865
6398 2133 2 -0.8476 1.499969 7.475823 12.410648
6399 2133 1 0.4238 1.711266 6.672947 11.853205
6400 2134 1 0.4238 45.765529 33.929565 18.065595
6401 2134 2 -0.8476 44.858247 34.318356 17.905347
6402 2134 1 0.4238 44.250887 33.610052 17.545598
6403 2135 1 0.4238 4.056701 40.769923 21.844192
6404 2135 2 -0.8476 4.241576 39.934394 22.361602
6405 2135 1 0.4238 4.156111 40.122461 23.340032
6406 2136 1 0.4238 23.756577 15.535023 43.641388
6407 2136 2 -0.8476 22.832228 15.284781 43.929415
6408 2136 1 0.4238 22.780365 15.293788 44.928028
6409 2137 1 0.4238 22.303477 39.791791 19.048737
6410 2137 2 -0.8476 21.787615 38.974446 18.792157
6411 2137 1 0.4238 20.868838 39.023562 19.183864
6412 2138 1 0.4238 7.18901 21.784523 21.900268
6413 2138 2 -0.8476 8.153539 21.758725 22.162984
6414 2138 1 0.4238 8.713402 22.105037 21.410242
6415 2139 1 0.4238 31.733946 6.889013 48.178037
6416 2139 2 -0.8476 32.487906 7.545933 48.178032
6417 2139 1 0.4238 33.358566 7.054047 48.178029
6418 2140 1 0.4238 33.513119 48.13188 30.207875
6419 2140 2 -0.8476 34.350893 48.16498 29.662861
6420 2140 1 0.4238 34.11595 48.178 28.690939
6421 2141 1 0.4238 43.832534 3.817244 38.678931
6422 2141 2 -0.8476 43.211969 4.277652 38.044169
6423 2141 1 0.4238 43.743654 4.809457 37.385008
6424 2142 1 0.4238 36.287909 24.459287 14.302674
6425 2142 2 -0.8476 36.552531 23.869246 15.06545
6426 2142 1 0.4238 36.574838 22.917734 14.758649
6427 2143 1 0.4238 29.812716 39.198096 37.299673
6428 2143 2 -0.8476 30.690237 38.758379 37.491003
6429 2143 1 0.4238 30.589805 37.766421 37.413981
6430 2144 1 0.4238 26.773104 48.178004 17.192059
6431 2144 2 -0.8476 27.591464 47.604646 17.231391
6432 2144 1 0.4238 28.405089 48.177999 17.135061
6433 2145 1 0.4238 43.468068 1.51204 8.651785
6434 2145 2 -0.8476 44.171354 1.551613 7.94198
6435 2145 1 0.4238 43.85906 2.139498 7.195747
6436 2146 1 0.4238 39.361088 35.856088 26.507699
6437 2146 2 -0.8476 39.394074 34.865203 26.377086
6438 2146 1 0.4238 39.824621 34.658982 25.498393
6439 2147 1 0.4238 34.52318 41.272067 19.644996
6440 2147 2 -0.8476 33.640244 41.332323 20.110606
6441 2147 1 0.4238 33.363163 42.290873 20.176994
6442 2148 1 0.4238 48.178032 45.763031 20.615871
6443 2148 2 -0.8476 47.28206 45.319235 20.599128
6444 2148 1 0.4238 46.568878 46.00203 20.757747
6445 2149 1 0.4238 24.186451 33.319055 13.038376
6446 2149 2 -0.8476 24.87347 34.0351 12.914747
6447 2149 1 0.4238 25.755221 33.616904 12.696508
6448 2150 1 0.4238 44.027882 20.965328 23.518943
6449 2150 2 -0.8476 43.036397 20.862281 23.439322
6450 2150 1 0.4238 42.815257 19.906952 23.243253
6451 2151 1 0.4238 45.768388 38.775124 14.594051
6452 2151 2 -0.8476 45.501589 38.897658 15.549982
6453 2151 1 0.4238 46.26293 39.298203 16.059807
6454 2152 1 0.4238 7.135091 8.60721 40.748582
6455 2152 2 -0.8476 6.780777 9.276057 41.402115
6456 2152 1 0.4238 5.815257 9.087521 41.581627
6457 2153 1 0.4238 41.427662 10.895294 9.212261
6458 2153 2 -0.8476 42.410123 11.062834 9.13041
6459 2153 1 0.4238 42.765862 11.393311 10.004615
6460 2154 1 0.4238 34.913208 26.604281 15.303262
6461 2154 2 -0.8476 34.581073 27.45291 15.714986
6462 2154 1 0.4238 33.625959 27.597348 15.456347
6463 2155 1 0.4238 5.226654 7.605219 8.820536
6464 2155 2 -0.8476 6.157337 7.566768 8.456735
6465 2155 1 0.4238 6.151903 7.091595 7.57686
6466 2156 1 0.4238 28.187589 41.512664 6.100655
6467 2156 2 -0.8476 27.617606 42.226628 6.50732
6468 2156 1 0.4238 27.154005 41.863116 7.315362
6469 2157 1 0.4238 40.597585 28.754517 16.662513
6470 2157 2 -0.8476 40.311435 29.450958 16.004419
6471 2157 1 0.4238 39.705866 30.106738 16.455239
6472 2158 1 0.4238 1.50041 38.102156 5.534694
6473 2158 2 -0.8476 2.101858 37.886841 6.304044
6474 2158 1 0.4238 1.551279 37.73167 7.124278
6475 2159 1 0.4238 13.752174 24.414402 18.825058
6476 2159 2 -0.8476 14.605122 24.109405 19.248682
6477 2159 1 0.4238 14.865233 23.22044 18.871744
6478 2160 1 0.4238 13.973387 10.380411 1.506733
6479 2160 2 -0.8476 13.608204 9.594465 2.005662
6480 2160 1 0.4238 14.171604 9.421437 2.813525
6481 2161 1 0.4238 7.735501 48.178038 24.542823
6482 2161 2 -0.8476 8.564037 47.641964 24.704541
6483 2161 1 0.4238 9.365131 48.178011 24.43827
6484 2162 1 0.4238 42.854504 12.746025 45.464242
6485 2162 2 -0.8476 42.761601 12.23357 46.317915
6486 2162 1 0.4238 43.620568 12.277278 46.828077
6487 2163 1 0.4238 12.355782 17.148771 16.185828
6488 2163 2 -0.8476 12.542104 16.238612 16.555821
6489 2163 1 0.4238 11.691674 15.713931 16.594263
6490 2164 1 0.4238 30.8592 19.75561 2.597245
6491 2164 2 -0.8476 30.727795 19.446428 1.655364
6492 2164 1 0.4238 31.225994 18.591179 1.512723
6493 2165 1 0.4238 43.24934 45.903669 2.622813
6494 2165 2 -0.8476 43.73513 45.679023 1.778099
6495 2165 1 0.4238 44.08912 44.745527 1.835346
6496 2166 1 0.4238 26.188021 43.779435 23.380714
6497 2166 2 -0.8476 25.234051 43.491883 23.295544
6498 2166 1 0.4238 24.972792 43.48538 22.330298
6499 2167 1 0.4238 32.4336 41.009027 15.186223
6500 2167 2 -0.8476 32.85081 40.163644 14.852663
6501 2167 1 0.4238 33.817186 40.325216 14.652633
6502 2168 1 0.4238 27.807177 38.732049 42.040356
6503 2168 2 -0.8476 27.399491 38.070216 41.411255
6504 2168 1 0.4238 28.122378 37.52603 40.985465
6505 2169 1 0.4238 43.838753 22.18483 14.321016
6506 2169 2 -0.8476 43.886199 21.428888 14.973933
6507 2169 1 0.4238 43.239145 21.590855 15.718975
6508 2170 1 0.4238 34.194369 20.583022 4.270386
6509 2170 2 -0.8476 33.438262 21.176653 4.545893
6510 2170 1 0.4238 32.626878 20.620789 4.726645
6511 2171 1 0.4238 4.113483 17.610811 21.891295
6512 2171 2 -0.8476 3.873952 17.095035 21.068738
6513 2171 1 0.4238 3.77504 16.12702 21.299311
6514 2172 1 0.4238 14.69151 31.076485 29.098884
6515 2172 2 -0.8476 15.356425 31.747529 29.42689
6516 2172 1 0.4238 15.300625 32.573626 28.866132
6517 2173 1 0.4238 25.070426 45.862187 30.187783
6518 2173 2 -0.8476 25.780696 46.177997 29.558672
6519 2173 1 0.4238 26.673863 46.110328 30.003277
6520 2174 1 0.4238 40.728802 12.429906 1.546772
6521 2174 2 -0.8476 41.072583 13.196362 2.089322
6522 2174 1 0.4238 41.190777 13.995475 1.499875
6523 2175 1 0.4238 13.672738 44.790753 36.596425
6524 2175 2 -0.8476 13.28645 44.996194 35.697217
6525 2175 1 0.4238 12.549867 44.350634 35.495479
6526 2176 1 0.4238 1.927381 28.215911 29.319128
6527 2176 2 -0.8476 2.800672 28.588174 29.004829
6528 2176 1 0.4238 3.320164 28.927113 29.789207
6529 2177 1 0.4238 18.413412 37.578591 19.094197
6530 2177 2 -0.8476 17.615285 37.402213 18.518103
6531 2177 1 0.4238 17.914954 37.205835 17.584489
6532 2178 1 0.4238 7.001531 22.078175 43.315845
6533 2178 2 -0.8476 6.35831 21.357939 43.055987
6534 2178 1 0.4238 5.845067 21.062759 43.861872
6535 2179 1 0.4238 36.435502 6.796271 17.560902
6536 2179 2 -0.8476 37.001283 6.102391 17.115456
6537 2179 1 0.4238 37.933538 6.152119 17.473823
6538 2180 1 0.4238 10.137294 5.486168 25.384598
6539 2180 2 -0.8476 10.734669 5.699714 26.157606
6540 2180 1 0.4238 11.072093 6.6369 26.069137
6541 2181 1 0.4238 44.672894 18.690748 39.889713
6542 2181 2 -0.8476 45.36096 19.416009 39.866008
6543 2181 1 0.4238 45.066298 20.134545 39.236025
6544 2182 1 0.4238 1.49999 36.025077 41.175984
6545 2182 2 -0.8476 2.07698 35.209658 41.222607
6546 2182 1 0.4238 1.499993 34.392921 41.22787
6547 2183 1 0.4238 43.527206 41.60882 41.544003
6548 2183 2 -0.8476 44.073315 42.442111 41.458033
6549 2183 1 0.4238 45.017031 42.200342 41.232315
6550 2184 1 0.4238 24.078812 22.282053 41.619716
6551 2184 2 -0.8476 24.796942 22.235025 42.314035
6552 2184 1 0.4238 25.050186 21.279868 42.467469
6553 2185 1 0.4238 38.283792 27.125405 31.842007
6554 2185 2 -0.8476 38.424832 27.825544 32.541946
6555 2185 1 0.4238 39.150147 27.532668 33.164955
6556 2186 1 0.4238 42.888653 38.317854 21.242811
6557 2186 2 -0.8476 43.704611 38.119759 20.699698
6558 2186 1 0.4238 43.548486 37.298448 20.150996
6559 2187 1 0.4238 22.376337 11.124773 27.734176
6560 2187 2 -0.8476 21.70493 10.638138 27.175248
6561 2187 1 0.4238 20.87512 10.482556 27.711166
6562 2188 1 0.4238 25.261921 6.643021 32.966025
6563 2188 2 -0.8476 25.536387 5.681459 32.974242
6564 2188 1 0.4238 24.721322 5.102307 32.990075
6565 2189 1 0.4238 38.714867 38.532946 36.826469
6566 2189 2 -0.8476 38.7253 39.505054 36.592167
6567 2189 1 0.4238 38.495243 39.617409 35.625497
6568 2190 1 0.4238 16.200454 3.577207 39.328492
6569 2190 2 -0.8476 15.234897 3.66235 39.082627
6570 2190 1 0.4238 15.158307 3.967507 38.13341
6571 2191 1 0.4238 43.76537 26.071228 48.166319
6572 2191 2 -0.8476 44.496933 26.675452 47.850519
6573 2191 1 0.4238 44.326378 27.604772 48.178046
6574 2192 1 0.4238 29.557515 19.656773 15.964389
6575 2192 2 -0.8476 29.523069 19.122291 15.119912
6576 2192 1 0.4238 29.212955 18.194055 15.325359
6577 2193 1 0.4238 29.794497 22.302933 5.590705
6578 2193 2 -0.8476 29.650374 21.468198 6.122162
6579 2193 1 0.4238 30.131862 21.541807 6.995517
6580 2194 1 0.4238 41.932291 20.753817 13.567621
6581 2194 2 -0.8476 42.10229 19.917477 14.088809
6582 2194 1 0.4238 41.53628 19.917635 14.913207
6583 2195 1 0.4238 44.218778 48.178061 40.337559
6584 2195 2 -0.8476 43.763886 48.092219 39.451159
6585 2195 1 0.4238 42.775205 48.178074 39.574195
6586 2196 1 0.4238 27.093881 14.929995 48.151405
6587 2196 2 -0.8476 27.94764 14.409567 48.167233
6588 2196 1 0.4238 28.722856 15.041171 48.177964
6589 2197 1 0.4238 7.987367 34.193907 37.698677
6590 2197 2 -0.8476 7.611851 33.778019 38.526943
6591 2197 1 0.4238 8.111769 32.936993 38.733721
6592 2198 1 0.4238 3.31628 21.408058 10.091911
6593 2198 2 -0.8476 4.2936 21.618323 10.1171
6594 2198 1 0.4238 4.680237 21.302619 10.983612
6595 2199 1 0.4238 15.135529 32.761613 45.653176
6596 2199 2 -0.8476 15.729176 32.155436 45.123901
6597 2199 1 0.4238 16.110112 31.453339 45.725522
6598 2200 1 0.4238 11.060649 22.484784 10.987285
6599 2200 2 -0.8476 11.092971 21.806755 11.721609
6600 2200 1 0.4238 10.660101 20.959903 11.412636
6601 2201 1 0.4238 45.853675 41.660744 32.292689
6602 2201 2 -0.8476 45.723111 40.696341 32.522646
6603 2201 1 0.4238 45.960729 40.547434 33.482523
6604 2202 1 0.4238 14.118119 27.214467 18.860114
6605 2202 2 -0.8476 14.136017 28.055206 18.318969
6606 2202 1 0.4238 13.771701 28.810275 18.864078
6607 2203 1 0.4238 4.844179 45.895596 32.897093
6608 2203 2 -0.8476 4.265513 46.362451 32.228368
6609 2203 1 0.4238 4.256381 45.84202 31.374513
6610 2204 1 0.4238 37.109674 45.933642 17.12946
6611 2204 2 -0.8476 36.145343 46.109575 17.327231
6612 2204 1 0.4238 35.645918 45.243463 17.347856
6613 2205 1 0.4238 7.727356 3.811681 9.804211
6614 2205 2 -0.8476 8.380085 4.450279 10.211811
6615 2205 1 0.4238 9.273654 4.008381 10.290932
6616 2206 1 0.4238 25.54302 28.897155 16.810804
6617 2206 2 -0.8476 26.484763 28.560825 16.810132
6618 2206 1 0.4238 26.482006 27.562178 16.7582
6619 2207 1 0.4238 48.17803 16.482535 12.878138
6620 2207 2 -0.8476 47.919721 16.961215 13.71727
6621 2207 1 0.4238 47.142102 16.496163 14.140396
6622 2208 1 0.4238 34.771739 30.539127 18.218262
6623 2208 2 -0.8476 35.067335 29.586205 18.285807
6624 2208 1 0.4238 34.334606 28.986352 17.964428
6625 2209 1 0.4238 8.462029 40.429337 12.376846
6626 2209 2 -0.8476 8.099692 41.352544 12.504909
6627 2209 1 0.4238 8.040962 41.554932 13.482452
6628 2210 1 0.4238 36.908658 28.786615 40.006
6629 2210 2 -0.8476 36.622162 27.858128 40.242288
6630 2210 1 0.4238 35.864157 27.582586 39.6511
6631 2211 1 0.4238 38.761821 19.641048 45.476725
6632 2211 2 -0.8476 38.215981 20.448032 45.251261
6633 2211 1 0.4238 37.463321 20.534337 45.903989
6634 2212 1 0.4238 31.572888 6.897753 10.012454
6635 2212 2 -0.8476 31.956864 6.776975 10.927863
6636 2212 1 0.4238 32.866879 7.189907 10.964745
6637 2213 1 0.4238 34.094485 48.177638 15.251511
6638 2213 2 -0.8476 34.218849 47.185414 15.246469
6639 2213 1 0.4238 33.836217 46.80581 14.404155
6640 2214 1 0.4238 4.477637 41.631288 3.709928
6641 2214 2 -0.8476 5.362357 41.221938 3.932869
6642 2214 1 0.4238 6.003438 41.940325 4.202934
6643 2215 1 0.4238 15.12167 27.165663 30.987763
6644 2215 2 -0.8476 14.647873 27.970842 30.631107
6645 2215 1 0.4238 14.821379 28.752353 31.230386
6646 2216 1 0.4238 21.055104 19.304521 5.680269
6647 2216 2 -0.8476 20.480323 18.490792 5.593838
6648 2216 1 0.4238 20.57604 17.926473 6.413827
6649 2217 1 0.4238 31.123305 45.822407 27.72637
6650 2217 2 -0.8476 30.249671 45.376708 27.921604
6651 2217 1 0.4238 29.623341 46.037637 28.334984
6652 2218 1 0.4238 18.554041 14.015833 30.847141
6653 2218 2 -0.8476 17.674748 14.10383 30.379059
6654 2218 1 0.4238 17.576895 13.365319 29.711957
6655 2219 1 0.4238 25.430597 44.513468 4.6651
6656 2219 2 -0.8476 25.049508 45.370638 5.011554
6657 2219 1 0.4238 24.261836 45.173393 5.59522
6658 2220 1 0.4238 9.847645 8.406012 41.616361
6659 2220 2 -0.8476 9.471084 9.036279 42.295305
6660 2220 1 0.4238 8.735179 8.583319 42.798564
6661 2221 1 0.4238 21.844742 10.813652 32.186559
6662 2221 2 -0.8476 22.611982 11.131205 31.629332
6663 2221 1 0.4238 22.512069 10.785219 30.696428
6664 2222 1 0.4238 29.084867 20.844734 28.42035
6665 2222 2 -0.8476 29.642747 20.883414 27.591329
6666 2222 1 0.4238 30.180616 21.726441 27.590559
6667 2223 1 0.4238 21.755463 19.99038 25.595413
6668 2223 2 -0.8476 22.300994 19.490851 24.922459
6669 2223 1 0.4238 22.177018 19.903758 24.020163
6670 2224 1 0.4238 23.27049 39.25823 45.620434
6671 2224 2 -0.8476 22.634009 38.496777 45.743235
6672 2224 1 0.4238 23.149038 37.649777 45.8749
6673 2225 1 0.4238 21.502557 33.34127 31.390615
6674 2225 2 -0.8476 22.009075 32.483776 31.300369
6675 2225 1 0.4238 22.982131 32.653415 31.456526
6676 2226 1 0.4238 20.253317 6.262005 42.04437
6677 2226 2 -0.8476 19.977161 7.221185 41.983455
6678 2226 1 0.4238 20.791265 7.80088 41.94898
6679 2227 1 0.4238 48.177996 34.27504 13.145732
6680 2227 2 -0.8476 47.215187 34.48885 13.310914
6681 2227 1 0.4238 46.704887 33.640565 13.452357
6682 2228 1 0.4238 35.868145 21.151099 1.5
6683 2228 2 -0.8476 35.840686 20.342355 2.08752
6684 2228 1 0.4238 35.573758 19.545517 1.545488
6685 2229 1 0.4238 29.646429 43.242961 29.076254
6686 2229 2 -0.8476 30.63982 43.155941 29.001407
6687 2229 1 0.4238 30.866275 42.28379 28.567735
6688 2230 1 0.4238 45.841664 5.390391 12.535414
6689 2230 2 -0.8476 44.939498 5.821412 12.55323
6690 2230 1 0.4238 45.045429 6.815547 12.574991
6691 2231 1 0.4238 3.945726 29.174829 21.982622
6692 2231 2 -0.8476 4.602799 29.378991 22.708275
6693 2231 1 0.4238 4.115322 29.712709 23.51512
6694 2232 1 0.4238 45.006792 20.490158 12.901962
6695 2232 2 -0.8476 45.993965 20.593647 12.780388
6696 2232 1 0.4238 46.335008 21.295665 13.405576
6697 2233 1 0.4238 45.273001 18.028851 5.79895
6698 2233 2 -0.8476 45.6587 17.271836 6.326364
6699 2233 1 0.4238 46.114885 16.632624 5.70725
6700 2234 1 0.4238 48.178002 38.242106 28.997524
6701 2234 2 -0.8476 47.952845 37.330085 29.340339
6702 2234 1 0.4238 48.136299 37.288503 30.322487
6703 2235 1 0.4238 27.017584 34.428512 21.896118
6704 2235 2 -0.8476 27.123634 33.492726 22.232358
6705 2235 1 0.4238 26.223106 33.105635 22.430373
6706 2236 1 0.4238 2.438057 16.122862 1.499772
6707 2236 2 -0.8476 1.507328 15.817447 1.700933
6708 2236 1 0.4238 1.499984 14.824084 1.815715
6709 2237 1 0.4238 21.846421 22.205144 42.880209
6710 2237 2 -0.8476 21.839127 22.782703 43.696526
6711 2237 1 0.4238 22.67233 23.335108 43.721448
6712 2238 1 0.4238 32.962444 39.743006 11.428968
6713 2238 2 -0.8476 33.209208 40.392967 10.710178
6714 2238 1 0.4238 34.150516 40.224765 10.417524
6715 2239 1 0.4238 14.313313 8.571417 43.37358
6716 2239 2 -0.8476 13.652115 8.170205 44.007493
6717 2239 1 0.4238 14.084717 7.422516 44.511295
6718 2240 1 0.4238 15.823241 45.942233 13.33933
6719 2240 2 -0.8476 15.186636 45.621076 14.040466
6720 2240 1 0.4238 15.374294 46.092498 14.902177
6721 2241 1 0.4238 28.174379 38.693935 21.672759
6722 2241 2 -0.8476 27.503178 38.239191 22.258162
6723 2241 1 0.4238 27.903077 37.405094 22.638113
6724 2242 1 0.4238 41.444544 21.918269 3.570127
6725 2242 2 -0.8476 40.725429 21.505514 3.011104
6726 2242 1 0.4238 41.09408 20.71244 2.526203
6727 2243 1 0.4238 42.159015 38.72049 48.178177
6728 2243 2 -0.8476 42.510918 39.531079 47.710086
6729 2243 1 0.4238 43.332919 39.855645 48.178031
6730 2244 1 0.4238 28.360363 23.310786 10.196181
6731 2244 2 -0.8476 28.895446 22.47474 10.074883
6732 2244 1 0.4238 29.725375 22.682355 9.557086
6733 2245 1 0.4238 24.860694 20.821304 19.37708
6734 2245 2 -0.8476 25.852672 20.942696 19.341819
6735 2245 1 0.4238 26.065074 21.907203 19.184938
6736 2246 1 0.4238 48.178013 26.289383 35.688998
6737 2246 2 -0.8476 47.849611 25.492122 36.195484
6738 2246 1 0.4238 47.505266 25.782976 37.088137
6739 2247 1 0.4238 18.440744 44.197071 1.500003
6740 2247 2 -0.8476 18.617932 45.181231 1.5057
6741 2247 1 0.4238 17.749096 45.67633 1.506206
6742 2248 1 0.4238 22.635846 31.406092 1.519599
6743 2248 2 -0.8476 22.270263 30.475504 1.500783
6744 2248 1 0.4238 23.025829 29.820439 1.504008
6745 2249 1 0.4238 12.260988 27.556068 26.597376
6746 2249 2 -0.8476 11.963569 27.769368 25.66676
6747 2249 1 0.4238 11.5441 26.959344 25.256996
6748 2250 1 0.4238 27.831548 48.178031 9.572831
6749 2250 2 -0.8476 28.450337 48.092639 8.791929
6750 2250 1 0.4238 29.396146 48.178032 9.105222
6751 2251 1 0.4238 13.74345 1.5 12.992829
6752 2251 2 -0.8476 14.738294 1.596272 12.96096
6753 2251 1 0.4238 15.112085 1.501248 13.883592
6754 2252 1 0.4238 6.035321 27.892894 24.613942
6755 2252 2 -0.8476 6.502155 28.758208 24.431467
6756 2252 1 0.4238 7.473955 28.585307 24.271125
6757 2253 1 0.4238 9.807734 35.383426 19.746603
6758 2253 2 -0.8476 10.132629 34.46437 19.523489
6759 2253 1 0.4238 9.67513 33.797247 20.111402
6760 2254 1 0.4238 23.186076 45.163307 9.453593
6761 2254 2 -0.8476 23.379208 44.769617 8.554867
6762 2254 1 0.4238 24.054366 45.335224 8.081317
6763 2255 1 0.4238 40.036139 36.141519 14.413473
6764 2255 2 -0.8476 40.195152 35.540061 13.630553
6765 2255 1 0.4238 40.643638 34.701571 13.94006
6766 2256 1 0.4238 12.947684 16.594039 13.581369
6767 2256 2 -0.8476 12.731436 15.643745 13.805371
6768 2256 1 0.4238 11.739397 15.532781 13.864913
6769 2257 1 0.4238 19.79261 42.490132 29.785963
6770 2257 2 -0.8476 19.572499 42.075167 28.903152
6771 2257 1 0.4238 18.974718 42.688142 28.38651
6772 2258 1 0.4238 37.002428 46.351304 43.333236
6773 2258 2 -0.8476 36.82918 46.629181 44.278101
6774 2258 1 0.4238 36.435335 47.548301 44.288343
6775 2259 1 0.4238 3.559418 1.500635 9.053
6776 2259 2 -0.8476 4.314441 1.500935 9.708698
6777 2259 1 0.4238 5.184203 1.517659 9.215509
6778 2260 1 0.4238 32.409392 15.751004 45.712598
6779 2260 2 -0.8476 32.778658 14.864823 45.992465
6780 2260 1 0.4238 32.044449 14.30326 46.37402
6781 2261 1 0.4238 1.499955 37.335803 45.717938
6782 2261 2 -0.8476 2.077079 36.519344 45.699973
6783 2261 1 0.4238 1.499744 35.702863 45.706449
6784 2262 1 0.4238 47.231842 33.923216 48.160326
6785 2262 2 -0.8476 48.175 33.591677 48.137197
6786 2262 1 0.4238 48.178196 32.592535 48.178502
6787 2263 1 0.4238 16.64669 33.491626 15.931103
6788 2263 2 -0.8476 15.647636 33.535056 15.933314
6789 2263 1 0.4238 15.289751 33.016596 15.156708
6790 2264 1 0.4238 4.533762 19.304587 19.902534
6791 2264 2 -0.8476 4.69769 20.290175 19.86076
6792 2264 1 0.4238 5.676238 20.469876 19.961511
6793 2265 1 0.4238 8.652242 24.493642 15.003526
6794 2265 2 -0.8476 9.573644 24.836764 15.185971
6795 2265 1 0.4238 9.527139 25.80726 15.422561
6796 2266 1 0.4238 19.964932 16.222934 23.527945
6797 2266 2 -0.8476 20.248185 17.143864 23.795632
6798 2266 1 0.4238 21.160906 17.106794 24.202531
6799 2267 1 0.4238 28.321313 12.597076 33.025074
6800 2267 2 -0.8476 28.867336 11.760485 32.98064
6801 2267 1 0.4238 29.733308 11.951807 32.518592
6802 2268 1 0.4238 44.517474 27.375883 45.450738
6803 2268 2 -0.8476 43.563028 27.613556 45.631136
6804 2268 1 0.4238 43.515199 28.539453 46.005872
6805 2269 1 0.4238 26.500474 24.782612 11.713869
6806 2269 2 -0.8476 27.246596 25.443437 11.795193
6807 2269 1 0.4238 26.893809 26.36564 11.636817
6808 2270 1 0.4238 7.849994 1.555115 13.558362
6809 2270 2 -0.8476 7.119125 1.499991 14.238651
6810 2270 1 0.4238 6.232534 1.499975 13.776098
6811 2271 1 0.4238 3.707282 32.33463 29.983871
6812 2271 2 -0.8476 3.377715 31.97035 29.112845
6813 2271 1 0.4238 3.71509 32.540758 28.363971
6814 2272 1 0.4238 37.619997 3.507272 31.625536
6815 2272 2 -0.8476 37.953088 3.772087 30.720592
6816 2272 1 0.4238 38.95256 3.803386 30.729312
6817 2273 1 0.4238 47.376147 37.739454 36.657823
6818 2273 2 -0.8476 48.177998 37.61613 36.073165
6819 2273 1 0.4238 48.065867 36.788 35.523959
6820 2274 1 0.4238 45.020026 35.148248 27.41875
6821 2274 2 -0.8476 45.868179 35.669342 27.32337
6822 2274 1 0.4238 46.0185 36.21519 28.147659
6823 2275 1 0.4238 14.509346 28.789987 25.643895
6824 2275 2 -0.8476 15.126284 28.007348 25.561055
6825 2275 1 0.4238 14.612333 27.209747 25.245323
6826 2276 1 0.4238 14.766003 23.315831 2.074551
6827 2276 2 -0.8476 14.537648 22.52563 1.505836
6828 2276 1 0.4238 14.243531 21.768761 2.089483
6829 2277 1 0.4238 6.300653 47.488615 12.285772
6830 2277 2 -0.8476 6.092912 48.178881 11.59268
6831 2277 1 0.4238 6.450526 47.880755 10.707675
6832 2278 1 0.4238 43.73333 41.662215 23.392793
6833 2278 2 -0.8476 44.458751 40.974492 23.42112
6834 2278 1 0.4238 45.289224 41.381491 23.801469
6835 2279 1 0.4238 24.372619 27.875257 33.575827
6836 2279 2 -0.8476 24.444162 27.026487 33.051927
6837 2279 1 0.4238 24.692857 26.276458 33.664795
6838 2280 1 0.4238 4.533289 3.380362 26.41343
6839 2280 2 -0.8476 5.18004 3.198038 27.154019
6840 2280 1 0.4238 5.319104 4.032044 27.687962
6841 2281 1 0.4238 25.322904 48.178003 34.059036
6842 2281 2 -0.8476 24.534822 47.756098 34.507279
6843 2281 1 0.4238 24.837738 47.273104 35.328838
6844 2282 1 0.4238 36.436174 30.027707 20.860009
6845 2282 2 -0.8476 37.333203 30.107116 21.294789
6846 2282 1 0.4238 37.35026 29.553442 22.127347
6847 2283 1 0.4238 12.268244 8.05746 37.040538
6848 2283 2 -0.8476 11.281746 8.149902 37.175727
6849 2283 1 0.4238 11.059669 9.105997 37.366945
6850 2284 1 0.4238 11.503448 1.565172 47.791928
6851 2284 2 -0.8476 11.615512 2.504125 47.466643
6852 2284 1 0.4238 12.077738 3.046881 48.167901
6853 2285 1 0.4238 13.463672 35.26774 26.242396
6854 2285 2 -0.8476 13.534216 34.29574 26.466538
6855 2285 1 0.4238 12.873018 33.779347 25.922336
6856 2286 1 0.4238 29.569065 37.85929 1.653456
6857 2286 2 -0.8476 29.33603 38.829777 1.715514
6858 2286 1 0.4238 30.142305 39.380618 1.499887
6859 2287 1 0.4238 14.085209 9.625878 21.628935
6860 2287 2 -0.8476 14.797535 9.043319 21.237505
6861 2287 1 0.4238 14.47549 8.097048 21.20824
6862 2288 1 0.4238 20.848272 43.050482 39.984317
6863 2288 2 -0.8476 21.159411 42.189419 39.582118
6864 2288 1 0.4238 20.380146 41.708346 39.180478
6865 2289 1 0.4238 38.283559 14.311836 13.878324
6866 2289 2 -0.8476 39.098528 14.891282 13.886578
6867 2289 1 0.4238 38.823817 15.852789 13.892762
6868 2290 1 0.4238 22.333138 19.607665 3.553129
6869 2290 2 -0.8476 22.541233 18.655462 3.776746
6870 2290 1 0.4238 23.530833 18.514713 3.747057
6871 2291 1 0.4238 28.245376 2.421158 3.930844
6872 2291 2 -0.8476 28.071128 1.50063 4.280508
6873 2291 1 0.4238 27.222319 1.50004 4.809207
6874 2292 1 0.4238 14.276706 1.5 30.598421
6875 2292 2 -0.8476 14.896544 2.053232 31.154959
6876 2292 1 0.4238 15.683904 1.499971 31.426924
6877 2293 1 0.4238 32.609344 1.500001 18.468823
6878 2293 2 -0.8476 32.749813 2.040795 19.298167
6879 2293 1 0.4238 32.486798 1.500082 20.097199
6880 2294 1 0.4238 11.70244 20.267258 42.069062
6881 2294 2 -0.8476 10.726826 20.051681 42.11034
6882 2294 1 0.4238 10.604323 19.05922 42.106602
6883 2295 1 0.4238 5.647997 32.017229 36.967684
6884 2295 2 -0.8476 6.594317 32.058751 36.647132
6885 2295 1 0.4238 6.770415 31.293421 36.028053
6886 2296 1 0.4238 36.977535 48.177998 47.077565
6887 2296 2 -0.8476 37.967415 48.153201 46.937843
6888 2296 1 0.4238 38.1805 47.550437 46.168902
6889 2297 1 0.4238 4.206181 12.53959 6.585041
6890 2297 2 -0.8476 4.563265 12.007305 5.81747
6891 2297 1 0.4238 4.115273 12.29917 4.972415
6892 2298 1 0.4238 33.446816 24.165549 30.608216
6893 2298 2 -0.8476 34.053984 24.893585 30.926506
6894 2298 1 0.4238 34.107536 25.610596 30.231505
6895 2299 1 0.4238 6.481051 4.42541 43.535747
6896 2299 2 -0.8476 7.454512 4.556214 43.723534
6897 2299 1 0.4238 7.897671 3.66518 43.821863
6898 2300 1 0.4238 40.776399 13.338794 20.160625
6899 2300 2 -0.8476 39.821738 13.554873 20.365401
6900 2300 1 0.4238 39.507416 12.98745 21.126475
6901 2301 1 0.4238 2.120786 3.806201 25.915063
6902 2301 2 -0.8476 1.588294 3.737906 25.071388
6903 2301 1 0.4238 1.499966 4.644476 24.658678
6904 2302 1 0.4238 39.346677 28.964766 8.15737
6905 2302 2 -0.8476 38.47668 28.511561 8.351562
6906 2302 1 0.4238 37.807144 29.190484 8.652864
6907 2303 1 0.4238 27.226735 35.532927 34.883809
6908 2303 2 -0.8476 27.645158 36.250608 34.32716
6909 2303 1 0.4238 27.066845 37.066222 34.345229
6910 2304 1 0.4238 1.500239 14.052766 22.909576
6911 2304 2 -0.8476 1.971269 14.718971 22.331386
6912 2304 1 0.4238 1.502159 14.786761 21.450852
6913 2305 1 0.4238 26.761228 19.037908 36.788735
6914 2305 2 -0.8476 26.513771 18.922723 35.826707
6915 2305 1 0.4238 25.535932 18.725907 35.755328
6916 2306 1 0.4238 34.93219 27.793059 28.346469
6917 2306 2 -0.8476 35.921483 27.723364 28.218241
6918 2306 1 0.4238 36.163572 28.054926 27.306397
6919 2307 1 0.4238 16.189924 25.041798 24.763838
6920 2307 2 -0.8476 15.669015 24.612455 25.501618
6921 2307 1 0.4238 16.058371 24.878865 26.383336
6922 2308 1 0.4238 35.118821 21.58676 22.583988
6923 2308 2 -0.8476 35.555925 22.424834 22.910443
6924 2308 1 0.4238 36.489506 22.220855 23.205093
6925 2309 1 0.4238 3.603267 9.043234 1.499722
6926 2309 2 -0.8476 4.079813 8.200826 1.751222
6927 2309 1 0.4238 4.340794 8.240751 2.71574
6928 2310 1 0.4238 5.036478 27.134904 29.485474
6929 2310 2 -0.8476 5.58425 27.871115 29.88289
6930 2310 1 0.4238 6.00183 27.553587 30.734244
6931 2311 1 0.4238 35.84178 4.727348 26.428519
6932 2311 2 -0.8476 36.540205 4.54149 25.737391
6933 2311 1 0.4238 37.330367 5.133964 25.894295
6934 2312 1 0.4238 42.141508 26.900385 20.735307
6935 2312 2 -0.8476 41.772028 27.30963 19.901039
6936 2312 1 0.4238 41.515546 28.259287 20.08095
6937 2313 1 0.4238 43.903612 15.907459 18.890969
6938 2313 2 -0.8476 44.439576 16.746651 18.983155
6939 2313 1 0.4238 43.825361 17.517616 19.151538
6940 2314 1 0.4238 17.692094 27.967267 30.505303
6941 2314 2 -0.8476 17.217918 28.612342 29.906107
6942 2314 1 0.4238 17.280966 29.533073 30.291176
6943 2315 1 0.4238 28.083 18.26456 28.412218
6944 2315 2 -0.8476 27.496003 17.517278 28.100765
6945 2315 1 0.4238 26.64263 17.892433 27.738808
6946 2316 1 0.4238 44.284719 30.809917 1.499967
6947 2316 2 -0.8476 45.267018 30.947872 1.626685
6948 2316 1 0.4238 45.71631 30.061584 1.739075
6949 2317 1 0.4238 27.873062 4.298638 18.697614
6950 2317 2 -0.8476 27.331726 3.470787 18.84464
6951 2317 1 0.4238 26.523029 3.492577 18.256818
6952 2318 1 0.4238 40.927061 24.383168 41.857047
6953 2318 2 -0.8476 40.073501 24.506837 42.363153
6954 2318 1 0.4238 39.634538 23.618579 42.498464
6955 2319 1 0.4238 4.212973 39.355366 6.686121
6956 2319 2 -0.8476 3.973329 39.593752 7.62726
6957 2319 1 0.4238 3.600115 38.78968 8.090055
6958 2320 1 0.4238 20.901581 42.381734 24.053836
6959 2320 2 -0.8476 21.351233 42.614094 23.191385
6960 2320 1 0.4238 20.66244 42.883799 22.518464
6961 2321 1 0.4238 38.083071 37.071422 21.842433
6962 2321 2 -0.8476 37.6516 36.210954 22.11341
6963 2321 1 0.4238 38.302804 35.460823 21.998361
6964 2322 1 0.4238 2.642406 23.836503 13.735287
6965 2322 2 -0.8476 3.406008 23.660252 13.114121
6966 2322 1 0.4238 3.389819 22.701718 12.829604
6967 2323 1 0.4238 18.021237 44.926935 37.355475
6968 2323 2 -0.8476 18.343535 44.56158 38.228768
6969 2323 1 0.4238 19.030117 43.85413 38.061078
6970 2324 1 0.4238 48.176385 16.341355 19.979278
6971 2324 2 -0.8476 47.573136 17.138104 20.015076
6972 2324 1 0.4238 47.498805 17.54115 19.10292
6973 2325 1 0.4238 26.434406 25.694159 31.640552
6974 2325 2 -0.8476 27.285798 26.191853 31.80618
6975 2325 1 0.4238 27.224308 26.676356 32.678806
6976 2326 1 0.4238 38.281063 36.577608 39.997341
6977 2326 2 -0.8476 38.46311 35.601955 39.875034
6978 2326 1 0.4238 37.596734 35.106865 39.809633
6979 2327 1 0.4238 11.023917 41.071923 6.139285
6980 2327 2 -0.8476 10.158643 41.230291 5.663658
6981 2327 1 0.4238 9.944178 42.206914 5.678214
6982 2328 1 0.4238 37.881678 29.043143 18.770482
6983 2328 2 -0.8476 38.875482 28.934417 18.793555
6984 2328 1 0.4238 39.103969 27.961032 18.811295
6985 2329 1 0.4238 11.948348 40.289163 34.967722
6986 2329 2 -0.8476 11.679722 40.137713 35.918986
6987 2329 1 0.4238 11.786786 39.169602 36.145477
6988 2330 1 0.4238 41.701981 17.284533 34.722775
6989 2330 2 -0.8476 40.748087 16.994649 34.800581
6990 2330 1 0.4238 40.226344 17.693146 35.290363
6991 2331 1 0.4238 27.636434 3.732794 5.970127
6992 2331 2 -0.8476 28.002075 4.456776 5.385185
6993 2331 1 0.4238 27.952248 5.331623 5.867014
6994 2332 1 0.4238 8.407019 6.379169 4.22095
6995 2332 2 -0.8476 8.498072 6.514449 5.207565
6996 2332 1 0.4238 7.635026 6.857905 5.577955
6997 2333 1 0.4238 14.596056 12.445719 41.647928
6998 2333 2 -0.8476 13.603314 12.493445 41.75832
6999 2333 1 0.4238 13.372543 13.243516 42.378108
7000 2334 1 0.4238 28.472168 48.175242 39.646404
7001 2334 2 -0.8476 28.031775 48.031189 38.760231
7002 2334 1 0.4238 28.698057 48.177991 38.029125
7003 2335 1 0.4238 25.255972 46.68457 12.554012
7004 2335 2 -0.8476 26.086153 47.234487 12.462412
7005 2335 1 0.4238 25.838387 48.178002 12.242433
7006 2336 1 0.4238 17.687566 45.912408 18.037325
7007 2336 2 -0.8476 18.138868 45.927739 17.145086
7008 2336 1 0.4238 18.875684 46.603747 17.15582
7009 2337 1 0.4238 27.944876 37.218184 36.935038
7010 2337 2 -0.8476 26.964251 37.11636 37.102392
7011 2337 1 0.4238 26.7918 37.12264 38.08739
7012 2338 1 0.4238 22.621148 35.786912 12.017811
7013 2338 2 -0.8476 21.776155 36.215053 11.697369
7014 2338 1 0.4238 21.117876 35.505726 11.445331
7015 2339 1 0.4238 26.102302 22.562388 24.694308
7016 2339 2 -0.8476 26.336774 23.079935 23.871406
7017 2339 1 0.4238 27.085324 23.710572 24.076272
7018 2340 1 0.4238 48.178007 4.795422 26.939331
7019 2340 2 -0.8476 47.604324 4.320889 26.271719
7020 2340 1 0.4238 48.177623 3.74408 25.689809
7021 2341 1 0.4238 33.812932 45.274038 27.720534
7022 2341 2 -0.8476 33.902936 46.149382 27.245486
7023 2341 1 0.4238 34.603693 46.073163 26.536169
7024 2342 1 0.4238 36.146533 7.477369 25.910908
7025 2342 2 -0.8476 35.429594 7.045968 25.363284
7026 2342 1 0.4238 35.522121 7.330736 24.409164
7027 2343 1 0.4238 3.049506 5.900417 48.178097
7028 2343 2 -0.8476 2.680416 4.971023 48.178113
7029 2343 1 0.4238 3.433641 4.31326 48.178126
7030 2344 1 0.4238 2.848836 27.374162 12.93303
7031 2344 2 -0.8476 2.499853 26.7766 12.211136
7032 2344 1 0.4238 1.5 26.784097 12.226566
7033 2345 1 0.4238 11.394138 13.395005 23.413986
7034 2345 2 -0.8476 11.61094 14.329977 23.133231
7035 2345 1 0.4238 12.550088 14.366124 22.791625
7036 2346 1 0.4238 14.766388 6.101697 12.589488
7037 2346 2 -0.8476 15.22314 6.31625 13.452821
7038 2346 1 0.4238 14.558655 6.280724 14.199277
7039 2347 1 0.4238 26.807288 37.802539 1.532702
7040 2347 2 -0.8476 25.941351 37.331144 1.699853
7041 2347 1 0.4238 25.181259 37.94946 1.499989
7042 2348 1 0.4238 46.343233 1.499878 35.540115
7043 2348 2 -0.8476 47.045075 1.772809 36.198086
7044 2348 1 0.4238 47.945002 1.500088 35.857859
7045 2349 1 0.4238 48.178022 41.31009 16.928372
7046 2349 2 -0.8476 47.644555 42.134999 17.115287
7047 2349 1 0.4238 48.158231 42.939077 16.815961
7048 2350 1 0.4238 16.632033 24.877182 1.500001
7049 2350 2 -0.8476 15.935403 25.594433 1.516078
7050 2350 1 0.4238 16.379514 26.490396 1.520004
7051 2351 1 0.4238 20.690605 41.142248 4.270144
7052 2351 2 -0.8476 19.717821 40.973715 4.429164
7053 2351 1 0.4238 19.264962 40.787263 3.557296
7054 2352 1 0.4238 37.968811 12.245774 11.810419
7055 2352 2 -0.8476 38.022163 13.162187 11.413756
7056 2352 1 0.4238 37.279732 13.283987 10.755
7057 2353 1 0.4238 25.704871 4.829487 27.824983
7058 2353 2 -0.8476 25.486844 5.798858 27.938049
7059 2353 1 0.4238 24.753544 6.051401 27.306786
7060 2354 1 0.4238 15.926372 2.497078 33.928015
7061 2354 2 -0.8476 15.279338 2.999883 34.501193
7062 2354 1 0.4238 15.76967 3.429087 35.259716
7063 2355 1 0.4238 7.696692 26.891864 10.931659
7064 2355 2 -0.8476 7.468559 26.309047 11.711581
7065 2355 1 0.4238 8.297604 25.861822 12.04725
7066 2356 1 0.4238 3.896175 10.089431 10.58213
7067 2356 2 -0.8476 4.414069 10.937183 10.467664
7068 2356 1 0.4238 3.781529 11.695479 10.30993
7069 2357 1 0.4238 13.561105 15.443163 9.755245
7070 2357 2 -0.8476 13.636882 14.675915 10.392103
7071 2357 1 0.4238 13.752542 13.826087 9.87789
7072 2358 1 0.4238 23.783904 41.536092 23.862954
7073 2358 2 -0.8476 23.204246 40.931795 24.4096
7074 2358 1 0.4238 23.081517 41.323012 25.321678
7075 2359 1 0.4238 9.420837 2.724419 3.794497
7076 2359 2 -0.8476 9.922692 3.589264 3.808119
7077 2359 1 0.4238 10.905453 3.404386 3.808119
7078 2360 1 0.4238 19.735015 18.280338 44.029749
7079 2360 2 -0.8476 19.982755 17.508614 43.444031
7080 2360 1 0.4238 20.118301 16.693143 44.006734
7081 2361 1 0.4238 3.657588 44.685028 34.734604
7082 2361 2 -0.8476 3.859531 45.404904 35.39868
7083 2361 1 0.4238 4.022756 44.994497 36.295856
7084 2362 1 0.4238 10.964413 20.631928 1.5
7085 2362 2 -0.8476 11.527785 19.809665 1.580596
7086 2362 1 0.4238 12.494522 20.064182 1.555285
7087 2363 1 0.4238 1.500001 21.263562 23.986605
7088 2363 2 -0.8476 1.590755 22.244618 24.157756
7089 2363 1 0.4238 2.556852 22.500713 24.124992
7090 2364 1 0.4238 3.465188 13.796529 44.2451
7091 2364 2 -0.8476 4.382679 13.551274 43.931955
7092 2364 1 0.4238 4.465167 12.555607 43.889041
7093 2365 1 0.4238 18.856395 12.293838 40.390423
7094 2365 2 -0.8476 19.673231 12.153999 40.950088
7095 2365 1 0.4238 20.380859 12.805061 40.675533
7096 2366 1 0.4238 16.448513 31.584128 42.420782
7097 2366 2 -0.8476 15.686787 32.224639 42.518351
7098 2366 1 0.4238 14.882249 31.859592 42.049888
7099 2367 1 0.4238 48.158525 34.174121 40.282234
7100 2367 2 -0.8476 48.178071 35.069606 40.726897
7101 2367 1 0.4238 47.988577 34.961364 41.702794
7102 2368 1 0.4238 27.156449 21.324593 47.35327
7103 2368 2 -0.8476 27.298575 21.872139 48.177888
7104 2368 1 0.4238 26.664408 22.645335 48.177989
7105 2369 1 0.4238 25.922503 42.659064 26.70982
7106 2369 2 -0.8476 25.516302 42.508996 25.808443
7107 2369 1 0.4238 26.147323 41.978244 25.242657
7108 2370 1 0.4238 37.198295 46.014152 27.605053
7109 2370 2 -0.8476 36.472688 45.906295 28.284657
7110 2370 1 0.4238 36.204393 46.805104 28.631298
7111 2371 1 0.4238 45.073324 41.621454 35.672199
7112 2371 2 -0.8476 45.292159 42.463646 35.179428
7113 2371 1 0.4238 46.204829 42.776284 35.442658
7114 2372 1 0.4238 29.032484 23.413201 39.254055
7115 2372 2 -0.8476 28.116998 23.025882 39.145109
7116 2372 1 0.4238 28.183672 22.132967 38.69985
7117 2373 1 0.4238 15.861183 35.416526 17.882336
7118 2373 2 -0.8476 15.230043 35.155531 18.612777
7119 2373 1 0.4238 14.99482 34.188014 18.520145
7120 2374 1 0.4238 12.803093 48.066354 18.89304
7121 2374 2 -0.8476 13.793622 48.177836 18.812896
7122 2374 1 0.4238 14.213632 47.292493 18.613498
7123 2375 1 0.4238 45.810158 10.908927 39.219456
7124 2375 2 -0.8476 46.071955 11.401191 40.0496
7125 2375 1 0.4238 45.780011 12.354915 39.977635
7126 2376 1 0.4238 34.95488 1.499983 24.400093
7127 2376 2 -0.8476 34.608419 2.419847 24.216209
7128 2376 1 0.4238 34.71422 2.985529 25.034017
7129 2377 1 0.4238 5.985873 14.975719 18.6735
7130 2377 2 -0.8476 5.155213 15.526946 18.751938
7131 2377 1 0.4238 4.405176 14.954282 19.082845
7132 2378 1 0.4238 43.629189 5.776678 33.482981
7133 2378 2 -0.8476 44.471601 5.802663 32.944774
7134 2378 1 0.4238 45.01718 6.595044 33.217679
7135 2379 1 0.4238 35.047659 13.11816 45.529696
7136 2379 2 -0.8476 35.295048 13.939905 46.043051
7137 2379 1 0.4238 36.256786 14.15886 45.878378
7138 2380 1 0.4238 25.772413 21.660454 34.299438
7139 2380 2 -0.8476 25.037077 22.313199 34.481662
7140 2380 1 0.4238 24.154512 21.84731 34.41821
7141 2381 1 0.4238 1.498269 2.047202 2.291454
7142 2381 2 -0.8476 1.60464 2.647663 1.498907
7143 2381 1 0.4238 2.002643 3.517402 1.79071
7144 2382 1 0.4238 5.497628 10.407451 20.273414
7145 2382 2 -0.8476 5.301002 9.659947 19.638925
7146 2382 1 0.4238 4.639596 9.968347 18.955235
7147 2383 1 0.4238 1.677662 42.643153 18.447338
7148 2383 2 -0.8476 1.524423 43.608502 18.65857
7149 2383 1 0.4238 1.499901 44.135739 17.809205
7150 2384 1 0.4238 1.499997 35.295437 48.173024
7151 2384 2 -0.8476 2.154271 36.05167 48.166804
7152 2384 1 0.4238 1.659472 36.920604 48.178048
7153 2385 1 0.4238 27.460908 11.466974 11.679811
7154 2385 2 -0.8476 28.209025 11.889022 11.16776
7155 2385 1 0.4238 28.255733 12.863323 11.388112
7156 2386 1 0.4238 14.236809 39.989451 4.349506
7157 2386 2 -0.8476 14.100522 39.026387 4.117269
7158 2386 1 0.4238 13.194192 38.906244 3.712137
7159 2387 1 0.4238 46.721425 17.07778 45.708669
7160 2387 2 -0.8476 47.700844 17.162903 45.891678
7161 2387 1 0.4238 48.178009 17.40477 45.046803
7162 2388 1 0.4238 48.140548 43.138424 42.391514
7163 2388 2 -0.8476 47.577035 43.232223 41.570749
7164 2388 1 0.4238 48.161577 43.202558 40.759929
7165 2389 1 0.4238 45.027391 38.479333 12.110074
7166 2389 2 -0.8476 45.396996 37.647386 11.696243
7167 2389 1 0.4238 45.150337 37.61901 10.727556
7168 2390 1 0.4238 43.077752 14.489289 16.610974
7169 2390 2 -0.8476 43.514665 13.592202 16.676867
7170 2390 1 0.4238 44.420434 13.630797 16.254856
7171 2391 1 0.4238 35.544632 12.893405 19.796206
7172 2391 2 -0.8476 36.443018 12.599702 20.122766
7173 2391 1 0.4238 36.395919 11.64407 20.413538
7174 2392 1 0.4238 31.363282 3.890792 43.495149
7175 2392 2 -0.8476 31.80635 4.785827 43.444136
7176 2392 1 0.4238 32.36315 4.929229 44.262311
7177 2393 1 0.4238 13.430623 43.636944 39.593453
7178 2393 2 -0.8476 12.912588 44.485741 39.487701
7179 2393 1 0.4238 13.545559 45.258051 39.433991
7180 2394 1 0.4238 24.691342 44.959343 25.775786
7181 2394 2 -0.8476 24.734579 45.021117 26.772939
7182 2394 1 0.4238 25.658279 45.28487 27.050812
7183 2395 1 0.4238 25.175248 36.085694 32.627892
7184 2395 2 -0.8476 24.467911 35.427484 32.885637
7185 2395 1 0.4238 24.687935 34.532597 32.497349
7186 2396 1 0.4238 8.276276 25.376775 22.821975
7187 2396 2 -0.8476 8.120909 24.393542 22.917446
7188 2396 1 0.4238 7.17078 24.230493 23.183282
7189 2397 1 0.4238 31.072439 10.891381 38.653229
7190 2397 2 -0.8476 31.785045 10.849225 39.353526
7191 2397 1 0.4238 32.482517 10.186916 39.079885
7192 2398 1 0.4238 14.304503 19.768647 12.64808
7193 2398 2 -0.8476 14.37263 18.890143 13.120931
7194 2398 1 0.4238 15.243147 18.841854 13.610694
7195 2399 1 0.4238 3.245506 21.78917 16.002389
7196 2399 2 -0.8476 3.603731 21.141544 15.32989
7197 2399 1 0.4238 3.3232 20.214268 15.577803
7198 2400 1 0.4238 39.126436 1.735441 4.088494
7199 2400 2 -0.8476 38.408453 1.49983 4.743466
7200 2400 1 0.4238 38.327266 2.227111 5.424987
7201 2401 1 0.4238 6.128071 31.215939 23.582338
7202 2401 2 -0.8476 6.337585 31.748458 24.402415
7203 2401 1 0.4238 7.097684 32.369545 24.211361
7204 2402 1 0.4238 30.79297 18.382762 28.711514
7205 2402 2 -0.8476 31.585887 18.922443 28.994406
7206 2402 1 0.4238 31.893418 19.488964 28.229894
7207 2403 1 0.4238 15.677939 28.208441 36.479737
7208 2403 2 -0.8476 15.317947 28.030131 37.395495
7209 2403 1 0.4238 14.594259 28.688281 37.603133
7210 2404 1 0.4238 24.379532 25.53499 13.274822
7211 2404 2 -0.8476 23.384513 25.634596 13.270883
7212 2404 1 0.4238 22.959308 24.731143 13.21636
7213 2405 1 0.4238 32.558636 35.888856 25.930054
7214 2405 2 -0.8476 33.194322 35.14266 26.127776
7215 2405 1 0.4238 34.133982 35.471186 26.032333
7216 2406 1 0.4238 20.890513 26.004581 16.006842
7217 2406 2 -0.8476 21.316305 25.739915 15.141595
7218 2406 1 0.4238 20.617236 25.687176 14.428489
7219 2407 1 0.4238 35.470781 7.589689 37.032704
7220 2407 2 -0.8476 36.168571 6.906265 36.818177
7221 2407 1 0.4238 37.072248 7.333829 36.841751
7222 2408 1 0.4238 39.346498 42.914326 6.232527
7223 2408 2 -0.8476 39.855228 43.762569 6.085296
7224 2408 1 0.4238 40.833995 43.561548 6.045224
7225 2409 1 0.4238 39.184751 31.181857 23.310251
7226 2409 2 -0.8476 38.530106 31.936213 23.261399
7227 2409 1 0.4238 39.018207 32.806184 23.331464
7228 2410 1 0.4238 47.30381 4.340864 44.72695
7229 2410 2 -0.8476 48.189513 4.804328 44.699918
7230 2410 1 0.4238 48.047142 5.79349 44.664028
7231 2411 1 0.4238 2.964109 1.500002 19.355294
7232 2411 2 -0.8476 2.428073 1.913192 18.619129
7233 2411 1 0.4238 1.517493 1.500415 18.597713
7234 2412 1 0.4238 1.632126 10.404686 35.654031
7235 2412 2 -0.8476 1.576006 9.409378 35.575206
7236 2412 1 0.4238 1.497309 9.006708 36.487162
7237 2413 1 0.4238 39.095764 19.54089 19.410654
7238 2413 2 -0.8476 38.902533 18.56813 19.282591
7239 2413 1 0.4238 38.358551 18.232308 20.051555
7240 2414 1 0.4238 41.529131 45.181203 48.178557
7241 2414 2 -0.8476 42.462819 45.538182 48.150415
7242 2414 1 0.4238 43.110092 44.776531 48.120007
7243 2415 1 0.4238 18.252529 43.364304 4.133553
7244 2415 2 -0.8476 17.613707 44.070485 4.438863
7245 2415 1 0.4238 17.190565 44.503739 3.643098
7246 2416 1 0.4238 40.907868 21.061603 36.480428
7247 2416 2 -0.8476 40.868125 20.062395 36.478367
7248 2416 1 0.4238 41.789741 19.691922 36.594008
7249 2417 1 0.4238 10.084799 13.640339 30.639129
7250 2417 2 -0.8476 9.396495 13.180401 31.200105
7251 2417 1 0.4238 9.393373 12.202936 30.989029
7252 2418 1 0.4238 9.599926 19.298121 26.747331
7253 2418 2 -0.8476 9.870734 19.866346 27.524366
7254 2418 1 0.4238 10.471104 19.341576 28.127833
7255 2419 1 0.4238 36.784375 1.766262 46.331088
7256 2419 2 -0.8476 36.424377 1.513263 45.433094
7257 2419 1 0.4238 35.425017 1.499992 45.466292
7258 2420 1 0.4238 16.038464 38.379067 34.039187
7259 2420 2 -0.8476 16.520886 39.253606 34.088689
7260 2420 1 0.4238 17.507072 39.093027 34.048059
7261 2421 1 0.4238 22.242025 7.048907 34.872401
7262 2421 2 -0.8476 22.82891 6.612989 34.190095
7263 2421 1 0.4238 22.618165 6.981691 33.284753
7264 2422 1 0.4238 28.144411 6.902785 30.613891
7265 2422 2 -0.8476 27.302553 7.35377 30.91035
7266 2422 1 0.4238 27.524527 8.240167 31.316585
7267 2423 1 0.4238 5.287522 15.820062 39.747578
7268 2423 2 -0.8476 6.166523 15.357777 39.864409
7269 2423 1 0.4238 6.044325 14.550243 40.441433
7270 2424 1 0.4238 16.874791 42.929095 11.055921
7271 2424 2 -0.8476 17.56443 43.464943 11.543019
7272 2424 1 0.4238 17.502762 44.42245 11.261277
7273 2425 1 0.4238 10.462582 42.203976 40.056692
7274 2425 2 -0.8476 10.721487 43.010779 39.525621
7275 2425 1 0.4238 10.061624 43.149577 38.787167
7276 2426 1 0.4238 35.696257 40.312493 12.657112
7277 2426 2 -0.8476 36.362683 40.309726 13.402678
7278 2426 1 0.4238 37.212111 40.736325 13.092058
7279 2427 1 0.4238 22.895221 25.097263 38.778076
7280 2427 2 -0.8476 22.137067 24.602629 38.353177
7281 2427 1 0.4238 21.27367 25.047133 38.591841
7282 2428 1 0.4238 44.949424 34.755876 11.861838
7283 2428 2 -0.8476 44.158686 35.366586 11.819823
7284 2428 1 0.4238 43.32197 34.823929 11.746137
7285 2429 1 0.4238 25.895177 11.924361 25.890741
7286 2429 2 -0.8476 26.261568 12.715464 25.400931
7287 2429 1 0.4238 27.147542 12.479346 25.00181
7288 2430 1 0.4238 24.991325 16.544789 38.99748
7289 2430 2 -0.8476 24.520111 17.418955 39.114918
7290 2430 1 0.4238 24.786656 18.042645 38.380095
7291 2431 1 0.4238 9.80368 16.566951 36.395344
7292 2431 2 -0.8476 9.822027 16.03259 37.240401
7293 2431 1 0.4238 10.189326 16.594076 37.981902
7294 2432 1 0.4238 32.085026 13.367396 21.395894
7295 2432 2 -0.8476 31.501931 14.0219 21.877169
7296 2432 1 0.4238 30.544053 13.842949 21.652566
7297 2433 1 0.4238 2.697543 1.499168 42.294586
7298 2433 2 -0.8476 2.31076 1.610262 43.21004
7299 2433 1 0.4238 1.498522 2.191474 43.160429
7300 2434 1 0.4238 28.472911 40.897489 43.499746
7301 2434 2 -0.8476 27.481795 40.781827 43.434084
7302 2434 1 0.4238 27.098803 40.661943 44.350023
7303 2435 1 0.4238 34.039817 7.872566 17.26746
7304 2435 2 -0.8476 33.228439 8.350391 16.930787
7305 2435 1 0.4238 33.351077 8.57508 15.964105
7306 2436 1 0.4238 27.786519 1.858929 23.588013
7307 2436 2 -0.8476 27.222714 1.500125 22.844116
7308 2436 1 0.4238 26.271291 1.773819 22.985133
7309 2437 1 0.4238 38.976009 29.314209 13.613808
7310 2437 2 -0.8476 39.25554 28.374057 13.41893
7311 2437 1 0.4238 39.925586 28.372618 12.676611
7312 2438 1 0.4238 45.685256 13.069723 10.911891
7313 2438 2 -0.8476 45.363656 12.131369 10.785142
7314 2438 1 0.4238 46.149147 11.516865 10.711737
7315 2439 1 0.4238 2.389963 7.40484 16.724677
7316 2439 2 -0.8476 1.503143 7.219695 16.301272
7317 2439 1 0.4238 1.568938 6.39761 15.735722
7318 2440 1 0.4238 15.429786 25.454148 13.053905
7319 2440 2 -0.8476 14.788265 25.634279 12.30825
7320 2440 1 0.4238 14.188745 26.39384 12.560527
7321 2441 1 0.4238 43.889934 13.28103 35.634525
7322 2441 2 -0.8476 44.639648 13.518144 35.016701
7323 2441 1 0.4238 44.265996 13.880969 34.163037
7324 2442 1 0.4238 18.833018 45.730665 29.242972
7325 2442 2 -0.8476 18.751042 45.563516 30.225489
7326 2442 1 0.4238 18.496207 44.609136 30.381109
7327 2443 1 0.4238 19.548112 46.890002 24.531198
7328 2443 2 -0.8476 20.373834 47.24907 24.966231
7329 2443 1 0.4238 20.201028 48.178 25.293685
7330 2444 1 0.4238 26.162225 43.617072 8.822812
7331 2444 2 -0.8476 25.946173 43.006781 9.584958
7332 2444 1 0.4238 25.133807 43.343126 10.061334
7333 2445 1 0.4238 37.751103 16.347451 46.323221
7334 2445 2 -0.8476 38.594296 16.21067 46.843141
7335 2445 1 0.4238 39.266613 16.900837 46.575449
7336 2446 1 0.4238 27.45941 16.940656 13.63928
7337 2446 2 -0.8476 27.23229 17.341713 12.751828
7338 2446 1 0.4238 27.837246 18.117392 12.571967
7339 2447 1 0.4238 48.178136 32.976573 43.210955
7340 2447 2 -0.8476 48.14959 32.318897 42.458196
7341 2447 1 0.4238 47.200081 32.06632 42.272087
7342 2448 1 0.4238 1.501968 48.178075 42.838552
7343 2448 2 -0.8476 1.543842 47.535627 42.073367
7344 2448 1 0.4238 2.451827 47.573045 41.656041
7345 2449 1 0.4238 19.696004 8.397839 29.024935
7346 2449 2 -0.8476 18.992217 7.803313 29.413809
7347 2449 1 0.4238 18.105967 8.026202 29.007753
7348 2450 1 0.4238 20.907685 27.186798 46.467499
7349 2450 2 -0.8476 20.564646 26.564616 47.171213
7350 2450 1 0.4238 21.005044 26.773635 48.044345
7351 2451 1 0.4238 30.601937 25.694026 29.768141
7352 2451 2 -0.8476 30.688626 25.53545 30.751675
7353 2451 1 0.4238 31.484237 26.030877 31.100322
7354 2452 1 0.4238 48.178011 41.5796 27.809005
7355 2452 2 -0.8476 47.926297 40.624848 27.650609
7356 2452 1 0.4238 47.146186 40.385509 28.22866
7357 2453 1 0.4238 9.568361 31.202289 44.865331
7358 2453 2 -0.8476 9.812397 32.165096 44.981301
7359 2453 1 0.4238 9.573289 32.460476 45.906276
7360 2454 1 0.4238 30.359162 25.291489 15.700784
7361 2454 2 -0.8476 30.335023 26.200803 15.285373
7362 2454 1 0.4238 31.02131 26.784078 15.719884
7363 2455 1 0.4238 19.163442 9.119901 48.160461
7364 2455 2 -0.8476 18.401715 8.472038 48.167235
7365 2455 1 0.4238 17.537063 8.974289 48.17818
7366 2456 1 0.4238 14.035938 3.919381 13.566183
7367 2456 2 -0.8476 13.455822 3.601467 14.316113
7368 2456 1 0.4238 12.527146 3.449524 13.977773
7369 2457 1 0.4238 13.603985 28.708387 1.505896
7370 2457 2 -0.8476 13.054073 28.602515 2.334382
7371 2457 1 0.4238 12.67088 29.488486 2.595569
7372 2458 1 0.4238 11.014095 13.147229 1.5
7373 2458 2 -0.8476 10.734597 12.187082 1.5
7374 2458 1 0.4238 11.546678 11.603538 1.499998
7375 2459 1 0.4238 30.81199 32.007093 21.292416
7376 2459 2 -0.8476 30.312639 31.270963 21.749319
7377 2459 1 0.4238 30.675181 30.387697 21.451992
7378 2460 1 0.4238 34.902197 1.5 16.855112
7379 2460 2 -0.8476 34.113425 1.996919 16.493296
7380 2460 1 0.4238 33.740998 1.503977 15.706972
7381 2461 1 0.4238 48.178003 32.081579 18.397477
7382 2461 2 -0.8476 47.612781 32.113992 19.221779
7383 2461 1 0.4238 48.178006 32.377993 20.00333
7384 2462 1 0.4238 5.785271 43.009675 23.335731
7385 2462 2 -0.8476 4.935799 42.495092 23.452364
7386 2462 1 0.4238 4.800082 42.291148 24.421893
7387 2463 1 0.4238 45.772855 22.875894 15.746395
7388 2463 2 -0.8476 45.407965 23.068422 16.657322
7389 2463 1 0.4238 45.873891 23.865545 17.041388
7390 2464 1 0.4238 1.534199 10.344014 38.599069
7391 2464 2 -0.8476 1.49958 10.319102 39.598159
7392 2464 1 0.4238 1.525899 11.252528 39.955962
7393 2465 1 0.4238 5.423858 28.795451 1.499977
7394 2465 2 -0.8476 5.757533 29.738139 1.50001
7395 2465 1 0.4238 4.97997 30.366944 1.500048
7396 2466 1 0.4238 19.229214 26.592169 32.320677
7397 2466 2 -0.8476 19.93346 26.13904 31.77413
7398 2466 1 0.4238 19.611937 26.039548 30.83247
7399 2467 1 0.4238 38.575486 32.274145 34.616676
7400 2467 2 -0.8476 38.779637 32.853484 35.405783
7401 2467 1 0.4238 38.954345 32.278524 36.205095
7402 2468 1 0.4238 23.814466 21.089367 15.956904
7403 2468 2 -0.8476 24.237983 20.607922 16.724266
7404 2468 1 0.4238 25.231089 20.715669 16.678121
7405 2469 1 0.4238 22.710575 19.663738 35.419933
7406 2469 2 -0.8476 22.06016 20.160706 35.994374
7407 2469 1 0.4238 21.812886 21.021646 35.549809
7408 2470 1 0.4238 25.806682 38.568082 43.907128
7409 2470 2 -0.8476 25.099069 37.943802 44.238125
7410 2470 1 0.4238 24.276338 38.045962 43.678949
7411 2471 1 0.4238 1.673697 26.052093 33.869859
7412 2471 2 -0.8476 1.499997 25.148577 33.478084
7413 2471 1 0.4238 1.598729 25.191776 32.483908
7414 2472 1 0.4238 33.669164 42.95081 11.496637
7415 2472 2 -0.8476 33.136987 43.041052 12.338447
7416 2472 1 0.4238 33.060401 42.147943 12.781719
7417 2473 1 0.4238 17.253747 37.397299 9.773207
7418 2473 2 -0.8476 16.614906 37.727064 9.078126
7419 2473 1 0.4238 15.711868 37.853635 9.488616
7420 2474 1 0.4238 8.328258 8.478981 25.983799
7421 2474 2 -0.8476 8.845272 7.991459 25.280223
7422 2474 1 0.4238 8.310471 7.21223 24.953435
7423 2475 1 0.4238 39.607513 19.113978 6.326159
7424 2475 2 -0.8476 38.70905 18.821779 6.653854
7425 2475 1 0.4238 38.484803 19.313914 7.494994
7426 2476 1 0.4238 13.428635 2.905077 2.312929
7427 2476 2 -0.8476 13.779385 2.440327 1.499921
7428 2476 1 0.4238 14.026246 1.499972 1.733996
7429 2477 1 0.4238 11.516795 27.719642 33.157811
7430 2477 2 -0.8476 12.167252 26.969819 33.036687
7431 2477 1 0.4238 13.057733 27.340418 32.772681
7432 2478 1 0.4238 23.458669 44.077363 45.819918
7433 2478 2 -0.8476 23.719467 44.786023 46.475498
7434 2478 1 0.4238 23.077417 45.55016 46.413331
7435 2479 1 0.4238 40.919255 34.416834 39.574526
7436 2479 2 -0.8476 41.061812 33.663347 38.932705
7437 2479 1 0.4238 41.627815 33.977363 38.170449
7438 2480 1 0.4238 28.878133 40.028197 8.115985
7439 2480 2 -0.8476 29.828279 39.900081 7.831715
7440 2480 1 0.4238 30.255738 40.792269 7.68584
7441 2481 1 0.4238 44.174383 16.62017 4.050226
7442 2481 2 -0.8476 43.436097 16.608757 4.724617
7443 2481 1 0.4238 43.681892 15.998361 5.477612
7444 2482 1 0.4238 6.347219 39.971645 28.210746
7445 2482 2 -0.8476 7.31386 39.909619 28.459256
7446 2482 1 0.4238 7.637205 40.80474 28.766187
7447 2483 1 0.4238 2.88557 6.709826 24.91226
7448 2483 2 -0.8476 2.49009 7.619392 24.784649
7449 2483 1 0.4238 1.499989 7.539188 24.669467
7450 2484 1 0.4238 36.872528 35.136076 48.122367
7451 2484 2 -0.8476 36.422272 35.154382 47.229655
7452 2484 1 0.4238 36.88253 34.517566 46.611086
7453 2485 1 0.4238 42.894456 22.389682 1.588837
7454 2485 2 -0.8476 43.481102 21.690556 1.997579
7455 2485 1 0.4238 43.37067 20.830211 1.499974
7456 2486 1 0.4238 6.611207 10.813242 1.571967
7457 2486 2 -0.8476 5.757144 10.301536 1.665416
7458 2486 1 0.4238 5.319884 10.538407 2.532996
7459 2487 1 0.4238 7.243732 44.586387 4.011651
7460 2487 2 -0.8476 7.703493 43.72609 3.791402
7461 2487 1 0.4238 8.680464 43.810607 3.98732
7462 2488 1 0.4238 41.639401 14.03246 14.440249
7463 2488 2 -0.8476 41.559094 13.174898 14.948322
7464 2488 1 0.4238 41.837732 12.413405 14.363096
7465 2489 1 0.4238 2.032198 21.330122 44.420022
7466 2489 2 -0.8476 2.902511 20.917761 44.689309
7467 2489 1 0.4238 3.04135 20.06914 44.178854
7468 2490 1 0.4238 48.178015 15.378415 4.874436
7469 2490 2 -0.8476 47.897209 14.581714 5.409614
7470 2490 1 0.4238 48.125187 14.729472 6.372003
7471 2491 1 0.4238 35.610688 36.908202 40.514634
7472 2491 2 -0.8476 35.049406 36.081241 40.547741
7473 2491 1 0.4238 34.093795 36.319865 40.374924
7474 2492 1 0.4238 32.557825 16.810633 3.860542
7475 2492 2 -0.8476 33.410855 17.325154 3.947765
7476 2492 1 0.4238 33.207267 18.303287 3.990295
7477 2493 1 0.4238 47.777229 22.462326 3.746143
7478 2493 2 -0.8476 48.178003 22.915793 4.542225
7479 2493 1 0.4238 48.159015 22.293625 5.324878
7480 2494 1 0.4238 1.500006 40.846099 27.447537
7481 2494 2 -0.8476 2.068767 41.66646 27.506864
7482 2494 1 0.4238 1.499854 42.448873 27.760173
7483 2495 1 0.4238 8.355746 5.743019 36.508683
7484 2495 2 -0.8476 9.086821 5.268003 36.998468
7485 2495 1 0.4238 9.725406 5.93852 37.376113
7486 2496 1 0.4238 42.891386 36.441223 43.697394
7487 2496 2 -0.8476 43.396843 35.770195 44.239828
7488 2496 1 0.4238 44.144068 35.393661 43.692218
7489 2497 1 0.4238 26.060676 47.748084 1.50721
7490 2497 2 -0.8476 26.964807 48.175328 1.504203
7491 2497 1 0.4238 27.668978 47.4653 1.502596
7492 2498 1 0.4238 1.517993 23.644185 15.961911
7493 2498 2 -0.8476 1.512552 23.780917 16.952504
7494 2498 1 0.4238 1.5 22.892584 17.411531
7495 2499 1 0.4238 14.601883 38.167017 38.877949
7496 2499 2 -0.8476 14.075455 39.009073 38.995485
7497 2499 1 0.4238 14.70091 39.775518 39.141664
7498 2500 1 0.4238 39.826341 44.6616 29.872219
7499 2500 2 -0.8476 39.323843 45.297904 30.457551
7500 2500 1 0.4238 38.559213 45.689054 29.945358
7501 2501 1 0.4238 15.520199 11.637113 4.005533
7502 2501 2 -0.8476 16.218941 11.355473 3.347932
7503 2501 1 0.4238 17.022639 11.019408 3.83898
7504 2502 1 0.4238 22.156191 27.025231 8.83194
7505 2502 2 -0.8476 22.827217 26.29266 8.94624
7506 2502 1 0.4238 22.441635 25.574953 9.526086
7507 2503 1 0.4238 1.499999 13.025444 27.677008
7508 2503 2 -0.8476 1.73351 12.399918 26.932568
7509 2503 1 0.4238 2.647212 12.024108 27.087215
7510 2504 1 0.4238 14.903895 14.462049 46.023338
7511 2504 2 -0.8476 15.254168 15.361847 46.283476
7512 2504 1 0.4238 16.25389 15.340314 46.293135
7513 2505 1 0.4238 8.998909 18.304871 24.28519
7514 2505 2 -0.8476 8.361762 18.571122 23.561896
7515 2505 1 0.4238 7.805051 17.782402 23.30114
7516 2506 1 0.4238 38.348035 23.374292 25.647359
7517 2506 2 -0.8476 37.991913 22.448285 25.772614
7518 2506 1 0.4238 38.41151 21.836293 25.102238
7519 2507 1 0.4238 4.402171 42.30598 34.545723
7520 2507 2 -0.8476 3.972987 42.028827 35.405367
7521 2507 1 0.4238 3.270709 41.341263 35.220809
7522 2508 1 0.4238 47.694478 48.178146 43.796634
7523 2508 2 -0.8476 48.179441 48.110273 44.668531
7524 2508 1 0.4238 48.143852 47.166479 44.997142
7525 2509 1 0.4238 6.410615 8.850862 4.020334
7526 2509 2 -0.8476 7.202819 9.351258 3.671027
7527 2509 1 0.4238 8.033661 8.82193 3.842823
7528 2510 1 0.4238 22.170344 18.315357 30.969543
7529 2510 2 -0.8476 23.149112 18.130526 30.880943
7530 2510 1 0.4238 23.613054 18.947808 30.539172
7531 2511 1 0.4238 34.061832 48.178072 44.757173
7532 2511 2 -0.8476 33.769349 47.944485 45.684476
7533 2511 1 0.4238 32.803542 48.17757 45.798005
7534 2512 1 0.4238 15.591463 43.820954 37.965844
7535 2512 2 -0.8476 16.138397 42.994748 38.100924
7536 2512 1 0.4238 15.532196 42.217835 38.271003
7537 2513 1 0.4238 2.745835 38.804075 37.541008
7538 2513 2 -0.8476 2.995742 39.753438 37.350597
7539 2513 1 0.4238 3.955429 39.796187 37.072795
7540 2514 1 0.4238 46.129268 22.14358 19.276695
7541 2514 2 -0.8476 45.97075 23.103016 19.509836
7542 2514 1 0.4238 45.548306 23.160823 20.41438
7543 2515 1 0.4238 33.241447 47.27774 48.178011
7544 2515 2 -0.8476 33.774104 48.124071 48.178009
7545 2515 1 0.4238 34.74958 47.903966 48.178006
7546 2516 1 0.4238 19.985028 2.093642 31.287269
7547 2516 2 -0.8476 20.776226 1.499998 31.434216
7548 2516 1 0.4238 21.536402 2.040808 31.794294
7549 2517 1 0.4238 3.851268 23.418603 27.154977
7550 2517 2 -0.8476 4.018398 23.051428 28.069991
7551 2517 1 0.4238 4.306182 23.790982 28.678464
7552 2518 1 0.4238 5.940107 30.719596 15.355581
7553 2518 2 -0.8476 6.23624 30.032416 14.69219
7554 2518 1 0.4238 6.061519 29.118466 15.058481
7555 2519 1 0.4238 47.853411 29.801324 41.439652
7556 2519 2 -0.8476 48.178141 29.025499 40.898685
7557 2519 1 0.4238 47.834805 28.174731 41.296571
7558 2520 1 0.4238 36.996512 45.227821 19.569451
7559 2520 2 -0.8476 37.975363 45.340114 19.398451
7560 2520 1 0.4238 38.484735 45.144238 20.236408
7561 2521 1 0.4238 13.579261 35.535271 39.668711
7562 2521 2 -0.8476 13.377138 34.610767 39.345543
7563 2521 1 0.4238 14.22825 34.09175 39.266608
7564 2522 1 0.4238 22.014025 1.499999 15.015008
7565 2522 2 -0.8476 21.647619 1.539961 14.085411
7566 2522 1 0.4238 21.116644 2.379757 13.972243
7567 2523 1 0.4238 20.740971 36.796947 26.268132
7568 2523 2 -0.8476 20.250597 37.513199 26.764637
7569 2523 1 0.4238 19.330917 37.192166 26.990749
7570 2524 1 0.4238 22.383784 1.499998 3.894067
7571 2524 2 -0.8476 21.656269 1.970642 4.393282
7572 2524 1 0.4238 20.771374 1.740592 3.988267
7573 2525 1 0.4238 11.633634 34.803735 33.631595
7574 2525 2 -0.8476 11.380852 33.888902 33.316662
7575 2525 1 0.4238 11.13604 33.321541 34.102899
7576 2526 1 0.4238 22.924032 38.771905 11.429073
7577 2526 2 -0.8476 23.780408 38.878705 11.934261
7578 2526 1 0.4238 24.231965 37.990252 12.016404
7579 2527 1 0.4238 41.583502 34.734533 27.982042
7580 2527 2 -0.8476 41.917103 35.403143 27.317459
7581 2527 1 0.4238 42.577188 34.965472 26.706942
7582 2528 1 0.4238 48.178038 47.541462 3.029266
7583 2528 2 -0.8476 47.709617 48.178021 2.416588
7584 2528 1 0.4238 48.114247 48.120934 1.503891
7585 2529 1 0.4238 7.480351 1.499784 34.995406
7586 2529 2 -0.8476 7.135074 2.095389 34.27012
7587 2529 1 0.4238 6.711003 1.539016 33.555549
7588 2530 1 0.4238 9.762968 19.193873 37.173189
7589 2530 2 -0.8476 9.180126 19.990312 37.334373
7590 2530 1 0.4238 8.267114 19.685742 37.605752
7591 2531 1 0.4238 22.037558 6.693326 19.287277
7592 2531 2 -0.8476 21.886609 5.73871 19.54403
7593 2531 1 0.4238 21.369494 5.277409 18.823063
7594 2532 1 0.4238 46.573473 8.467506 27.104578
7595 2532 2 -0.8476 47.406275 8.066075 26.723403
7596 2532 1 0.4238 47.618543 7.216921 27.207014
7597 2533 1 0.4238 32.754807 22.656196 27.414849
7598 2533 2 -0.8476 32.590602 23.61302 27.175008
7599 2533 1 0.4238 32.314606 23.673559 26.215758
7600 2534 1 0.4238 4.684837 3.857692 34.69055
7601 2534 2 -0.8476 4.334097 3.98717 33.763071
7602 2534 1 0.4238 4.052282 4.939116 33.643162
7603 2535 1 0.4238 45.01806 8.325886 37.679022
7604 2535 2 -0.8476 44.653499 8.824882 38.465215
7605 2535 1 0.4238 43.981584 9.495887 38.151716
7606 2536 1 0.4238 27.958692 3.611334 21.462027
7607 2536 2 -0.8476 28.82364 3.82796 21.914728
7608 2536 1 0.4238 29.531454 3.981408 21.225198
7609 2537 1 0.4238 9.299078 6.481611 12.579736
7610 2537 2 -0.8476 9.435562 5.529628 12.85378
7611 2537 1 0.4238 8.608838 5.003562 12.65433
7612 2538 1 0.4238 23.768321 23.346489 19.410538
7613 2538 2 -0.8476 23.771188 24.307302 19.68772
7614 2538 1 0.4238 23.787391 24.366213 20.685851
7615 2539 1 0.4238 13.045818 45.885048 7.775829
7616 2539 2 -0.8476 12.497846 45.658094 6.970709
7617 2539 1 0.4238 13.098801 45.340533 6.237219
7618 2540 1 0.4238 1.499987 8.203166 29.828246
7619 2540 2 -0.8476 2.063006 7.410142 30.060885
7620 2540 1 0.4238 1.499958 6.58398 30.040053
7621 2541 1 0.4238 22.749723 12.836551 33.803653
7622 2541 2 -0.8476 23.64913 12.976528 34.217746
7623 2541 1 0.4238 23.819318 13.956433 34.321782
7624 2542 1 0.4238 15.706179 41.491594 27.633118
7625 2542 2 -0.8476 15.957756 40.914824 26.855915
7626 2542 1 0.4238 15.524943 40.01849 26.952132
7627 2543 1 0.4238 22.100521 17.718405 1.500728
7628 2543 2 -0.8476 22.705231 16.926322 1.583981
7629 2543 1 0.4238 22.156196 16.098365 1.698205
7630 2544 1 0.4238 32.366251 23.55477 15.059221
7631 2544 2 -0.8476 33.344296 23.594585 15.26378
7632 2544 1 0.4238 33.859685 23.191733 14.507417
7633 2545 1 0.4238 1.499993 27.658884 45.086228
7634 2545 2 -0.8476 1.961846 27.357186 45.920295
7635 2545 1 0.4238 1.499941 26.54777 46.28291
7636 2546 1 0.4238 5.376892 30.292707 28.732305
7637 2546 2 -0.8476 5.688795 30.902954 29.460533
7638 2546 1 0.4238 5.453801 30.508922 30.34908
7639 2547 1 0.4238 41.955437 7.00456 27.183562
7640 2547 2 -0.8476 42.201028 7.126192 26.22185
7641 2547 1 0.4238 42.770328 6.360012 25.923746
7642 2548 1 0.4238 38.639877 25.589779 15.544034
7643 2548 2 -0.8476 38.165327 26.426602 15.27103
7644 2548 1 0.4238 38.528972 27.200354 15.789749
7645 2549 1 0.4238 15.750885 32.574351 9.656139
7646 2549 2 -0.8476 15.064748 31.848803 9.709019
7647 2549 1 0.4238 15.402529 31.112728 10.295616
7648 2550 1 0.4238 10.410885 15.776655 43.535074
7649 2550 2 -0.8476 10.116829 14.836156 43.3648
7650 2550 1 0.4238 10.919251 14.256695 43.222167
7651 2551 1 0.4238 32.76594 4.808329 47.253229
7652 2551 2 -0.8476 33.095478 4.397997 48.103542
7653 2551 1 0.4238 34.083458 4.533456 48.178008
7654 2552 1 0.4238 36.297158 48.17808 40.275521
7655 2552 2 -0.8476 36.712164 47.939804 41.153584
7656 2552 1 0.4238 36.084387 48.178171 41.894581
7657 2553 1 0.4238 36.796969 27.656882 24.6409
7658 2553 2 -0.8476 37.493181 26.978259 24.874906
7659 2553 1 0.4238 37.098199 26.292793 25.486564
7660 2554 1 0.4238 18.67054 42.339185 25.629286
7661 2554 2 -0.8476 18.101426 41.587683 25.295589
7662 2554 1 0.4238 17.835558 41.766154 24.348245
7663 2555 1 0.4238 16.931768 48.177645 11.884805
7664 2555 2 -0.8476 17.183957 47.980139 10.937497
7665 2555 1 0.4238 18.154895 48.178011 10.802869
7666 2556 1 0.4238 47.546629 1.527517 1.50744
7667 2556 2 -0.8476 46.547009 1.499971 1.507627
7668 2556 1 0.4238 46.187851 2.433216 1.499917
7669 2557 1 0.4238 29.537808 13.671613 29.378562
7670 2557 2 -0.8476 29.958762 13.0193 30.008867
7671 2557 1 0.4238 29.897002 12.097852 29.625304
7672 2558 1 0.4238 32.046609 32.652027 46.378484
7673 2558 2 -0.8476 31.620939 33.431438 45.918783
7674 2558 1 0.4238 30.668787 33.213 45.705028
7675 2559 1 0.4238 31.632975 19.626915 21.646022
7676 2559 2 -0.8476 31.653669 20.620242 21.759482
7677 2559 1 0.4238 32.601164 20.938983 21.733843
7678 2560 1 0.4238 17.751155 22.846676 25.291653
7679 2560 2 -0.8476 17.856228 22.806732 26.285315
7680 2560 1 0.4238 18.806825 22.594321 26.511695
7681 2561 1 0.4238 22.934307 10.506222 43.759025
7682 2561 2 -0.8476 22.195048 9.838555 43.671185
7683 2561 1 0.4238 22.574772 8.914157 43.707196
7684 2562 1 0.4238 1.607046 33.847792 28.694276
7685 2562 2 -0.8476 1.887209 34.114563 29.616416
7686 2562 1 0.4238 1.501743 33.473784 30.280357
7687 2563 1 0.4238 48.074182 40.465798 48.178014
7688 2563 2 -0.8476 48.177866 39.637687 47.627123
7689 2563 1 0.4238 47.937235 38.83857 48.178039
7690 2564 1 0.4238 38.752984 11.558469 24.323165
7691 2564 2 -0.8476 39.665989 11.943254 24.187654
7692 2564 1 0.4238 39.590914 12.923855 24.006592
7693 2565 1 0.4238 24.428356 39.397492 26.697573
7694 2565 2 -0.8476 24.992158 40.051388 27.202101
7695 2565 1 0.4238 25.956946 39.888772 26.995368
7696 2566 1 0.4238 2.345466 23.143102 39.752549
7697 2566 2 -0.8476 1.5 23.663758 39.63378
7698 2566 1 0.4238 1.658063 24.414219 38.992045
7699 2567 1 0.4238 43.541263 23.388293 24.394681
7700 2567 2 -0.8476 43.308102 22.866604 25.215338
7701 2567 1 0.4238 42.455392 23.217522 25.602302
7702 2568 1 0.4238 33.889622 18.85528 22.992641
7703 2568 2 -0.8476 33.558409 17.943247 22.750787
7704 2568 1 0.4238 32.737518 17.734898 23.282508
7705 2569 1 0.4238 27.761068 11.426377 5.531407
7706 2569 2 -0.8476 27.459348 10.669169 4.952096
7707 2569 1 0.4238 26.489676 10.489004 5.117256
7708 2570 1 0.4238 44.366756 17.051552 34.726813
7709 2570 2 -0.8476 44.562053 16.264205 35.311572
7710 2570 1 0.4238 43.752932 16.045155 35.856862
7711 2571 1 0.4238 27.986695 32.078416 5.879364
7712 2571 2 -0.8476 27.738913 32.913523 5.388241
7713 2571 1 0.4238 28.513376 33.215528 4.832363
7714 2572 1 0.4238 5.681567 12.171994 38.429479
7715 2572 2 -0.8476 6.303638 12.159249 39.212336
7716 2572 1 0.4238 6.353814 11.231892 39.583133
7717 2573 1 0.4238 16.693004 40.845176 4.290439
7718 2573 2 -0.8476 16.729619 39.847956 4.22554
7719 2573 1 0.4238 17.494536 39.506264 4.771568
7720 2574 1 0.4238 16.87574 31.634777 1.499962
7721 2574 2 -0.8476 17.874692 31.677209 1.517156
7722 2574 1 0.4238 18.245738 30.754553 1.622188
7723 2575 1 0.4238 31.841788 47.327843 19.411647
7724 2575 2 -0.8476 31.370622 48.138318 19.759689
7725 2575 1 0.4238 30.447942 48.177877 19.37616
7726 2576 1 0.4238 23.34353 14.44564 47.23869
7727 2576 2 -0.8476 23.693543 14.444132 48.175433
7728 2576 1 0.4238 24.642679 14.129269 48.176105
7729 2577 1 0.4238 34.866242 37.56516 1.499808
7730 2577 2 -0.8476 33.884002 37.731533 1.586552
7731 2577 1 0.4238 33.720563 38.711731 1.698348
7732 2578 1 0.4238 34.692376 18.20736 39.101343
7733 2578 2 -0.8476 35.25413 17.831326 38.364436
7734 2578 1 0.4238 36.155977 17.589954 38.722781
7735 2579 1 0.4238 3.937266 40.840296 32.315231
7736 2579 2 -0.8476 4.021356 39.887067 32.605547
7737 2579 1 0.4238 4.405786 39.852269 33.528045
7738 2580 1 0.4238 29.008213 15.665941 22.96387
7739 2580 2 -0.8476 29.585652 16.031133 23.694075
7740 2580 1 0.4238 30.527539 16.108277 23.367124
7741 2581 1 0.4238 29.387171 35.639914 28.027237
7742 2581 2 -0.8476 30.374954 35.501316 28.098481
7743 2581 1 0.4238 30.82407 36.380126 28.259687
7744 2582 1 0.4238 32.27059 29.027213 12.765056
7745 2582 2 -0.8476 32.272451 28.097029 13.132143
7746 2582 1 0.4238 31.332533 27.76132 13.194229
7747 2583 1 0.4238 24.37501 17.331411 19.16569
7748 2583 2 -0.8476 24.354402 18.22188 18.711112
7749 2583 1 0.4238 24.373801 18.090659 17.719949
7750 2584 1 0.4238 11.010293 37.441557 1.564299
7751 2584 2 -0.8476 11.891808 37.64709 1.989375
7752 2584 1 0.4238 12.617163 37.156508 1.506479
7753 2585 1 0.4238 44.06278 18.127237 8.05012
7754 2585 2 -0.8476 43.369761 17.806382 7.404538
7755 2585 1 0.4238 42.869629 18.589865 7.035728
7756 2586 1 0.4238 34.31036 31.984534 48.177993
7757 2586 2 -0.8476 35.117213 32.130988 47.605682
7758 2586 1 0.4238 35.883058 32.424131 48.178
7759 2587 1 0.4238 10.028852 32.560024 3.958783
7760 2587 2 -0.8476 10.369834 31.619955 3.959894
7761 2587 1 0.4238 11.369765 31.628098 3.968333
7762 2588 1 0.4238 45.925066 44.004214 33.160425
7763 2588 2 -0.8476 45.373634 44.836962 33.110889
7764 2588 1 0.4238 45.967261 45.635999 33.206521
7765 2589 1 0.4238 44.7147 47.463202 35.567596
7766 2589 2 -0.8476 45.531731 47.309563 35.011849
7767 2589 1 0.4238 46.006405 48.178186 34.869799
7768 2590 1 0.4238 29.587653 14.77953 26.810191
7769 2590 2 -0.8476 29.101964 15.452616 27.36792
7770 2590 1 0.4238 29.760141 15.968025 27.916697
7771 2591 1 0.4238 39.886092 20.216944 39.932835
7772 2591 2 -0.8476 39.967421 19.794147 39.030268
7773 2591 1 0.4238 39.055258 19.646278 38.648047
7774 2592 1 0.4238 2.574601 4.632215 39.492714
7775 2592 2 -0.8476 2.660339 4.736529 40.483556
7776 2592 1 0.4238 1.765398 4.951005 40.87481
7777 2593 1 0.4238 39.10048 41.872058 46.776802
7778 2593 2 -0.8476 38.690566 42.633119 47.279551
7779 2593 1 0.4238 39.122614 42.710209 48.178101
7780 2594 1 0.4238 23.985597 33.827154 43.664001
7781 2594 2 -0.8476 24.027428 34.701777 43.181006
7782 2594 1 0.4238 24.66108 35.313845 43.654143
7783 2595 1 0.4238 19.95968 8.455038 44.232366
7784 2595 2 -0.8476 19.222244 8.941266 43.763569
7785 2595 1 0.4238 19.612211 9.640242 43.164105
7786 2596 1 0.4238 24.442925 10.285287 9.654908
7787 2596 2 -0.8476 24.083649 10.972883 9.023931
7788 2596 1 0.4238 23.136116 10.751202 8.793631
7789 2597 1 0.4238 44.266565 27.902375 6.664355
7790 2597 2 -0.8476 45.135572 28.357196 6.469506
7791 2597 1 0.4238 45.018123 28.984698 5.699801
7792 2598 1 0.4238 9.775506 13.622426 13.813676
7793 2598 2 -0.8476 10.35877 13.068972 14.408229
7794 2598 1 0.4238 10.316798 12.112448 14.119612
7795 2599 1 0.4238 37.954077 10.013247 1.499991
7796 2599 2 -0.8476 38.072006 11.005821 1.529832
7797 2599 1 0.4238 38.659082 11.24866 2.302082
7798 2600 1 0.4238 30.22111 22.082352 19.840249
7799 2600 2 -0.8476 29.501354 22.775578 19.802952
7800 2600 1 0.4238 29.735713 23.532539 20.41294
7801 2601 1 0.4238 37.004557 46.099019 35.193233
7802 2601 2 -0.8476 37.705383 46.806176 35.099573
7803 2601 1 0.4238 38.610836 46.39309 35.19711
7804 2602 1 0.4238 1.499806 40.343289 7.869008
7805 2602 2 -0.8476 1.79885 40.630667 6.95907
7806 2602 1 0.4238 1.499785 41.570008 6.791146
7807 2603 1 0.4238 23.640645 27.084843 46.617564
7808 2603 2 -0.8476 23.222187 27.668256 47.31364
7809 2603 1 0.4238 23.939 28.119425 47.845266
7810 2604 1 0.4238 33.726772 29.406645 36.173415
7811 2604 2 -0.8476 33.008943 29.254303 36.852764
7812 2604 1 0.4238 33.421765 29.161822 37.758868
7813 2605 1 0.4238 43.29493 16.56 47.467453
7814 2605 2 -0.8476 43.557128 16.120178 46.608495
7815 2605 1 0.4238 44.552942 16.132801 46.517962
7816 2606 1 0.4238 16.041069 18.5746 16.219582
7817 2606 2 -0.8476 15.092429 18.266289 16.290475
7818 2606 1 0.4238 15.070863 17.269612 16.369023
7819 2607 1 0.4238 18.23276 3.747693 34.97408
7820 2607 2 -0.8476 18.404772 4.254523 34.12937
7821 2607 1 0.4238 17.879799 5.105592 34.138524
7822 2608 1 0.4238 24.93267 20.24527 39.99354
7823 2608 2 -0.8476 25.756724 20.749436 39.735177
7824 2608 1 0.4238 26.38583 20.136986 39.256502
7825 2609 1 0.4238 19.762784 12.770151 11.478744
7826 2609 2 -0.8476 18.953046 12.194995 11.362471
7827 2609 1 0.4238 19.131313 11.287573 11.743005
7828 2610 1 0.4238 30.660102 13.416629 3.749335
7829 2610 2 -0.8476 29.67254 13.356341 3.894548
7830 2610 1 0.4238 29.293696 14.276291 3.995386
7831 2611 1 0.4238 19.780374 4.822169 15.345881
7832 2611 2 -0.8476 19.515187 5.023297 16.288868
7833 2611 1 0.4238 18.596072 5.417132 16.299859
7834 2612 1 0.4238 48.177999 23.459394 22.089469
7835 2612 2 -0.8476 47.917733 23.520775 21.125885
7836 2612 1 0.4238 48.177974 22.677307 20.655954
7837 2613 1 0.4238 45.055676 30.203141 24.318
7838 2613 2 -0.8476 44.570119 30.737332 25.010008
7839 2613 1 0.4238 45.007635 30.606504 25.89965
7840 2614 1 0.4238 21.101201 48.178005 48.178008
7841 2614 2 -0.8476 22.100485 48.140183 48.178007
7842 2614 1 0.4238 22.3979 47.185435 48.178006
7843 2615 1 0.4238 16.004737 46.003806 48.178008
7844 2615 2 -0.8476 16.082775 46.099102 47.185623
7845 2615 1 0.4238 17.025631 45.917241 46.906432
7846 2616 1 0.4238 48.178 27.187367 14.578818
7847 2616 2 -0.8476 48.062462 26.853336 15.514272
7848 2616 1 0.4238 48.175149 25.859826 15.52974
7849 2617 1 0.4238 20.372665 29.913006 12.540661
7850 2617 2 -0.8476 19.378314 29.820548 12.488537
7851 2617 1 0.4238 19.136854 28.852794 12.416775
7852 2618 1 0.4238 3.986291 41.339164 17.56711
7853 2618 2 -0.8476 4.042302 40.824941 18.422936
7854 2618 1 0.4238 3.742939 41.40499 19.180514
7855 2619 1 0.4238 13.843918 25.016437 33.992925
7856 2619 2 -0.8476 14.708442 25.514812 34.057889
7857 2619 1 0.4238 15.17149 25.495876 33.171759
7858 2620 1 0.4238 29.281106 12.235053 47.039749
7859 2620 2 -0.8476 29.852091 13.042542 47.187863
7860 2620 1 0.4238 30.305965 12.971456 48.076089
7861 2621 1 0.4238 19.960702 21.755193 14.577391
7862 2621 2 -0.8476 20.923281 22.017555 14.645271
7863 2621 1 0.4238 21.023407 22.982945 14.404446
7864 2622 1 0.4238 38.474482 47.831904 1.499981
7865 2622 2 -0.8476 37.612208 47.802924 2.005592
7866 2622 1 0.4238 37.750526 48.178001 2.922208
7867 2623 1 0.4238 34.427266 1.499825 40.067114
7868 2623 2 -0.8476 34.285163 1.505831 39.07728
7869 2623 1 0.4238 35.171042 1.51126 38.613397
7870 2624 1 0.4238 20.674439 28.758146 10.037293
7871 2624 2 -0.8476 21.483074 29.340624 10.119925
7872 2624 1 0.4238 21.224112 30.294186 9.966116
7873 2625 1 0.4238 43.819483 48.178003 14.928064
7874 2625 2 -0.8476 44.670015 47.720597 14.668496
7875 2625 1 0.4238 45.064704 48.17801 13.871632
7876 2626 1 0.4238 46.212855 22.862555 38.686457
7877 2626 2 -0.8476 46.233568 23.528363 37.940621
7878 2626 1 0.4238 47.020479 23.344618 37.351547
7879 2627 1 0.4238 37.918928 44.760828 24.601581
7880 2627 2 -0.8476 37.224324 44.658209 25.313616
7881 2627 1 0.4238 37.275054 43.736595 25.698393
7882 2628 1 0.4238 5.931937 48.179529 39.694718
7883 2628 2 -0.8476 6.788981 48.092471 39.186883
7884 2628 1 0.4238 6.657493 47.470025 38.415344
7885 2629 1 0.4238 25.828361 45.744488 10.092654
7886 2629 2 -0.8476 26.632829 45.965148 9.541166
7887 2629 1 0.4238 27.460994 45.754227 10.060447
7888 2630 1 0.4238 9.216961 45.480698 5.888433
7889 2630 2 -0.8476 9.372228 44.568233 6.266983
7890 2630 1 0.4238 10.304331 44.509848 6.624437
7891 2631 1 0.4238 11.567198 17.084769 48.178002
7892 2631 2 -0.8476 12.189052 17.549313 47.54753
7893 2631 1 0.4238 11.659184 18.094799 46.898157
7894 2632 1 0.4238 32.107006 36.022037 15.168996
7895 2632 2 -0.8476 31.617406 36.888838 15.07441
7896 2632 1 0.4238 30.697915 36.715508 14.721577
7897 2633 1 0.4238 42.352788 20.830099 42.374259
7898 2633 2 -0.8476 41.579757 20.82324 41.739927
7899 2633 1 0.4238 41.295495 21.763132 41.550726
7900 2634 1 0.4238 37.912935 32.527076 11.206112
7901 2634 2 -0.8476 37.737417 32.07348 12.079865
7902 2634 1 0.4238 37.238261 31.222023 11.919047
7903 2635 1 0.4238 40.483769 36.984431 44.314169
7904 2635 2 -0.8476 40.380137 36.571799 45.219152
7905 2635 1 0.4238 40.892815 35.713969 45.255037
7906 2636 1 0.4238 1.701598 7.441348 1.882482
7907 2636 2 -0.8476 1.499945 6.465496 1.798528
7908 2636 1 0.4238 2.321512 5.979857 1.499894
7909 2637 1 0.4238 18.92881 14.381841 43.564634
7910 2637 2 -0.8476 18.711924 15.005459 42.813594
7911 2637 1 0.4238 19.268082 14.772577 42.015814
7912 2638 1 0.4238 21.448065 8.715124 8.828031
7913 2638 2 -0.8476 20.599391 8.543102 8.327869
7914 2638 1 0.4238 19.955409 8.059346 8.920547
7915 2639 1 0.4238 21.988786 42.638612 8.792798
7916 2639 2 -0.8476 21.229112 43.284651 8.718446
7917 2639 1 0.4238 21.101731 43.751514 9.593554
7918 2640 1 0.4238 40.257952 32.072724 5.93623
7919 2640 2 -0.8476 41.237339 32.249532 5.838557
7920 2640 1 0.4238 41.531809 32.893582 6.544594
7921 2641 1 0.4238 24.688914 7.952518 42.600819
7922 2641 2 -0.8476 24.796485 7.010698 42.91926
7923 2641 1 0.4238 25.483846 6.546443 42.360689
7924 2642 1 0.4238 27.897147 33.507045 11.003435
7925 2642 2 -0.8476 27.571399 32.680182 10.544974
7926 2642 1 0.4238 28.217237 32.420777 9.826919
7927 2643 1 0.4238 46.178913 3.763098 34.491394
7928 2643 2 -0.8476 45.77918 4.57482 34.917211
7929 2643 1 0.4238 44.832049 4.383798 35.174996
7930 2644 1 0.4238 6.142756 7.889663 37.545795
7931 2644 2 -0.8476 6.288486 8.772361 37.099021
7932 2644 1 0.4238 6.24658 9.50223 37.781322
7933 2645 1 0.4238 26.967663 44.343079 12.064243
7934 2645 2 -0.8476 27.384232 44.249835 12.968552
7935 2645 1 0.4238 27.353312 45.13004 13.442137
7936 2646 1 0.4238 26.163389 37.584873 14.367467
7937 2646 2 -0.8476 25.70228 37.924606 15.187199
7938 2646 1 0.4238 26.210418 37.636747 15.998946
7939 2647 1 0.4238 42.177334 13.306741 37.66585
7940 2647 2 -0.8476 42.352584 12.324814 37.5944
7941 2647 1 0.4238 43.208326 12.104045 38.062338
7942 2648 1 0.4238 43.618465 14.35405 11.485351
7943 2648 2 -0.8476 43.042207 13.818827 12.102978
7944 2648 1 0.4238 43.383494 12.87992 12.147435
7945 2649 1 0.4238 33.999412 21.983197 12.056827
7946 2649 2 -0.8476 33.301586 22.675339 11.872493
7947 2649 1 0.4238 33.457916 23.073829 10.968741
7948 2650 1 0.4238 1.499996 29.995413 48.175903
7949 2650 2 -0.8476 2.080054 29.180841 48.177989
7950 2650 1 0.4238 1.505507 28.362482 48.164469
7951 2651 1 0.4238 13.690859 36.649232 4.773662
7952 2651 2 -0.8476 13.571705 36.13259 5.621532
7953 2651 1 0.4238 12.678345 35.683291 5.615326
7954 2652 1 0.4238 7.556314 42.402682 7.586706
7955 2652 2 -0.8476 7.620249 42.271755 6.597378
7956 2652 1 0.4238 7.163713 43.029254 6.130719
7957 2653 1 0.4238 47.882737 5.70114 35.872907
7958 2653 2 -0.8476 48.180209 4.792913 35.578573
7959 2653 1 0.4238 47.915153 4.116431 36.265681
7960 2654 1 0.4238 16.260993 28.503137 19.986773
7961 2654 2 -0.8476 17.000731 27.916815 19.6566
7962 2654 1 0.4238 16.824605 27.661473 18.705927
7963 2655 1 0.4238 30.407288 31.557812 40.144057
7964 2655 2 -0.8476 30.602416 32.538485 40.158428
7965 2655 1 0.4238 31.343192 32.7215 40.804768
7966 2656 1 0.4238 11.184167 39.595594 20.668044
7967 2656 2 -0.8476 11.267505 40.475143 20.19959
7968 2656 1 0.4238 12.131768 40.908375 20.455244
7969 2657 1 0.4238 48.178038 6.275008 48.178016
7970 2657 2 -0.8476 48.174203 5.279546 48.082942
7971 2657 1 0.4238 47.853362 5.033296 47.168382
7972 2658 1 0.4238 7.636092 16.078899 44.629634
7973 2658 2 -0.8476 6.793651 16.186701 45.157527
7974 2658 1 0.4238 6.972182 15.971846 46.117716
7975 2659 1 0.4238 33.784736 30.130147 46.158496
7976 2659 2 -0.8476 34.446379 29.658929 46.741748
7977 2659 1 0.4238 34.078846 28.768731 47.010947
7978 2660 1 0.4238 44.530942 24.9685 6.814165
7979 2660 2 -0.8476 44.095335 24.203527 6.339756
7980 2660 1 0.4238 43.845962 23.498253 7.003382
7981 2661 1 0.4238 11.077185 9.355596 26.398691
7982 2661 2 -0.8476 11.808756 9.049466 27.007862
7983 2661 1 0.4238 12.244345 9.843887 27.431133
7984 2662 1 0.4238 40.537268 9.286981 23.196368
7985 2662 2 -0.8476 41.382308 8.760866 23.291818
7986 2662 1 0.4238 41.163961 7.78652 23.346361
7987 2663 1 0.4238 35.639899 2.893669 43.390688
7988 2663 2 -0.8476 36.206953 2.15494 43.026366
7989 2663 1 0.4238 35.675417 1.619363 42.370145
7990 2664 1 0.4238 48.16057 48.148781 47.710974
7991 2664 2 -0.8476 48.037467 47.158582 47.776939
7992 2664 1 0.4238 47.140704 46.959794 48.172287
7993 2665 1 0.4238 24.567187 15.1269 20.726246
7994 2665 2 -0.8476 24.354875 14.16034 20.870068
7995 2665 1 0.4238 25.127999 13.60114 20.570781
7996 2666 1 0.4238 15.499579 5.200585 28.897722
7997 2666 2 -0.8476 15.986828 5.332185 29.761012
7998 2666 1 0.4238 16.218198 6.299023 29.869136
7999 2667 1 0.4238 34.941762 12.289219 9.611946
8000 2667 2 -0.8476 35.648963 11.700253 9.220812
8001 2667 1 0.4238 35.247307 10.820141 8.967681
8002 2668 1 0.4238 15.564369 10.830483 12.259532
8003 2668 2 -0.8476 16.515278 11.036588 12.490384
8004 2668 1 0.4238 16.600461 12.006809 12.717129
8005 2669 1 0.4238 30.19394 4.87425 40.791873
8006 2669 2 -0.8476 31.191332 4.822556 40.842241
8007 2669 1 0.4238 31.569089 5.744682 40.925813
8008 2670 1 0.4238 41.426161 15.83599 19.245384
8009 2670 2 -0.8476 40.657278 16.474848 19.271417
8010 2670 1 0.4238 39.808973 15.983685 19.073586
8011 2671 1 0.4238 21.945462 18.571457 10.272164
8012 2671 2 -0.8476 22.877978 18.818989 10.53511
8013 2671 1 0.4238 22.964139 19.81497 10.559561
8014 2672 1 0.4238 9.080681 15.135217 15.966379
8015 2672 2 -0.8476 9.080943 14.970744 16.95276
8016 2672 1 0.4238 8.329357 14.354528 17.188125
8017 2673 1 0.4238 48.178434 3.120292 41.981802
8018 2673 2 -0.8476 47.601506 2.388519 41.618948
8019 2673 1 0.4238 48.178659 1.640652 41.290938
8020 2674 1 0.4238 26.221952 4.687861 3.510665
8021 2674 2 -0.8476 25.63106 4.864042 2.723387
8022 2674 1 0.4238 26.191375 5.130151 1.939019
8023 2675 1 0.4238 16.121885 39.286807 7.044569
8024 2675 2 -0.8476 15.369988 39.12816 6.404661
8025 2675 1 0.4238 14.844297 38.330147 6.699321
8026 2676 1 0.4238 13.143188 33.958594 36.407907
8027 2676 2 -0.8476 13.455101 33.884647 35.460678
8028 2676 1 0.4238 13.569114 32.920359 35.221618
8029 2677 1 0.4238 17.381079 2.072308 41.918071
8030 2677 2 -0.8476 18.195948 1.52113 42.09749
8031 2677 1 0.4238 18.95598 2.12124 42.346928
8032 2678 1 0.4238 5.392298 38.100294 26.633708
8033 2678 2 -0.8476 4.78298 37.700523 27.318482
8034 2678 1 0.4238 5.310856 37.454777 28.131473
8035 2679 1 0.4238 11.848706 35.028099 42.394046
8036 2679 2 -0.8476 12.499504 34.463179 41.886772
8037 2679 1 0.4238 12.04508 33.628111 41.576674
8038 2680 1 0.4238 28.332658 48.127778 24.197095
8039 2680 2 -0.8476 29.087222 47.705787 23.694544
8040 2680 1 0.4238 29.211855 48.178002 22.821916
8041 2681 1 0.4238 18.03733 28.701408 40.992771
8042 2681 2 -0.8476 18.710392 29.393507 40.732029
8043 2681 1 0.4238 18.389756 30.295661 41.020663
8044 2682 1 0.4238 27.235521 27.987981 19.358036
8045 2682 2 -0.8476 27.859986 27.230263 19.547527
8046 2682 1 0.4238 28.714003 27.588536 19.924745
8047 2683 1 0.4238 43.612851 8.818828 25.042172
8048 2683 2 -0.8476 43.635618 9.354009 24.197742
8049 2683 1 0.4238 43.493569 10.320466 24.411711
8050 2684 1 0.4238 16.718205 41.440357 15.764188
8051 2684 2 -0.8476 15.815957 41.503208 16.1908
8052 2684 1 0.4238 15.31015 40.656227 16.027148
8053 2685 1 0.4238 7.493141 35.450688 7.984047
8054 2685 2 -0.8476 6.560761 35.226203 8.267374
8055 2685 1 0.4238 5.993349 36.048706 8.228229
8056 2686 1 0.4238 24.883707 1.504133 3.875248
8057 2686 2 -0.8476 25.116089 2.476733 3.882143
8058 2686 1 0.4238 24.408029 2.985137 4.372222
8059 2687 1 0.4238 28.711363 33.089156 28.79809
8060 2687 2 -0.8476 28.386199 33.616136 29.583304
8061 2687 1 0.4238 29.168166 33.921232 30.126851
8062 2688 1 0.4238 22.413411 29.678027 7.641666
8063 2688 2 -0.8476 22.050519 30.143609 6.834485
8064 2688 1 0.4238 22.651647 30.904503 6.590179
8065 2689 1 0.4238 29.885858 46.279777 1.49937
8066 2689 2 -0.8476 30.691203 45.933151 1.980276
8067 2689 1 0.4238 31.51794 46.22562 1.499686
8068 2690 1 0.4238 17.779207 33.655888 45.643104
8069 2690 2 -0.8476 18.647169 34.145848 45.724228
8070 2690 1 0.4238 18.470451 35.127629 45.794051
8071 2691 1 0.4238 18.605672 2.696178 16.203434
8072 2691 2 -0.8476 18.686642 1.812705 15.742001
8073 2691 1 0.4238 19.635523 1.5 15.784878
8074 2692 1 0.4238 18.374175 29.580999 5.129087
8075 2692 2 -0.8476 18.161964 28.60401 5.107646
8076 2692 1 0.4238 19.012431 28.078006 5.112736
8077 2693 1 0.4238 18.900263 48.17802 5.448662
8078 2693 2 -0.8476 19.720198 48.080132 6.012689
8079 2693 1 0.4238 19.474931 48.178059 6.977186
8080 2694 1 0.4238 43.689837 18.118282 37.533142
8081 2694 2 -0.8476 44.350147 18.52583 36.902352
8082 2694 1 0.4238 45.242341 18.091868 37.027516
8083 2695 1 0.4238 5.665704 16.736375 28.672762
8084 2695 2 -0.8476 6.038005 15.922748 28.226215
8085 2695 1 0.4238 5.597819 15.106421 28.600176
8086 2696 1 0.4238 9.330332 16.929293 7.12672
8087 2696 2 -0.8476 9.525736 17.909959 7.116204
8088 2696 1 0.4238 10.260843 18.096379 6.464388
8089 2697 1 0.4238 28.385986 48.177989 12.192425
8090 2697 2 -0.8476 29.052302 47.631642 11.684952
8091 2697 1 0.4238 29.122373 46.723545 12.097806
8092 2698 1 0.4238 19.455297 29.621211 7.465396
8093 2698 2 -0.8476 18.994507 28.736887 7.540521
8094 2698 1 0.4238 19.677641 28.008522 7.593543
8095 2699 1 0.4238 46.077669 38.362056 31.347673
8096 2699 2 -0.8476 45.781159 38.120998 30.423567
8097 2699 1 0.4238 45.906071 38.906791 29.817822
8098 2700 1 0.4238 11.928576 2.65137 41.697965
8099 2700 2 -0.8476 11.812539 3.393452 41.037777
8100 2700 1 0.4238 12.708111 3.765257 40.793419
8101 2701 1 0.4238 42.181636 1.500038 15.766745
8102 2701 2 -0.8476 42.968107 2.081503 15.974981
8103 2701 1 0.4238 43.798606 1.524792 15.993506
8104 2702 1 0.4238 44.377444 9.049345 33.249236
8105 2702 2 -0.8476 45.153071 9.018272 32.61881
8106 2702 1 0.4238 44.817486 9.026134 31.676834
8107 2703 1 0.4238 33.277656 3.743745 6.75339
8108 2703 2 -0.8476 33.091593 4.726153 6.769384
8109 2703 1 0.4238 33.901145 5.223829 6.458027
8110 2704 1 0.4238 34.134622 30.673114 43.458796
8111 2704 2 -0.8476 33.22062 30.901668 43.794003
8112 2704 1 0.4238 32.535776 30.580884 43.13972
8113 2705 1 0.4238 43.329445 35.334207 36.547168
8114 2705 2 -0.8476 42.736928 36.13976 36.550004
8115 2705 1 0.4238 43.131598 36.845894 35.962119
8116 2706 1 0.4238 39.799989 30.185846 32.563785
8117 2706 2 -0.8476 39.201597 30.876481 32.157644
8118 2706 1 0.4238 38.604727 30.444386 31.481597
8119 2707 1 0.4238 31.851103 36.155672 41.948321
8120 2707 2 -0.8476 31.601602 35.402642 41.339474
8121 2707 1 0.4238 30.608667 35.383709 41.222337
8122 2708 1 0.4238 22.452485 8.6455 28.984532
8123 2708 2 -0.8476 23.415664 8.905647 28.916638
8124 2708 1 0.4238 23.986895 8.086847 28.973748
8125 2709 1 0.4238 41.647729 41.23245 7.767997
8126 2709 2 -0.8476 42.295151 40.994989 8.492191
8127 2709 1 0.4238 41.873463 41.1605 9.383699
8128 2710 1 0.4238 38.758065 21.303175 14.334352
8129 2710 2 -0.8476 38.99293 21.191325 13.368781
8130 2710 1 0.4238 39.65738 21.89027 13.104239
8131 2711 1 0.4238 48.178011 28.779204 43.697986
8132 2711 2 -0.8476 48.173085 29.644656 44.198953
8133 2711 1 0.4238 47.384811 30.190129 43.914203
8134 2712 1 0.4238 40.210709 41.67427 1.499971
8135 2712 2 -0.8476 40.101321 40.684758 1.594302
8136 2712 1 0.4238 40.983427 40.272043 1.821362
8137 2713 1 0.4238 18.376217 48.127278 2.769443
8138 2713 2 -0.8476 18.452761 48.161058 1.77295
8139 2713 1 0.4238 19.416785 48.115973 1.510986
8140 2714 1 0.4238 31.045332 33.497966 14.807689
8141 2714 2 -0.8476 32.024674 33.304899 14.867805
8142 2714 1 0.4238 32.227431 32.881984 15.750999
8143 2715 1 0.4238 20.963083 39.918455 29.922257
8144 2715 2 -0.8476 20.076774 39.510029 29.703978
8145 2715 1 0.4238 20.210716 38.568494 29.394834
8146 2716 1 0.4238 28.762007 46.14212 3.728252
8147 2716 2 -0.8476 28.452642 45.395864 4.317654
8148 2716 1 0.4238 27.710176 45.720022 4.903883
8149 2717 1 0.4238 8.373351 31.84315 10.244773
8150 2717 2 -0.8476 8.550819 32.826096 10.196582
8151 2717 1 0.4238 9.169342 33.089809 10.936774
8152 2718 1 0.4238 9.681816 28.650865 4.192005
8153 2718 2 -0.8476 9.824133 27.697358 4.457655
8154 2718 1 0.4238 8.938609 27.244358 4.560799
8155 2719 1 0.4238 35.731671 40.697301 27.833561
8156 2719 2 -0.8476 35.045244 40.276676 28.426766
8157 2719 1 0.4238 35.140111 40.637761 29.354461
8158 2720 1 0.4238 1.499996 7.975697 9.557239
8159 2720 2 -0.8476 2.491656 7.853551 9.516104
8160 2720 1 0.4238 2.706468 6.877221 9.490896
8161 2721 1 0.4238 41.109518 44.400435 18.064608
8162 2721 2 -0.8476 41.593244 43.568204 18.335534
8163 2721 1 0.4238 42.182015 43.265878 17.585903
8164 2722 1 0.4238 10.822334 10.924829 45.825442
8165 2722 2 -0.8476 10.055059 11.404761 45.400054
8166 2722 1 0.4238 10.395193 12.204355 44.905121
8167 2723 1 0.4238 45.307998 37.970017 18.217668
8168 2723 2 -0.8476 45.348157 36.996373 18.442179
8169 2723 1 0.4238 46.302562 36.698765 18.465434
8170 2724 1 0.4238 42.732043 35.300364 6.606898
8171 2724 2 -0.8476 42.650151 36.174407 6.128002
8172 2724 1 0.4238 41.72538 36.266864 5.758881
8173 2725 1 0.4238 8.36325 3.219877 48.16403
8174 2725 2 -0.8476 9.226861 2.715801 48.173198
8175 2725 1 0.4238 9.039421 1.733545 48.179426
8176 2726 1 0.4238 1.499954 43.199989 8.686222
8177 2726 2 -0.8476 2.057552 42.487835 9.112745
8178 2726 1 0.4238 1.499959 41.973425 9.764261
8179 2727 1 0.4238 8.399107 1.500024 27.591962
8180 2727 2 -0.8476 7.479954 1.881602 27.689712
8181 2727 1 0.4238 7.544505 2.858856 27.891722
8182 2728 1 0.4238 48.08851 35.547122 32.384488
8183 2728 2 -0.8476 47.140197 35.844009 32.496562
8184 2728 1 0.4238 46.647483 35.71791 31.635555
8185 2729 1 0.4238 48.163273 3.438481 23.205284
8186 2729 2 -0.8476 47.430921 3.742029 22.59576
8187 2729 1 0.4238 47.81837 3.994444 21.709098
8188 2730 1 0.4238 9.945952 35.511836 35.690293
8189 2730 2 -0.8476 10.025353 36.3746 35.19096
8190 2730 1 0.4238 9.475154 36.329005 34.357173
8191 2731 1 0.4238 32.832421 8.632046 13.270633
8192 2731 2 -0.8476 32.238944 9.399858 13.511987
8193 2731 1 0.4238 31.353754 9.052484 13.821453
8194 2732 1 0.4238 47.855474 37.614611 13.854269
8195 2732 2 -0.8476 47.701059 37.514684 12.871329
8196 2732 1 0.4238 48.178002 36.700564 12.54007
8197 2733 1 0.4238 24.457498 42.000071 46.949342
8198 2733 2 -0.8476 24.150598 42.578098 47.705448
8199 2733 1 0.4238 23.3901 42.132781 48.17803
8200 2734 1 0.4238 2.469369 30.679673 38.120837
8201 2734 2 -0.8476 1.522222 30.44251 37.904813
8202 2734 1 0.4238 1.499986 29.876619 37.080633
8203 2735 1 0.4238 2.959412 27.50013 4.078505
8204 2735 2 -0.8476 2.488552 26.732573 3.643595
8205 2735 1 0.4238 1.500146 26.87527 3.695469
8206 2736 1 0.4238 14.260509 48.108636 12.115665
8207 2736 2 -0.8476 13.97352 48.01212 13.068724
8208 2736 1 0.4238 14.754765 48.178 13.670505
8209 2737 1 0.4238 14.338445 35.170004 44.344349
8210 2737 2 -0.8476 13.456526 35.626691 44.461205
8211 2737 1 0.4238 13.357289 35.921739 45.41152
8212 2738 1 0.4238 43.599754 34.480684 1.527624
8213 2738 2 -0.8476 43.973664 33.553634 1.499851
8214 2738 1 0.4238 43.811917 33.10256 2.377558
8215 2739 1 0.4238 24.598086 41.274842 19.304793
8216 2739 2 -0.8476 25.255959 42.026351 19.354165
8217 2739 1 0.4238 25.09287 42.662206 18.599785
8218 2740 1 0.4238 14.574635 41.897102 1.499696
8219 2740 2 -0.8476 13.839988 42.100451 2.146954
8220 2740 1 0.4238 14.213565 42.139248 3.073741
8221 2741 1 0.4238 25.688253 25.504838 8.936441
8222 2741 2 -0.8476 26.518339 24.949107 8.982488
8223 2741 1 0.4238 27.317624 25.547658 9.03614
8224 2742 1 0.4238 30.934528 9.754327 16.421668
8225 2742 2 -0.8476 30.17222 9.168572 16.696945
8226 2742 1 0.4238 30.513018 8.428483 17.276707
8227 2743 1 0.4238 20.678471 10.433687 45.580787
8228 2743 2 -0.8476 21.562348 10.754955 45.92071
8229 2743 1 0.4238 22.130259 9.96954 46.166879
8230 2744 1 0.4238 27.824835 42.764686 17.992833
8231 2744 2 -0.8476 27.739731 43.584751 18.558741
8232 2744 1 0.4238 27.736512 43.324558 19.524292
8233 2745 1 0.4238 41.998622 9.086816 5.710143
8234 2745 2 -0.8476 42.484494 9.816518 6.191249
8235 2745 1 0.4238 42.726409 9.506104 7.110553
8236 2746 1 0.4238 26.280264 7.58916 11.053631
8237 2746 2 -0.8476 26.129894 7.256121 11.984477
8238 2746 1 0.4238 25.977117 6.268065 11.964365
8239 2747 1 0.4238 18.411464 48.177999 15.004245
8240 2747 2 -0.8476 17.750554 47.67373 14.448448
8241 2747 1 0.4238 17.788866 46.702676 14.684215
8242 2748 1 0.4238 22.546658 41.489057 36.260117
8243 2748 2 -0.8476 22.308699 41.968167 37.105001
8244 2748 1 0.4238 21.616224 42.662899 36.910512
8245 2749 1 0.4238 6.342824 5.582918 41.32427
8246 2749 2 -0.8476 6.75637 6.365865 41.788999
8247 2749 1 0.4238 6.113545 6.731616 42.462052
8248 2750 1 0.4238 3.937287 5.879702 35.956562
8249 2750 2 -0.8476 3.351352 5.686681 36.743596
8250 2750 1 0.4238 3.247434 4.697499 36.847137
8251 2751 1 0.4238 18.169258 41.690852 1.499928
8252 2751 2 -0.8476 17.227062 41.54539 1.801767
8253 2751 1 0.4238 16.902708 42.358371 2.285355
8254 2752 1 0.4238 27.431143 17.891889 48.1269
8255 2752 2 -0.8476 28.364795 18.249792 48.140982
8256 2752 1 0.4238 28.338297 19.248755 48.178007
8257 2753 1 0.4238 28.579173 41.93723 48.176323
8258 2753 2 -0.8476 27.946845 42.711928 48.178233
8259 2753 1 0.4238 27.00569 42.373995 48.173105
8260 2754 1 0.4238 48.174591 23.095092 30.078657
8261 2754 2 -0.8476 48.148852 23.173646 29.08208
8262 2754 1 0.4238 47.847528 22.305824 28.687
8263 2755 1 0.4238 9.128057 48.152745 27.089315
8264 2755 2 -0.8476 10.077162 48.168496 27.403883
8265 2755 1 0.4238 10.396849 47.231665 27.545827
8266 2756 1 0.4238 34.826723 29.165688 23.112427
8267 2756 2 -0.8476 34.248126 28.367248 23.278917
8268 2756 1 0.4238 33.30184 28.585851 23.040681
8269 2757 1 0.4238 25.319162 41.56389 4.510036
8270 2757 2 -0.8476 25.943024 40.861082 4.168194
8271 2757 1 0.4238 25.416309 40.067716 3.863004
8272 2758 1 0.4238 7.6761 31.520693 3.092487
8273 2758 2 -0.8476 8.302974 31.742295 2.345546
8274 2758 1 0.4238 8.161336 31.102099 1.590505
8275 2759 1 0.4238 44.376282 22.740179 41.876072
8276 2759 2 -0.8476 43.762293 22.845024 41.093751
8277 2759 1 0.4238 44.164182 22.401216 40.292802
8278 2760 1 0.4238 2.095298 23.38195 21.587363
8279 2760 2 -0.8476 1.499999 24.10394 21.939996
8280 2760 1 0.4238 1.904496 24.495435 22.766503
8281 2761 1 0.4238 43.76255 20.794453 8.538787
8282 2761 2 -0.8476 44.678418 20.92951 8.160704
8283 2761 1 0.4238 45.072986 21.768808 8.534728
8284 2762 1 0.4238 31.07537 30.789497 14.412043
8285 2762 2 -0.8476 30.757533 30.24813 15.19044
8286 2762 1 0.4238 31.358979 29.459055 15.315434
8287 2763 1 0.4238 13.948612 8.606661 13.371967
8288 2763 2 -0.8476 13.58058 9.506479 13.60623
8289 2763 1 0.4238 12.590661 9.508886 13.464614
8290 2764 1 0.4238 19.063784 21.24295 3.789146
8291 2764 2 -0.8476 18.953844 20.458443 4.399442
8292 2764 1 0.4238 17.981988 20.315348 4.586579
8293 2765 1 0.4238 12.341943 12.741644 3.579007
8294 2765 2 -0.8476 13.046476 12.043465 3.70621
8295 2765 1 0.4238 12.617536 11.141194 3.749987
8296 2766 1 0.4238 4.531974 31.617399 39.177391
8297 2766 2 -0.8476 5.259233 31.613392 39.863742
8298 2766 1 0.4238 5.87406 32.385376 39.702408
8299 2767 1 0.4238 4.522115 22.834692 18.791819
8300 2767 2 -0.8476 3.633794 22.402678 18.636094
8301 2767 1 0.4238 3.013536 22.636666 19.384779
8302 2768 1 0.4238 19.768123 28.516695 22.84901
8303 2768 2 -0.8476 18.868114 28.884172 22.614608
8304 2768 1 0.4238 18.756419 29.785113 23.033929
8305 2769 1 0.4238 9.881179 33.564738 26.465577
8306 2769 2 -0.8476 10.182921 33.464265 25.517497
8307 2769 1 0.4238 9.629933 32.765302 25.064006
8308 2770 1 0.4238 48.146925 10.113905 3.974354
8309 2770 2 -0.8476 47.257329 10.570424 3.959894
8310 2770 1 0.4238 47.389771 11.560264 4.011617
8311 2771 1 0.4238 47.27809 31.762676 27.990143
8312 2771 2 -0.8476 48.178 31.643177 28.409527
8313 2771 1 0.4238 48.157229 31.989297 29.347488
8314 2772 1 0.4238 12.978673 42.90241 6.856084
8315 2772 2 -0.8476 13.878883 42.471035 6.915557
8316 2772 1 0.4238 13.864613 41.600714 6.423278
8317 2773 1 0.4238 1.499961 12.827918 36.254337
8318 2773 2 -0.8476 1.523216 13.336943 37.114774
8319 2773 1 0.4238 1.775642 12.720074 37.860262
8320 2774 1 0.4238 39.992773 5.521817 48.178574
8321 2774 2 -0.8476 40.337247 4.583052 48.170945
8322 2774 1 0.4238 39.567116 3.945591 48.147676
8323 2775 1 0.4238 25.550575 28.341906 27.137909
8324 2775 2 -0.8476 24.787231 28.378998 27.782835
8325 2775 1 0.4238 24.760914 29.279584 28.216714
8326 2776 1 0.4238 28.229304 10.778895 23.154326
8327 2776 2 -0.8476 28.286569 11.171744 22.236508
8328 2776 1 0.4238 28.295074 12.169626 22.300999
8329 2777 1 0.4238 23.294688 48.178015 13.051779
8330 2777 2 -0.8476 22.555204 48.147583 12.379293
8331 2777 1 0.4238 22.941547 48.178011 11.45744
8332 2778 1 0.4238 6.955658 24.128018 20.456604
8333 2778 2 -0.8476 7.865518 24.392888 20.137231
8334 2778 1 0.4238 7.934743 25.390303 20.117998
8335 2779 1 0.4238 43.072646 32.575708 36.264264
8336 2779 2 -0.8476 43.88544 32.741637 35.705844
8337 2779 1 0.4238 43.629801 32.749151 34.739102
8338 2780 1 0.4238 31.076646 41.016107 22.968699
8339 2780 2 -0.8476 30.575101 41.508903 22.257641
8340 2780 1 0.4238 29.668598 41.10171 22.146083
8341 2781 1 0.4238 1.5 25.756851 29.461844
8342 2781 2 -0.8476 2.328637 25.210489 29.339981
8343 2781 1 0.4238 3.079312 25.624016 29.85523
8344 2782 1 0.4238 4.374798 26.977171 38.389597
8345 2782 2 -0.8476 5.309657 26.739369 38.653206
8346 2782 1 0.4238 5.352938 26.605358 39.64324
8347 2783 1 0.4238 41.734333 8.737194 20.677067
8348 2783 2 -0.8476 42.141067 9.48231 20.148512
8349 2783 1 0.4238 42.329976 10.25574 20.75359
8350 2784 1 0.4238 11.974758 2.250836 11.393579
8351 2784 2 -0.8476 12.331418 1.50376 10.832623
8352 2784 1 0.4238 13.247842 1.738496 10.508486
8353 2785 1 0.4238 28.241583 27.581005 22.625542
8354 2785 2 -0.8476 27.249437 27.548884 22.504652
8355 2785 1 0.4238 26.829604 28.316349 22.98915
8356 2786 1 0.4238 25.889662 4.284262 35.216244
8357 2786 2 -0.8476 26.104714 3.645227 34.477741
8358 2786 1 0.4238 26.958614 3.921036 34.036399
8359 2787 1 0.4238 29.206108 37.213321 19.582312
8360 2787 2 -0.8476 29.378447 36.259669 19.828985
8361 2787 1 0.4238 28.530974 35.841628 20.156139
8362 2788 1 0.4238 25.75191 15.687116 9.95606
8363 2788 2 -0.8476 26.122736 15.677283 10.88471
8364 2788 1 0.4238 27.022173 15.240261 10.879844
8365 2789 1 0.4238 17.85202 3.454315 21.296279
8366 2789 2 -0.8476 18.292016 3.422956 22.193731
8367 2789 1 0.4238 19.042536 2.7624 22.174089
8368 2790 1 0.4238 35.418429 20.128241 24.869601
8369 2790 2 -0.8476 36.37559 19.909717 24.679631
8370 2790 1 0.4238 36.421639 19.161135 24.01819
8371 2791 1 0.4238 5.076958 20.267698 22.68772
8372 2791 2 -0.8476 5.634178 19.447042 22.814335
8373 2791 1 0.4238 5.606901 19.170579 23.774972
8374 2792 1 0.4238 25.560471 17.348742 1.499997
8375 2792 2 -0.8476 26.408123 17.851714 1.66883
8376 2792 1 0.4238 27.168698 17.206973 1.745221
8377 2793 1 0.4238 34.133784 10.881225 36.664301
8378 2793 2 -0.8476 33.895306 11.652285 37.254719
8379 2793 1 0.4238 34.710339 11.961373 37.744805
8380 2794 1 0.4238 37.349472 31.135492 1.602159
8381 2794 2 -0.8476 37.868164 31.984328 1.499997
8382 2794 1 0.4238 38.825364 31.820833 1.73882
8383 2795 1 0.4238 3.726258 44.8442 18.698646
8384 2795 2 -0.8476 3.994547 43.918961 18.430402
8385 2795 1 0.4238 3.953362 43.835432 17.434748
8386 2796 1 0.4238 46.146758 14.822597 19.849375
8387 2796 2 -0.8476 46.359768 15.008879 18.890247
8388 2796 1 0.4238 45.815841 14.407411 18.305114
8389 2797 1 0.4238 30.185671 26.419431 24.285155
8390 2797 2 -0.8476 31.164994 26.392859 24.485707
8391 2797 1 0.4238 31.494618 27.320556 24.660998
8392 2798 1 0.4238 2.258248 46.313832 16.026318
8393 2798 2 -0.8476 1.502594 46.810302 16.453525
8394 2798 1 0.4238 1.524765 47.766519 16.161708
8395 2799 1 0.4238 23.320141 46.595356 41.088759
8396 2799 2 -0.8476 22.592027 47.259796 40.920329
8397 2799 1 0.4238 22.989169 48.172669 40.825763
8398 2800 1 0.4238 35.560364 29.158936 1.596158
8399 2800 2 -0.8476 36.430166 28.674997 1.499986
8400 2800 1 0.4238 36.847964 28.558121 2.400976
8401 2801 1 0.4238 11.454746 5.714394 5.547098
8402 2801 2 -0.8476 10.831018 5.712565 4.765459
8403 2801 1 0.4238 11.241141 6.224358 4.010565
8404 2802 1 0.4238 29.519896 1.803248 46.932983
8405 2802 2 -0.8476 29.603017 1.499778 47.882191
8406 2802 1 0.4238 30.554191 1.587544 48.178106
8407 2803 1 0.4238 3.858159 33.950411 37.900913
8408 2803 2 -0.8476 4.256304 34.566358 37.22114
8409 2803 1 0.4238 5.2174 34.731007 37.442916
8410 2804 1 0.4238 22.995783 23.08296 29.641976
8411 2804 2 -0.8476 23.637332 22.318705 29.576171
8412 2804 1 0.4238 23.128625 21.465388 29.461863
8413 2805 1 0.4238 32.166714 7.658161 25.521043
8414 2805 2 -0.8476 31.560688 6.938373 25.182463
8415 2805 1 0.4238 30.770709 7.352924 24.73071
8416 2806 1 0.4238 45.451205 27.557795 1.500001
8417 2806 2 -0.8476 45.674702 27.305171 2.441399
8418 2806 1 0.4238 46.443629 26.665836 2.441345
8419 2807 1 0.4238 33.26767 20.240906 46.536573
8420 2807 2 -0.8476 33.642397 19.453766 46.046686
8421 2807 1 0.4238 33.088372 18.644645 46.242589
8422 2808 1 0.4238 1.504131 20.019859 13.860018
8423 2808 2 -0.8476 1.691485 20.901266 13.426406
8424 2808 1 0.4238 1.5 21.638746 14.074062
8425 2809 1 0.4238 24.22995 31.389995 23.099486
8426 2809 2 -0.8476 23.315839 31.739678 22.894246
8427 2809 1 0.4238 23.360261 32.729458 22.758744
8428 2810 1 0.4238 13.504924 9.110839 35.140283
8429 2810 2 -0.8476 12.754292 9.762459 35.249563
8430 2810 1 0.4238 13.109194 10.694677 35.178754
8431 2811 1 0.4238 36.143311 7.37634 11.029956
8432 2811 2 -0.8476 35.402864 7.359656 10.358048
8433 2811 1 0.4238 35.612293 7.99574 9.615393
8434 2812 1 0.4238 22.499475 15.586588 14.173138
8435 2812 2 -0.8476 22.813891 14.647353 14.310905
8436 2812 1 0.4238 22.733687 14.139795 13.453028
8437 2813 1 0.4238 38.912632 1.843923 38.306815
8438 2813 2 -0.8476 37.96664 1.52007 38.292041
8439 2813 1 0.4238 37.635561 1.500995 37.348631
8440 2814 1 0.4238 23.281108 23.756733 15.740455
8441 2814 2 -0.8476 22.699324 23.793999 16.552944
8442 2814 1 0.4238 22.945898 24.591793 17.103149
8443 2815 1 0.4238 30.474793 22.763806 32.50839
8444 2815 2 -0.8476 29.932407 21.931178 32.620406
8445 2815 1 0.4238 30.542311 21.155209 32.781303
8446 2816 1 0.4238 13.956846 37.69865 48.178003
8447 2816 2 -0.8476 13.477497 38.252274 47.497029
8448 2816 1 0.4238 12.814196 38.843824 47.955396
8449 2817 1 0.4238 35.517511 44.836176 1.790207
8450 2817 2 -0.8476 34.751651 45.409968 1.499997
8451 2817 1 0.4238 33.890272 44.965821 1.746491
8452 2818 1 0.4238 27.515357 31.564959 35.518351
8453 2818 2 -0.8476 28.247181 31.90438 34.927396
8454 2818 1 0.4238 28.372435 32.884477 35.081411
8455 2819 1 0.4238 45.494645 24.341377 23.159396
8456 2819 2 -0.8476 46.281294 24.887771 22.871929
8457 2819 1 0.4238 46.90229 25.010989 23.645996
8458 2820 1 0.4238 33.411205 31.054787 34.018273
8459 2820 2 -0.8476 34.089231 30.587732 33.450699
8460 2820 1 0.4238 33.751645 30.525375 32.511472
8461 2821 1 0.4238 1.588017 9.954556 11.547026
8462 2821 2 -0.8476 1.516497 10.781133 10.988766
8463 2821 1 0.4238 1.499998 10.529406 10.021108
8464 2822 1 0.4238 10.929636 26.674815 22.544258
8465 2822 2 -0.8476 10.640554 27.606351 22.764874
8466 2822 1 0.4238 9.769418 27.577727 23.25508
8467 2823 1 0.4238 13.76485 10.795266 37.867108
8468 2823 2 -0.8476 13.63419 11.755068 38.115519
8469 2823 1 0.4238 13.76615 11.865346 39.10062
8470 2824 1 0.4238 43.611868 41.509858 33.592976
8471 2824 2 -0.8476 43.044296 42.321942 33.4574
8472 2824 1 0.4238 43.608144 43.066962 33.100999
8473 2825 1 0.4238 20.343672 48.17443 18.431737
8474 2825 2 -0.8476 21.34292 48.135946 18.426859
8475 2825 1 0.4238 21.639423 47.185521 18.333173
8476 2826 1 0.4238 1.994847 32.621363 43.007161
8477 2826 2 -0.8476 1.517651 33.078518 43.75769
8478 2826 1 0.4238 1.952834 33.959867 43.941649
8479 2827 1 0.4238 1.742424 22.667234 29.030373
8480 2827 2 -0.8476 1.499999 21.937164 29.669301
8481 2827 1 0.4238 1.756505 21.053244 29.278291
8482 2828 1 0.4238 22.730614 34.902967 26.328376
8483 2828 2 -0.8476 22.301891 34.692746 25.449739
8484 2828 1 0.4238 23.008564 34.594753 24.749018
8485 2829 1 0.4238 39.651172 10.096227 38.745033
8486 2829 2 -0.8476 39.94707 10.878092 38.196279
8487 2829 1 0.4238 39.982753 11.694962 38.771996
8488 2830 1 0.4238 48.178021 41.169999 30.366375
8489 2830 2 -0.8476 47.69975 40.55993 30.998097
8490 2830 1 0.4238 48.178011 39.682746 31.040692
8491 2831 1 0.4238 36.762575 30.391582 24.676036
8492 2831 2 -0.8476 36.040813 30.204053 25.342289
8493 2831 1 0.4238 36.31916 30.545222 26.240134
8494 2832 1 0.4238 1.499908 44.534393 3.750427
8495 2832 2 -0.8476 2.065992 43.736882 3.95905
8496 2832 1 0.4238 1.499852 42.91274 3.942436
8497 2833 1 0.4238 5.140828 30.821555 48.176711
8498 2833 2 -0.8476 4.198494 30.504008 48.071025
8499 2833 1 0.4238 3.616972 31.270644 47.798812
8500 2834 1 0.4238 27.220701 47.217033 27.793697
8501 2834 2 -0.8476 27.200705 48.095977 28.270203
8502 2834 1 0.4238 27.985651 48.158904 28.886563
8503 2835 1 0.4238 45.880028 11.995908 17.457613
8504 2835 2 -0.8476 45.964905 11.615946 16.536513
8505 2835 1 0.4238 45.716194 10.64748 16.551232
8506 2836 1 0.4238 36.232845 41.942375 7.665774
8507 2836 2 -0.8476 37.025302 42.41295 8.053809
8508 2836 1 0.4238 36.744097 43.306757 8.403141
8509 2837 1 0.4238 40.666641 48.172194 16.49234
8510 2837 2 -0.8476 39.669999 48.177469 16.574044
8511 2837 1 0.4238 39.336329 47.237384 16.644086
8512 2838 1 0.4238 48.178182 22.179882 42.538891
8513 2838 2 -0.8476 47.943196 23.129408 42.33109
8514 2838 1 0.4238 48.176194 23.329847 41.379493
8515 2839 1 0.4238 5.54655 43.017301 37.334965
8516 2839 2 -0.8476 4.595622 42.962173 37.639425
8517 2839 1 0.4238 4.422537 42.057962 38.029866
8518 2840 1 0.4238 14.812343 12.671337 30.663103
8519 2840 2 -0.8476 15.304617 11.921142 30.221657
8520 2840 1 0.4238 14.656803 11.20564 29.960134
8521 2841 1 0.4238 39.981294 1.961184 35.910858
8522 2841 2 -0.8476 39.215231 1.682444 35.331676
8523 2841 1 0.4238 38.851067 2.481523 34.853287
8524 2842 1 0.4238 46.66266 15.125915 42.953664
8525 2842 2 -0.8476 47.080824 15.575528 43.742958
8526 2842 1 0.4238 47.914017 15.087026 44.0021
8527 2843 1 0.4238 41.66878 25.072366 3.02337
8528 2843 2 -0.8476 41.478399 24.261852 2.469455
8529 2843 1 0.4238 41.550943 24.496117 1.499993
8530 2844 1 0.4238 13.743796 27.816889 6.471825
8531 2844 2 -0.8476 13.475363 27.031083 7.029009
8532 2844 1 0.4238 12.639868 27.249767 7.533117
8533 2845 1 0.4238 40.652691 39.841511 11.459904
8534 2845 2 -0.8476 40.355458 40.743696 11.772498
8535 2845 1 0.4238 39.569434 41.041826 11.230941
8536 2846 1 0.4238 39.004027 3.913982 17.166058
8537 2846 2 -0.8476 39.149735 3.383714 16.330843
8538 2846 1 0.4238 39.884344 2.721851 16.480133
8539 2847 1 0.4238 33.152194 30.890987 20.384958
8540 2847 2 -0.8476 33.759989 30.792976 21.17298
8541 2847 1 0.4238 33.297728 31.127696 21.994123
8542 2848 1 0.4238 19.706482 26.228053 9.618715
8543 2848 2 -0.8476 19.672339 25.229279 9.58288
8544 2848 1 0.4238 18.896047 24.942231 9.021655
8545 2849 1 0.4238 31.868688 20.200405 11.359185
8546 2849 2 -0.8476 31.238068 20.975742 11.324958
8547 2849 1 0.4238 30.420502 20.764313 11.860573
8548 2850 1 0.4238 19.736859 33.152303 11.192444
8549 2850 2 -0.8476 20.338206 32.412545 11.494337
8550 2850 1 0.4238 21.247854 32.780265 11.687526
8551 2851 1 0.4238 21.629207 47.144037 27.12563
8552 2851 2 -0.8476 22.524413 46.740686 26.93612
8553 2851 1 0.4238 22.535419 46.376249 26.004957
8554 2852 1 0.4238 48.178005 38.195916 45.584784
8555 2852 2 -0.8476 48.045965 38.787834 44.789676
8556 2852 1 0.4238 48.1652 38.253477 43.952869
8557 2853 1 0.4238 38.136062 31.740925 46.026766
8558 2853 2 -0.8476 38.832426 31.023251 46.022178
8559 2853 1 0.4238 38.389802 30.129825 45.94554
8560 2854 1 0.4238 40.904531 32.159237 25.222198
8561 2854 2 -0.8476 41.730517 32.673072 25.453974
8562 2854 1 0.4238 42.476782 32.035641 25.645723
8563 2855 1 0.4238 12.444226 48.160776 42.43724
8564 2855 2 -0.8476 11.625619 47.592218 42.518628
8565 2855 1 0.4238 10.822049 48.178032 42.623973
8566 2856 1 0.4238 6.220295 11.807068 24.048914
8567 2856 2 -0.8476 5.901467 12.088321 23.143792
8568 2856 1 0.4238 5.535584 11.294636 22.657795
8569 2857 1 0.4238 37.206443 48.177902 26.352808
8570 2857 2 -0.8476 36.391122 48.007714 25.799376
8571 2857 1 0.4238 36.497681 47.144732 25.305506
8572 2858 1 0.4238 16.875892 46.78154 4.999519
8573 2858 2 -0.8476 16.505649 47.125803 4.136731
8574 2858 1 0.4238 16.295628 48.099145 4.22891
8575 2859 1 0.4238 3.902075 7.037207 14.490444
8576 2859 2 -0.8476 4.361478 7.92516 14.468309
8577 2859 1 0.4238 3.677248 8.654408 14.46325
8578 2860 1 0.4238 24.358078 15.601789 29.485359
8579 2860 2 -0.8476 24.518458 16.455989 28.990766
8580 2860 1 0.4238 24.496339 16.280467 28.006539
8581 2861 1 0.4238 1.499988 28.69886 9.282399
8582 2861 2 -0.8476 1.527988 28.491569 8.30452
8583 2861 1 0.4238 1.499993 29.343856 7.782197
8584 2862 1 0.4238 16.360688 29.416579 6.63902
8585 2862 2 -0.8476 16.816793 30.241658 6.972505
8586 2862 1 0.4238 16.546643 30.411953 7.920143
8587 2863 1 0.4238 10.26597 26.114859 37.99926
8588 2863 2 -0.8476 10.533216 25.233807 38.389551
8589 2863 1 0.4238 11.296855 24.855391 37.866429
8590 2864 1 0.4238 24.222346 38.162961 17.796073
8591 2864 2 -0.8476 24.113527 38.944063 17.181225
8592 2864 1 0.4238 23.420458 38.73192 16.492276
8593 2865 1 0.4238 41.022206 27.320086 44.339446
8594 2865 2 -0.8476 41.440212 26.44189 44.571917
8595 2865 1 0.4238 41.695919 25.961914 43.732729
8596 2866 1 0.4238 44.28158 24.846828 26.845655
8597 2866 2 -0.8476 43.410927 25.260951 27.111108
8598 2866 1 0.4238 43.049523 25.79564 26.34724
8599 2867 1 0.4238 46.49988 28.859069 11.237707
8600 2867 2 -0.8476 46.304764 28.600002 12.183653
8601 2867 1 0.4238 47.014385 27.97639 12.511594
8602 2868 1 0.4238 12.241293 21.4629 34.300683
8603 2868 2 -0.8476 13.151856 21.630186 33.922675
8604 2868 1 0.4238 13.128985 22.448095 33.347782
8605 2869 1 0.4238 40.939692 21.53416 46.689943
8606 2869 2 -0.8476 39.982163 21.817357 46.63575
8607 2869 1 0.4238 39.473297 21.419898 47.399348
8608 2870 1 0.4238 23.554911 45.084837 15.949796
8609 2870 2 -0.8476 23.46926 44.090525 15.88648
8610 2870 1 0.4238 22.737931 43.859158 15.244898
8611 2871 1 0.4238 43.325517 19.546195 34.32061
8612 2871 2 -0.8476 44.299071 19.769818 34.367363
8613 2871 1 0.4238 44.427566 20.741932 34.171191
8614 2872 1 0.4238 11.804648 6.130353 8.09654
8615 2872 2 -0.8476 12.738867 5.78271 8.016674
8616 2872 1 0.4238 12.715052 4.794154 7.86771
8617 2873 1 0.4238 18.700181 33.64052 36.890589
8618 2873 2 -0.8476 18.732985 34.633826 37.00134
8619 2873 1 0.4238 17.864201 34.956163 37.377256
8620 2874 1 0.4238 24.990053 9.657222 31.017698
8621 2874 2 -0.8476 24.856841 8.778767 31.476578
8622 2874 1 0.4238 23.926653 8.73048 31.84047
8623 2875 1 0.4238 22.260485 27.939 12.336437
8624 2875 2 -0.8476 21.438948 27.375882 12.425742
8625 2875 1 0.4238 21.419382 26.69623 11.692468
8626 2876 1 0.4238 9.536983 10.473232 24.423448
8627 2876 2 -0.8476 9.676172 11.458815 24.327263
8628 2876 1 0.4238 8.847679 11.877741 23.955646
8629 2877 1 0.4238 35.574155 19.364856 44.46226
8630 2877 2 -0.8476 35.921122 20.164091 43.971509
8631 2877 1 0.4238 36.669419 19.886369 43.369079
8632 2878 1 0.4238 5.416934 27.022937 18.94358
8633 2878 2 -0.8476 5.479389 26.048019 19.1572
8634 2878 1 0.4238 4.93879 25.526802 18.496833
8635 2879 1 0.4238 8.173203 29.014209 41.647806
8636 2879 2 -0.8476 7.914898 29.885958 42.064138
8637 2879 1 0.4238 7.207968 30.324033 41.508855
8638 2880 1 0.4238 17.490184 30.996079 37.782097
8639 2880 2 -0.8476 16.817722 30.262052 37.876961
8640 2880 1 0.4238 16.818283 29.929325 38.819984
8641 2881 1 0.4238 1.50073 17.705038 19.442919
8642 2881 2 -0.8476 1.809329 16.78731 19.693003
8643 2881 1 0.4238 1.500678 16.132364 19.003234
8644 2882 1 0.4238 48.175883 22.25557 35.380434
8645 2882 2 -0.8476 48.131317 22.53789 34.422149
8646 2882 1 0.4238 47.175984 22.669437 34.157509
8647 2883 1 0.4238 1.503164 47.351441 39.353706
8648 2883 2 -0.8476 1.887968 48.175602 38.938154
8649 2883 1 0.4238 2.880521 48.17801 39.059943
8650 2884 1 0.4238 20.879633 29.598746 44.955212
8651 2884 2 -0.8476 21.81064 29.545459 44.594124
8652 2884 1 0.4238 22.421603 29.185832 45.299385
8653 2885 1 0.4238 23.082396 4.060214 11.228182
8654 2885 2 -0.8476 23.834706 3.545844 11.63983
8655 2885 1 0.4238 24.652748 4.120098 11.672068
8656 2886 1 0.4238 18.99869 30.919739 43.382072
8657 2886 2 -0.8476 18.43651 31.20754 44.157394
8658 2886 1 0.4238 19.017721 31.634093 44.850391
8659 2887 1 0.4238 36.207558 3.679631 17.340823
8660 2887 2 -0.8476 35.298952 4.023722 17.577545
8661 2887 1 0.4238 35.239967 4.155926 18.567011
8662 2888 1 0.4238 2.090911 46.670746 5.029671
8663 2888 2 -0.8476 1.550729 47.236141 4.406348
8664 2888 1 0.4238 1.501036 48.169653 4.761432
8665 2889 1 0.4238 2.055073 3.497207 9.078427
8666 2889 2 -0.8476 2.028193 4.492878 9.167405
8667 2889 1 0.4238 1.499997 4.740806 9.979526
8668 2890 1 0.4238 26.101485 43.632092 46.00928
8669 2890 2 -0.8476 27.101445 43.62307 46.009142
8670 2890 1 0.4238 27.426572 42.718613 45.733007
8671 2891 1 0.4238 14.330003 48.159588 22.665171
8672 2891 2 -0.8476 13.39381 48.178046 22.314169
8673 2891 1 0.4238 13.409305 48.086952 21.318448
8674 2892 1 0.4238 30.375183 39.460873 34.626747
8675 2892 2 -0.8476 30.518939 38.471436 34.645409
8676 2892 1 0.4238 29.653604 38.012645 34.847166
8677 2893 1 0.4238 1.505734 41.668873 30.400049
8678 2893 2 -0.8476 2.442795 41.929213 30.63273
8679 2893 1 0.4238 2.857744 42.407636 29.858827
8680 2894 1 0.4238 40.529755 39.093165 20.263587
8681 2894 2 -0.8476 39.909469 39.854389 20.452751
8682 2894 1 0.4238 39.718033 40.347193 19.60393
8683 2895 1 0.4238 43.373316 6.563908 48.182197
8684 2895 2 -0.8476 43.794234 7.351472 47.732119
8685 2895 1 0.4238 44.66255 7.566153 48.179266
8686 2896 1 0.4238 17.577411 39.855828 28.756792
8687 2896 2 -0.8476 17.717687 38.999673 28.259477
8688 2896 1 0.4238 17.095455 38.302073 28.614697
8689 2897 1 0.4238 39.033755 37.711025 12.046844
8690 2897 2 -0.8476 38.142937 38.160454 12.113607
8691 2897 1 0.4238 38.025221 38.78362 11.340428
8692 2898 1 0.4238 24.30221 26.815353 10.895869
8693 2898 2 -0.8476 24.709525 27.598956 10.426763
8694 2898 1 0.4238 24.003679 28.284546 10.248586
8695 2899 1 0.4238 1.499992 15.878573 11.916867
8696 2899 2 -0.8476 1.737688 16.219917 12.826254
8697 2899 1 0.4238 1.752296 15.458765 13.474663
8698 2900 1 0.4238 4.798634 35.287194 48.178022
8699 2900 2 -0.8476 4.140932 34.533917 48.178019
8700 2900 1 0.4238 4.631914 33.662747 48.178016
8701 2901 1 0.4238 26.525909 31.548725 24.618418
8702 2901 2 -0.8476 26.483604 30.556839 24.498535
8703 2901 1 0.4238 26.681743 30.107088 25.369434
8704 2902 1 0.4238 37.994457 48.178001 23.590276
8705 2902 2 -0.8476 38.297902 47.637775 22.80537
8706 2902 1 0.4238 38.93446 48.178018 22.254979
8707 2903 1 0.4238 35.407142 42.777714 17.684051
8708 2903 2 -0.8476 34.421343 42.897252 17.566112
8709 2903 1 0.4238 34.100179 42.306646 16.825815
8710 2904 1 0.4238 41.6342 15.863916 29.774001
8711 2904 2 -0.8476 42.213565 15.076383 29.563933
8712 2904 1 0.4238 42.053624 14.787241 28.620103
8713 2905 1 0.4238 1.521027 17.697617 35.775311
8714 2905 2 -0.8476 1.499992 18.461334 35.130103
8715 2905 1 0.4238 1.520506 19.324521 35.634569
8716 2906 1 0.4238 41.088943 26.499028 28.114831
8717 2906 2 -0.8476 41.392826 27.387788 27.771669
8718 2906 1 0.4238 40.613428 28.012868 27.729087
8719 2907 1 0.4238 21.613008 23.002249 11.599157
8720 2907 2 -0.8476 21.015846 23.799456 11.510512
8721 2907 1 0.4238 20.11258 23.582086 11.880461
8722 2908 1 0.4238 8.057613 43.535796 48.178007
8723 2908 2 -0.8476 9.056952 43.51501 48.148177
8724 2908 1 0.4238 9.359382 43.372043 47.205789
8725 2909 1 0.4238 22.673596 10.290502 24.635811
8726 2909 2 -0.8476 22.514002 11.277682 24.63833
8727 2909 1 0.4238 23.311967 11.743352 25.020956
8728 2910 1 0.4238 21.781476 36.771699 33.877779
8729 2910 2 -0.8476 21.706143 36.165934 34.669849
8730 2910 1 0.4238 21.025759 36.531116 35.305238
8731 2911 1 0.4238 24.342592 39.882594 41.978551
8732 2911 2 -0.8476 25.004832 39.410066 41.39704
8733 2911 1 0.4238 24.549293 39.087191 40.56744
8734 2912 1 0.4238 10.902854 39.108922 26.445261
8735 2912 2 -0.8476 10.455191 38.760573 27.268821
8736 2912 1 0.4238 9.774638 39.42226 27.583494
8737 2913 1 0.4238 9.380355 48.127402 4.075041
8738 2913 2 -0.8476 10.304882 48.178417 4.452726
8739 2913 1 0.4238 10.272937 48.004383 5.436947
8740 2914 1 0.4238 21.253685 15.466176 48.155772
8741 2914 2 -0.8476 20.544493 14.761346 48.171931
8742 2914 1 0.4238 20.949609 13.875627 47.945256
8743 2915 1 0.4238 12.990415 3.817088 25.21368
8744 2915 2 -0.8476 12.01191 3.873901 25.015435
8745 2915 1 0.4238 11.851788 3.638171 24.056899
8746 2916 1 0.4238 42.524706 14.750332 32.477616
8747 2916 2 -0.8476 42.664285 13.867829 32.028499
8748 2916 1 0.4238 41.78232 13.501663 31.731751
8749 2917 1 0.4238 43.334657 19.676449 20.449352
8750 2917 2 -0.8476 43.27601 20.673089 20.506526
8751 2917 1 0.4238 44.197652 21.060335 20.531345
8752 2918 1 0.4238 4.101645 36.431428 9.817246
8753 2918 2 -0.8476 4.313479 37.277098 10.307111
8754 2918 1 0.4238 5.02621 37.099611 10.985722
8755 2919 1 0.4238 32.449795 27.090049 39.708046
8756 2919 2 -0.8476 33.274538 26.847355 39.197264
8757 2919 1 0.4238 33.016807 26.471449 38.307169
8758 2920 1 0.4238 41.246021 4.609966 18.025712
8759 2920 2 -0.8476 41.799266 3.973729 17.488011
8760 2920 1 0.4238 42.727901 4.333588 17.397801
8761 2921 1 0.4238 12.027373 48.17801 8.866115
8762 2921 2 -0.8476 13.026545 48.147543 8.839142
8763 2921 1 0.4238 13.386238 48.178034 9.771714
8764 2922 1 0.4238 1.513338 42.351131 39.915222
8765 2922 2 -0.8476 2.021918 41.895792 39.184461
8766 2922 1 0.4238 1.510471 41.095719 38.870925
8767 2923 1 0.4238 33.876114 34.243511 42.107092
8768 2923 2 -0.8476 34.146164 33.327427 42.403509
8769 2923 1 0.4238 33.90153 32.662975 41.697352
8770 2924 1 0.4238 1.70366 12.345641 2.072266
8771 2924 2 -0.8476 1.499837 12.596333 3.018632
8772 2924 1 0.4238 2.297804 13.041685 3.424723
8773 2925 1 0.4238 43.651125 40.087953 25.88916
8774 2925 2 -0.8476 43.181866 39.999537 26.767783
8775 2925 1 0.4238 43.800934 40.270182 27.505011
8776 2926 1 0.4238 42.413078 46.619888 7.324215
8777 2926 2 -0.8476 41.745346 45.875896 7.348894
8778 2926 1 0.4238 41.095369 45.986302 6.597003
8779 2927 1 0.4238 7.418243 5.981068 48.179172
8780 2927 2 -0.8476 6.577346 6.506657 48.050139
8781 2927 1 0.4238 5.787693 5.900046 48.142174
8782 2928 1 0.4238 35.39578 1.81748 19.439739
8783 2928 2 -0.8476 35.264599 1.504965 20.38055
8784 2928 1 0.4238 36.144384 1.500129 20.855898
8785 2929 1 0.4238 33.574041 8.359764 43.44224
8786 2929 2 -0.8476 33.521614 7.405707 43.147236
8787 2929 1 0.4238 32.562646 7.137001 43.056807
8788 2930 1 0.4238 3.938725 37.842479 18.210763
8789 2930 2 -0.8476 3.860479 37.849326 17.213853
8790 2930 1 0.4238 3.990408 38.781409 16.875711
8791 2931 1 0.4238 28.037337 5.483461 35.6628
8792 2931 2 -0.8476 28.656316 4.825534 36.091747
8793 2931 1 0.4238 28.182095 3.953984 36.216308
8794 2932 1 0.4238 17.35947 41.800668 21.659289
8795 2932 2 -0.8476 18.348378 41.844 21.517228
8796 2932 1 0.4238 18.712324 40.917479 21.421828
8797 2933 1 0.4238 4.089948 25.746252 46.030812
8798 2933 2 -0.8476 4.902082 25.756301 45.447427
8799 2933 1 0.4238 5.632874 26.26535 45.902193
8800 2934 1 0.4238 7.428528 45.030758 40.640225
8801 2934 2 -0.8476 7.265775 46.015691 40.581767
8802 2934 1 0.4238 6.516352 46.266631 41.194461
8803 2935 1 0.4238 30.883603 17.914658 44.564368
8804 2935 2 -0.8476 30.919216 18.895202 44.75741
8805 2935 1 0.4238 29.99279 19.238236 44.912532
8806 2936 1 0.4238 18.683948 1.500021 18.39919
8807 2936 2 -0.8476 19.305148 1.5 19.182842
8808 2936 1 0.4238 18.773375 1.505753 20.02971
8809 2937 1 0.4238 17.509636 20.767917 15.411234
8810 2937 2 -0.8476 17.371032 20.965229 16.381727
8811 2937 1 0.4238 16.989847 21.884062 16.483924
8812 2938 1 0.4238 13.794944 40.748228 43.402034
8813 2938 2 -0.8476 13.098669 41.46259 43.471955
8814 2938 1 0.4238 13.540167 42.342131 43.649398
8815 2939 1 0.4238 36.125415 21.667479 37.483065
8816 2939 2 -0.8476 36.762817 21.214078 38.106079
8817 2939 1 0.4238 36.429118 20.294437 38.313213
8818 2940 1 0.4238 3.453428 23.629933 33.835584
8819 2940 2 -0.8476 4.154434 24.317155 34.026152
8820 2940 1 0.4238 3.999672 25.119778 33.450093
8821 2941 1 0.4238 23.078474 16.082798 10.498408
8822 2941 2 -0.8476 23.427093 15.799585 11.391859
8823 2941 1 0.4238 23.762671 16.60045 11.887846
8824 2942 1 0.4238 24.344419 13.272412 10.88037
8825 2942 2 -0.8476 25.143785 12.672012 10.857265
8826 2942 1 0.4238 25.745441 12.946761 10.10725
8827 2943 1 0.4238 48.174258 32.309741 14.987422
8828 2943 2 -0.8476 47.888095 32.788649 15.817337
8829 2943 1 0.4238 48.070612 33.766766 15.717464
8830 2944 1 0.4238 34.952777 18.550786 41.812269
8831 2944 2 -0.8476 34.788048 19.494378 41.525043
8832 2944 1 0.4238 33.821981 19.60842 41.293294
8833 2945 1 0.4238 24.958393 9.239291 6.758659
8834 2945 2 -0.8476 24.457552 8.392181 6.93632
8835 2945 1 0.4238 23.895027 8.503123 7.755622
8836 2946 1 0.4238 29.653553 10.871888 41.060718
8837 2946 2 -0.8476 28.718205 10.695453 40.754134
8838 2946 1 0.4238 28.080625 11.240771 41.298301
8839 2947 1 0.4238 43.533751 25.577127 18.805077
8840 2947 2 -0.8476 44.496971 25.405284 18.59849
8841 2947 1 0.4238 45.069655 25.840534 19.293176
8842 2948 1 0.4238 8.525412 27.28471 31.441816
8843 2948 2 -0.8476 8.27606 28.073711 32.003332
8844 2948 1 0.4238 9.096393 28.605246 32.214338
8845 2949 1 0.4238 23.214712 9.41085 35.389165
8846 2949 2 -0.8476 23.125032 9.521391 34.399348
8847 2949 1 0.4238 23.727712 10.257039 34.090158
8848 2950 1 0.4238 1.500002 10.898224 24.524184
8849 2950 2 -0.8476 1.845925 9.987303 24.299328
8850 2950 1 0.4238 1.53562 9.729417 23.384338
8851 2951 1 0.4238 40.440039 2.597545 40.178212
8852 2951 2 -0.8476 41.066096 2.468275 40.9472
8853 2951 1 0.4238 41.29831 1.499027 41.028656
8854 2952 1 0.4238 23.388652 11.105787 15.381804
8855 2952 2 -0.8476 23.134515 12.072913 15.390797
8856 2952 1 0.4238 22.14926 12.160024 15.24354
8857 2953 1 0.4238 38.239696 16.09331 8.644387
8858 2953 2 -0.8476 38.668779 16.966286 8.876336
8859 2953 1 0.4238 38.077381 17.471869 9.504535
8860 2954 1 0.4238 14.616801 32.583657 48.131791
8861 2954 2 -0.8476 15.58925 32.815385 48.15722
8862 2954 1 0.4238 16.13181 31.97547 48.170281
8863 2955 1 0.4238 16.698887 10.135295 43.009573
8864 2955 2 -0.8476 16.750161 11.036587 42.579405
8865 2955 1 0.4238 17.67742 11.398838 42.674078
8866 2956 1 0.4238 31.239125 38.568601 26.712245
8867 2956 2 -0.8476 30.499681 39.221027 26.546225
8868 2956 1 0.4238 30.542615 39.953472 27.225696
8869 2957 1 0.4238 39.665251 14.925124 33.362248
8870 2957 2 -0.8476 39.503262 14.876679 32.376645
8871 2957 1 0.4238 40.017314 15.601735 31.918339
8872 2958 1 0.4238 34.864889 7.7198 31.075695
8873 2958 2 -0.8476 34.718906 8.646857 31.421025
8874 2958 1 0.4238 33.746199 8.783316 31.608698
8875 2959 1 0.4238 18.044273 37.893269 42.15789
8876 2959 2 -0.8476 18.610297 37.081215 42.299964
8877 2959 1 0.4238 19.484993 37.198154 41.829611
8878 2960 1 0.4238 11.129166 13.179255 17.327425
8879 2960 2 -0.8476 11.657911 13.010381 18.159236
8880 2960 1 0.4238 12.517822 13.519041 18.116605
8881 2961 1 0.4238 37.283672 17.946693 14.801519
8882 2961 2 -0.8476 37.660993 18.762959 14.364096
8883 2961 1 0.4238 38.59286 18.574433 14.054127
8884 2962 1 0.4238 28.787034 9.094295 45.213314
8885 2962 2 -0.8476 28.993795 9.80256 45.888304
8886 2962 1 0.4238 28.210948 9.919236 46.49948
8887 2963 1 0.4238 33.261595 29.60633 27.172848
8888 2963 2 -0.8476 33.446722 30.488469 27.605927
8889 2963 1 0.4238 34.317367 30.44313 28.095743
8890 2964 1 0.4238 13.097278 25.087585 21.987692
8891 2964 2 -0.8476 13.615405 24.958298 22.833167
8892 2964 1 0.4238 13.168321 25.454684 23.577288
8893 2965 1 0.4238 48.178012 32.679526 37.31588
8894 2965 2 -0.8476 47.601253 31.912327 37.035249
8895 2965 1 0.4238 48.178001 31.164875 36.705587
8896 2966 1 0.4238 8.235641 46.862907 35.449691
8897 2966 2 -0.8476 8.506262 47.730411 35.867066
8898 2966 1 0.4238 7.701543 48.17808 36.25696
8899 2967 1 0.4238 12.653024 37.516645 31.118344
8900 2967 2 -0.8476 13.200825 36.680847 31.155165
8901 2967 1 0.4238 12.594949 35.885338 31.164048
8902 2968 1 0.4238 29.076187 38.765824 15.557248
8903 2968 2 -0.8476 28.903921 38.091946 16.275728
8904 2968 1 0.4238 28.556564 38.555325 17.090971
8905 2969 1 0.4238 25.244552 48.177999 21.355494
8906 2969 2 -0.8476 25.927184 47.8511 22.009061
8907 2969 1 0.4238 25.694935 48.178001 22.925138
8908 2970 1 0.4238 34.840257 46.07011 3.909633
8909 2970 2 -0.8476 35.612029 46.600535 3.558895
8910 2970 1 0.4238 36.462593 46.251349 3.952099
8911 2971 1 0.4238 22.263624 5.465303 16.204397
8912 2971 2 -0.8476 22.847984 4.65455 16.169729
8913 2971 1 0.4238 22.286677 3.846518 15.990788
8914 2972 1 0.4238 14.280196 8.869188 7.690194
8915 2972 2 -0.8476 14.606834 7.990016 7.343259
8916 2972 1 0.4238 14.817162 7.385763 8.11179
8917 2973 1 0.4238 41.39887 34.169074 23.212196
8918 2973 2 -0.8476 41.602063 34.327821 22.246012
8919 2973 1 0.4238 40.920996 33.861803 21.681233
8920 2974 1 0.4238 10.123627 18.171833 44.926849
8921 2974 2 -0.8476 9.533948 18.680498 45.554175
8922 2974 1 0.4238 8.891762 18.051307 45.992029
8923 2975 1 0.4238 36.877707 5.522445 9.522307
8924 2975 2 -0.8476 36.915525 4.530259 9.641197
8925 2975 1 0.4238 37.754175 4.176646 9.226923
8926 2976 1 0.4238 40.426008 27.98835 5.887849
8927 2976 2 -0.8476 41.067982 27.72046 5.169445
8928 2976 1 0.4238 40.775699 26.852487 4.767957
8929 2977 1 0.4238 11.476872 45.369598 37.64179
8930 2977 2 -0.8476 10.741246 44.940887 37.117327
8931 2977 1 0.4238 10.428258 45.570431 36.406193
8932 2978 1 0.4238 17.573504 5.95851 25.349169
8933 2978 2 -0.8476 16.654809 6.335811 25.465978
8934 2978 1 0.4238 16.02512 5.604691 25.72857
8935 2979 1 0.4238 7.762337 33.141262 13.273829
8936 2979 2 -0.8476 7.480958 32.236608 13.593871
8937 2979 1 0.4238 7.479152 31.596832 12.825313
8938 2980 1 0.4238 30.250728 9.13946 48.05704
8939 2980 2 -0.8476 30.125452 10.130924 48.093175
8940 2980 1 0.4238 31.016757 10.576711 48.175935
8941 2981 1 0.4238 16.368698 18.496308 48.176527
8942 2981 2 -0.8476 15.403643 18.319191 47.9834
8943 2981 1 0.4238 15.236935 17.333251 47.994773
8944 2982 1 0.4238 19.522922 8.95056 39.977433
8945 2982 2 -0.8476 18.612574 8.684436 40.294364
8946 2982 1 0.4238 18.250799 9.392174 40.901179
8947 2983 1 0.4238 39.500045 29.947924 48.178086
8948 2983 2 -0.8476 39.818117 29.000137 48.155058
8949 2983 1 0.4238 39.030298 28.384301 48.145731
8950 2984 1 0.4238 14.817886 39.35923 1.501705
8951 2984 2 -0.8476 15.680873 39.525719 1.978712
8952 2984 1 0.4238 16.419799 39.042304 1.509353
8953 2985 1 0.4238 48.16959 2.413556 14.159969
8954 2985 2 -0.8476 48.089292 3.246669 13.612726
8955 2985 1 0.4238 47.160553 3.608949 13.691454
8956 2986 1 0.4238 19.183168 20.858553 42.929827
8957 2986 2 -0.8476 18.356282 21.285614 43.29572
8958 2986 1 0.4238 17.554033 20.911022 42.83088
8959 2987 1 0.4238 37.456234 17.997316 48.178175
8960 2987 2 -0.8476 37.811793 18.735034 47.604284
8961 2987 1 0.4238 38.048183 19.51923 48.178006
8962 2988 1 0.4238 43.063339 26.524006 30.155317
8963 2988 2 -0.8476 42.826502 25.616842 29.807522
8964 2988 1 0.4238 43.637225 25.031631 29.823509
8965 2989 1 0.4238 3.36731 12.933698 39.775896
8966 2989 2 -0.8476 3.820209 13.803123 39.578455
8967 2989 1 0.4238 3.876266 13.932467 38.588441
8968 2990 1 0.4238 5.021004 3.988533 39.924359
8969 2990 2 -0.8476 4.520595 3.122749 39.921235
8970 2990 1 0.4238 4.502169 2.745075 40.846989
8971 2991 1 0.4238 40.612062 12.32829 4.51634
8972 2991 2 -0.8476 41.247495 11.576024 4.690465
8973 2991 1 0.4238 41.511071 11.154723 3.82269
8974 2992 1 0.4238 10.745641 6.505784 1.499987
8975 2992 2 -0.8476 10.435614 5.555271 1.520161
8976 2992 1 0.4238 11.228404 4.945838 1.511512
8977 2993 1 0.4238 38.468186 1.634641 48.17469
8978 2993 2 -0.8476 39.277877 1.504512 47.602442
8979 2993 1 0.4238 40.095626 1.500281 48.178
8980 2994 1 0.4238 22.833573 5.095601 4.078311
8981 2994 2 -0.8476 22.363221 4.278929 3.743922
8982 2994 1 0.4238 21.489586 4.541647 3.334362
8983 2995 1 0.4238 44.774726 38.377834 24.089847
8984 2995 2 -0.8476 45.291883 38.3666 23.23403
8985 2995 1 0.4238 46.119737 38.917902 23.337586
8986 2996 1 0.4238 7.10847 31.896662 43.449696
8987 2996 2 -0.8476 7.32262 32.836297 43.716579
8988 2996 1 0.4238 6.663271 33.460376 43.297314
8989 2997 1 0.4238 23.458514 33.083681 15.934192
8990 2997 2 -0.8476 22.60459 33.051132 16.45357
8991 2997 1 0.4238 22.471005 33.920056 16.930147
8992 2998 1 0.4238 12.552581 29.594219 5.110862
8993 2998 2 -0.8476 11.611291 29.626739 5.446893
8994 2998 1 0.4238 11.430303 28.820322 6.009863
8995 2999 1 0.4238 21.775241 17.440277 45.723196
8996 2999 2 -0.8476 21.539044 18.411444 45.755517
8997 2999 1 0.4238 22.358424 18.947142 45.959585
8998 3000 1 0.4238 17.79504 29.622783 14.689257
8999 3000 2 -0.8476 16.993929 29.851797 15.242225
9000 3000 1 0.4238 16.927888 30.845009 15.337977
9001 3001 1 0.4238 4.664721 15.922523 8.246732
9002 3001 2 -0.8476 4.699714 15.064836 8.759713
9003 3001 1 0.4238 4.046432 14.416102 8.369372
9004 3002 1 0.4238 17.32904 38.429273 46.744364
9005 3002 2 -0.8476 17.253284 37.537588 47.190636
9006 3002 1 0.4238 17.000541 37.665259 48.149709
9007 3003 1 0.4238 31.910504 21.375231 44.386827
9008 3003 2 -0.8476 32.878438 21.166478 44.247089
9009 3003 1 0.4238 32.964995 20.298686 43.757759
9010 3004 1 0.4238 42.992738 30.939323 18.566473
9011 3004 2 -0.8476 42.173158 30.71521 19.09379
9012 3004 1 0.4238 41.402719 30.579709 18.470843
9013 3005 1 0.4238 10.144623 45.797384 3.58866
9014 3005 2 -0.8476 11.115423 46.017174 3.492535
9015 3005 1 0.4238 11.549358 46.011031 4.393458
9016 3006 1 0.4238 47.51947 36.588451 6.890181
9017 3006 2 -0.8476 47.45139 36.759686 5.907306
9018 3006 1 0.4238 48.111668 36.186089 5.422519
9019 3007 1 0.4238 11.2438 41.824282 45.438841
9020 3007 2 -0.8476 11.968587 41.180409 45.684015
9021 3007 1 0.4238 12.791008 41.687039 45.942762
9022 3008 1 0.4238 33.156966 47.100513 40.245355
9023 3008 2 -0.8476 33.522104 48.019651 40.393205
9024 3008 1 0.4238 33.639282 48.178034 41.373605
9025 3009 1 0.4238 26.922055 19.776868 14.663217
9026 3009 2 -0.8476 26.133025 19.208368 14.430322
9027 3009 1 0.4238 25.382754 19.791218 14.118265
9028 3010 1 0.4238 39.855449 13.44992 46.23784
9029 3010 2 -0.8476 38.883225 13.264122 46.380176
9030 3010 1 0.4238 38.570637 13.736968 47.204011
9031 3011 1 0.4238 20.935641 24.761734 33.904863
9032 3011 2 -0.8476 21.928396 24.713428 34.014887
9033 3011 1 0.4238 22.213874 23.755613 34.047922
9034 3012 1 0.4238 16.030285 37.529335 3.583632
9035 3012 2 -0.8476 15.822963 36.865057 2.865472
9036 3012 1 0.4238 14.89874 37.026071 2.519227
9037 3013 1 0.4238 4.75549 4.193415 1.499921
9038 3013 2 -0.8476 5.363044 4.987693 1.500089
9039 3013 1 0.4238 4.816692 5.825248 1.500003
9040 3014 1 0.4238 30.927016 33.862607 10.753543
9041 3014 2 -0.8476 30.572566 33.529199 11.627159
9042 3014 1 0.4238 31.302509 33.062871 12.12688
9043 3015 1 0.4238 18.164572 47.691189 31.730901
9044 3015 2 -0.8476 17.797987 48.17791 32.523818
9045 3015 1 0.4238 17.319661 47.532425 33.119262
9046 3016 1 0.4238 31.444403 14.45062 36.840888
9047 3016 2 -0.8476 30.606925 13.909203 36.915044
9048 3016 1 0.4238 29.818596 14.482337 36.691318
9049 3017 1 0.4238 3.9875 35.947568 14.780591
9050 3017 2 -0.8476 3.491105 35.708721 15.615182
9051 3017 1 0.4238 3.893349 34.88686 16.018597
9052 3018 1 0.4238 3.837249 35.358761 34.744688
9053 3018 2 -0.8476 3.697762 35.603041 33.785068
9054 3018 1 0.4238 3.755255 36.596068 33.682156
9055 3019 1 0.4238 17.618877 5.307946 47.162062
9056 3019 2 -0.8476 17.281127 5.578617 48.06354
9057 3019 1 0.4238 16.340882 5.257707 48.17736
9058 3020 1 0.4238 43.251744 13.304076 19.325375
9059 3020 2 -0.8476 44.136443 12.839241 19.290218
9060 3020 1 0.4238 43.991821 11.852414 19.217724
9061 3021 1 0.4238 10.841111 14.139187 20.507753
9062 3021 2 -0.8476 11.528256 14.834588 20.2974
9063 3021 1 0.4238 11.18731 15.430981 19.570715
9064 3022 1 0.4238 43.053989 36.246483 29.766479
9065 3022 2 -0.8476 43.835575 36.547015 30.313108
9066 3022 1 0.4238 44.557192 35.856005 30.270992
9067 3023 1 0.4238 9.237285 4.543675 7.849326
9068 3023 2 -0.8476 8.705266 5.382652 7.734985
9069 3023 1 0.4238 7.731678 5.157445 7.697475
9070 3024 1 0.4238 6.307607 32.029087 5.468685
9071 3024 2 -0.8476 6.627371 32.947827 5.237021
9072 3024 1 0.4238 6.216701 33.611265 5.862481
9073 3025 1 0.4238 44.743744 2.534923 13.911155
9074 3025 2 -0.8476 44.721425 3.264461 13.227578
9075 3025 1 0.4238 43.816937 3.690949 13.224672
9076 3026 1 0.4238 42.099081 6.466309 38.514363
9077 3026 2 -0.8476 42.998617 6.897147 38.586563
9078 3026 1 0.4238 43.539703 6.424501 39.282143
9079 3027 1 0.4238 37.370529 4.661337 42.726532
9080 3027 2 -0.8476 38.292444 4.274711 42.702191
9081 3027 1 0.4238 38.655209 4.336162 41.772339
9082 3028 1 0.4238 31.777835 3.826696 2.284508
9083 3028 2 -0.8476 32.342948 4.07858 1.498887
9084 3028 1 0.4238 33.300705 3.869741 1.696596
9085 3029 1 0.4238 30.682969 5.977759 18.468686
9086 3029 2 -0.8476 29.880935 5.839461 17.88764
9087 3029 1 0.4238 30.078492 5.13122 17.209875
9088 3030 1 0.4238 44.581506 48.175926 30.944022
9089 3030 2 -0.8476 44.013152 47.745688 30.242689
9090 3030 1 0.4238 44.190353 48.178071 29.358582
9091 3031 1 0.4238 20.476197 48.178001 30.443884
9092 3031 2 -0.8476 20.616188 47.194528 30.558702
9093 3031 1 0.4238 21.595549 47.002316 30.621202
9094 3032 1 0.4238 46.353218 21.815511 22.556178
9095 3032 2 -0.8476 46.110652 20.940904 22.136386
9096 3032 1 0.4238 46.664619 20.8 21.315858
9097 3033 1 0.4238 31.208067 33.366512 26.646546
9098 3033 2 -0.8476 30.977713 32.688318 27.344393
9099 3033 1 0.4238 31.115021 31.769489 26.974396
9100 3034 1 0.4238 22.193226 29.687098 42.070007
9101 3034 2 -0.8476 21.208181 29.8523 42.118946
9102 3034 1 0.4238 20.997551 30.737114 41.703327
9103 3035 1 0.4238 24.171936 24.879382 23.356171
9104 3035 2 -0.8476 25.02043 25.376954 23.175949
9105 3035 1 0.4238 24.952666 26.299758 23.555211
9106 3036 1 0.4238 22.196306 21.408546 7.560196
9107 3036 2 -0.8476 22.637608 20.634602 8.014358
9108 3036 1 0.4238 22.071378 19.817504 7.906034
9109 3037 1 0.4238 1.587563 9.345648 44.856349
9110 3037 2 -0.8476 2.516848 9.630815 45.091105
9111 3037 1 0.4238 3.067645 9.690105 44.258575
9112 3038 1 0.4238 34.903112 27.424522 5.170508
9113 3038 2 -0.8476 35.350563 27.395976 6.06436
9114 3038 1 0.4238 35.870554 26.54609 6.149813
9115 3039 1 0.4238 9.053375 18.805625 10.839613
9116 3039 2 -0.8476 8.969712 17.982721 10.277626
9117 3039 1 0.4238 8.374505 18.171599 9.496567
9118 3040 1 0.4238 48.178 30.128137 21.462373
9119 3040 2 -0.8476 47.287085 30.58096 21.497321
9120 3040 1 0.4238 46.562953 29.891404 21.509328
9121 3041 1 0.4238 48.134169 30.138965 8.462915
9122 3041 2 -0.8476 47.9032 29.956794 9.41867
9123 3041 1 0.4238 48.175744 30.736815 9.981952
9124 3042 1 0.4238 6.975392 10.113287 29.4327
9125 3042 2 -0.8476 7.10974 9.137412 29.2606
9126 3042 1 0.4238 7.086617 8.966384 28.275606
9127 3043 1 0.4238 36.751322 45.48823 40.66069
9128 3043 2 -0.8476 35.782563 45.702716 40.536184
9129 3043 1 0.4238 35.352524 45.832969 41.429548
9130 3044 1 0.4238 14.085593 44.692325 42.99437
9131 3044 2 -0.8476 14.132981 45.618255 42.61966
9132 3044 1 0.4238 13.312722 45.800845 42.077594
9133 3045 1 0.4238 11.526455 39.538864 29.673077
9134 3045 2 -0.8476 10.75264 39.287375 30.254423
9135 3045 1 0.4238 10.891134 39.658447 31.172641
9136 3046 1 0.4238 26.531651 29.122138 40.781326
9137 3046 2 -0.8476 25.707973 29.3865 41.282991
9138 3046 1 0.4238 24.93628 29.444758 40.64967
9139 3047 1 0.4238 26.411291 18.56641 10.284596
9140 3047 2 -0.8476 25.561084 18.35116 10.765028
9141 3047 1 0.4238 25.426436 19.002066 11.51215
9142 3048 1 0.4238 30.439948 11.57581 44.88125
9143 3048 2 -0.8476 30.24204 11.557096 43.901208
9144 3048 1 0.4238 29.253326 11.50219 43.761815
9145 3049 1 0.4238 33.689561 11.207937 20.882777
9146 3049 2 -0.8476 32.989289 10.505922 21.012365
9147 3049 1 0.4238 33.336863 9.797891 21.627088
9148 3050 1 0.4238 9.9592 8.46969 34.745529
9149 3050 2 -0.8476 9.397433 7.827052 34.224536
9150 3050 1 0.4238 8.470519 7.814588 34.599603
9151 3051 1 0.4238 34.58075 44.422667 32.971271
9152 3051 2 -0.8476 33.988391 45.166836 33.280015
9153 3051 1 0.4238 34.541242 45.868012 33.730246
9154 3052 1 0.4238 41.718367 40.212996 40.345382
9155 3052 2 -0.8476 41.506882 40.427565 39.391845
9156 3052 1 0.4238 40.533538 40.640256 39.306029
9157 3053 1 0.4238 32.205336 21.777517 8.906433
9158 3053 2 -0.8476 32.490679 21.049467 8.283117
9159 3053 1 0.4238 32.841106 20.276361 8.811804
9160 3054 1 0.4238 5.697283 24.044315 38.693692
9161 3054 2 -0.8476 4.777323 23.665339 38.793935
9162 3054 1 0.4238 4.109492 24.30738 38.417391
9163 3055 1 0.4238 36.89992 1.500007 26.426791
9164 3055 2 -0.8476 36.825852 2.358244 26.934671
9165 3055 1 0.4238 35.972337 2.364623 27.455699
9166 3056 1 0.4238 43.41242 46.298258 37.44901
9167 3056 2 -0.8476 43.000496 45.994663 38.308166
9168 3056 1 0.4238 43.715121 45.650419 38.917104
9169 3057 1 0.4238 8.51128 33.144553 48.063623
9170 3057 2 -0.8476 7.527143 33.318336 48.099309
9171 3057 1 0.4238 7.037932 32.449734 48.178064
9172 3058 1 0.4238 31.021576 31.235647 18.697837
9173 3058 2 -0.8476 31.268211 31.089212 17.739856
9174 3058 1 0.4238 32.095186 30.529148 17.690441
9175 3059 1 0.4238 5.008697 12.543954 18.026004
9176 3059 2 -0.8476 5.793903 12.137171 18.492885
9177 3059 1 0.4238 6.637816 12.433457 18.045643
9178 3060 1 0.4238 27.454492 43.363212 15.432929
9179 3060 2 -0.8476 26.668935 43.892756 15.753058
9180 3060 1 0.4238 25.940588 43.269542 16.037863
9181 3061 1 0.4238 11.966905 35.2628 47.533473
9182 3061 2 -0.8476 11.842645 36.094961 48.073905
9183 3061 1 0.4238 11.437424 36.807211 47.500759
9184 3062 1 0.4238 26.821495 24.316724 33.980135
9185 3062 2 -0.8476 27.563041 23.662415 33.83185
9186 3062 1 0.4238 27.90261 23.75008 32.895363
9187 3063 1 0.4238 16.092046 21.453833 40.822772
9188 3063 2 -0.8476 16.305486 21.982221 40.001036
9189 3063 1 0.4238 15.726821 22.797162 39.969131
9190 3064 1 0.4238 28.692101 8.921691 14.411541
9191 3064 2 -0.8476 27.871666 9.368646 14.055006
9192 3064 1 0.4238 27.765346 9.146161 13.085885
9193 3065 1 0.4238 38.531686 12.023427 6.012963
9194 3065 2 -0.8476 37.753821 11.656441 5.502819
9195 3065 1 0.4238 36.906229 11.868664 5.989182
9196 3066 1 0.4238 47.626279 9.89788 12.388626
9197 3066 2 -0.8476 46.641284 9.725347 12.384474
9198 3066 1 0.4238 46.393893 9.186452 13.1897
9199 3067 1 0.4238 47.173543 42.44564 45.926402
9200 3067 2 -0.8476 47.908975 42.094718 45.346753
9201 3067 1 0.4238 48.178022 41.185231 45.663689
9202 3068 1 0.4238 46.059184 24.67155 41.763386
9203 3068 2 -0.8476 45.546944 25.198118 41.084905
9204 3068 1 0.4238 45.357828 24.622281 40.289514
9205 3069 1 0.4238 36.715199 5.829557 20.101249
9206 3069 2 -0.8476 35.808732 6.247589 20.16098
9207 3069 1 0.4238 35.576551 6.404299 21.120945
9208 3070 1 0.4238 34.609592 48.145023 23.652478
9209 3070 2 -0.8476 35.336996 47.675379 23.15216
9210 3070 1 0.4238 35.541672 48.177672 22.312035
9211 3071 1 0.4238 6.294293 25.614034 7.393926
9212 3071 2 -0.8476 6.326002 26.159515 8.231449
9213 3071 1 0.4238 6.516116 25.562668 9.010955
9214 3072 1 0.4238 44.683184 15.890723 38.528839
9215 3072 2 -0.8476 44.069926 15.105866 38.439881
9216 3072 1 0.4238 44.249834 14.456832 39.179061
9217 3073 1 0.4238 19.063009 48.178001 22.444159
9218 3073 2 -0.8476 19.930983 47.926117 22.01617
9219 3073 1 0.4238 20.683044 48.128691 22.643361
9220 3074 1 0.4238 41.350582 25.912662 14.479463
9221 3074 2 -0.8476 41.042807 26.822407 14.7581
9222 3074 1 0.4238 41.736077 27.499187 14.510418
9223 3075 1 0.4238 1.49997 1.573914 27.772593
9224 3075 2 -0.8476 1.872396 1.499946 26.847484
9225 3075 1 0.4238 2.86898 1.574781 26.882404
9226 3076 1 0.4238 34.829423 42.624232 38.239487
9227 3076 2 -0.8476 35.389715 41.811982 38.401737
9228 3076 1 0.4238 34.810287 41.068742 38.736187
9229 3077 1 0.4238 8.105227 42.243176 1.539423
9230 3077 2 -0.8476 7.116715 42.296241 1.680946
9231 3077 1 0.4238 6.729414 41.374298 1.676592
9232 3078 1 0.4238 10.821885 27.031617 45.439047
9233 3078 2 -0.8476 11.078333 27.997085 45.39317
9234 3078 1 0.4238 10.25333 28.558305 45.326827
9235 3079 1 0.4238 1.509849 24.820514 19.514536
9236 3079 2 -0.8476 1.570414 25.708759 19.059176
9237 3079 1 0.4238 2.40258 25.743549 18.505743
9238 3080 1 0.4238 40.281067 48.116559 18.999399
9239 3080 2 -0.8476 40.041985 47.307243 19.535913
9240 3080 1 0.4238 40.630201 46.544144 19.268178
9241 3081 1 0.4238 45.295782 36.100498 13.940784
9242 3081 2 -0.8476 45.936795 36.120947 14.708042
9243 3081 1 0.4238 45.789276 35.319103 15.287079
9244 3082 1 0.4238 45.095378 26.314325 24.780183
9245 3082 2 -0.8476 44.937789 27.211656 25.192449
9246 3082 1 0.4238 45.786652 27.739994 25.175448
9247 3083 1 0.4238 11.50687 27.678681 19.904585
9248 3083 2 -0.8476 11.088667 26.774613 19.816456
9249 3083 1 0.4238 11.805101 26.077737 19.783498
9250 3084 1 0.4238 22.544628 47.876058 36.121347
9251 3084 2 -0.8476 21.921015 48.178005 36.842412
9252 3084 1 0.4238 20.976337 48.072437 36.531865
9253 3085 1 0.4238 25.525765 30.777652 1.55187
9254 3085 2 -0.8476 26.160194 30.004677 1.554827
9255 3085 1 0.4238 25.644149 29.149718 1.502452
9256 3086 1 0.4238 25.030761 28.199175 13.135956
9257 3086 2 -0.8476 25.906225 28.681804 13.161094
9258 3086 1 0.4238 26.134683 28.908703 14.107837
9259 3087 1 0.4238 26.347652 7.523875 2.643003
9260 3087 2 -0.8476 26.958343 7.708471 3.413055
9261 3087 1 0.4238 27.435553 6.867774 3.66898
9262 3088 1 0.4238 25.116452 22.417359 45.913161
9263 3088 2 -0.8476 24.864175 21.787814 45.178294
9264 3088 1 0.4238 25.67097 21.272566 44.889157
9265 3089 1 0.4238 19.751121 7.770784 16.085805
9266 3089 2 -0.8476 20.400419 7.417476 16.759293
9267 3089 1 0.4238 19.933203 7.280455 17.632754
9268 3090 1 0.4238 9.283411 17.020578 32.47998
9269 3090 2 -0.8476 9.491624 16.05119 32.349849
9270 3090 1 0.4238 10.433187 15.952834 32.027691
9271 3091 1 0.4238 35.212796 8.967221 48.178
9272 3091 2 -0.8476 34.332074 9.435765 48.108742
9273 3091 1 0.4238 34.482078 10.423797 48.072815
9274 3092 1 0.4238 29.014824 21.596367 14.052561
9275 3092 2 -0.8476 29.737226 22.006173 14.609512
9276 3092 1 0.4238 29.377668 22.810547 15.082482
9277 3093 1 0.4238 14.003848 12.898893 33.842696
9278 3093 2 -0.8476 13.3978 13.608436 34.202217
9279 3093 1 0.4238 13.167187 13.399664 35.152602
9280 3094 1 0.4238 48.177903 25.648641 40.44507
9281 3094 2 -0.8476 47.668192 25.328731 39.646414
9282 3094 1 0.4238 48.175696 24.591432 39.20051
9283 3095 1 0.4238 46.81219 15.910217 8.153347
9284 3095 2 -0.8476 47.182189 16.833181 8.259359
9285 3095 1 0.4238 48.178012 16.78612 8.337601
9286 3096 1 0.4238 39.320601 4.522046 39.041135
9287 3096 2 -0.8476 39.948275 4.71256 38.286331
9288 3096 1 0.4238 40.356001 3.856815 37.967804
9289 3097 1 0.4238 31.91512 3.71175 30.077887
9290 3097 2 -0.8476 31.955607 3.246202 30.961983
9291 3097 1 0.4238 32.775268 3.537849 31.455032
9292 3098 1 0.4238 28.385821 20.963391 18.079017
9293 3098 2 -0.8476 28.012776 21.474207 17.304482
9294 3098 1 0.4238 28.115192 22.45482 17.471542
9295 3099 1 0.4238 32.949031 17.052249 48.167693
9296 3099 2 -0.8476 32.697078 16.084532 48.174178
9297 3099 1 0.4238 31.700704 15.99954 48.178018
9298 3100 1 0.4238 32.133066 36.849744 18.853845
9299 3100 2 -0.8476 31.947588 36.887909 17.871938
9300 3100 1 0.4238 31.157312 37.477388 17.704676
9301 3101 1 0.4238 20.208577 6.17884 36.47748
9302 3101 2 -0.8476 19.805035 5.392517 36.009666
9303 3101 1 0.4238 20.51522 4.908077 35.498829
9304 3102 1 0.4238 21.823911 3.807993 22.80718
9305 3102 2 -0.8476 21.771216 3.693225 23.799174
9306 3102 1 0.4238 22.692703 3.71688 24.186863
9307 3103 1 0.4238 6.71275 35.528392 13.094226
9308 3103 2 -0.8476 5.823428 35.985343 13.07685
9309 3103 1 0.4238 5.940423 36.95125 13.307792
9310 3104 1 0.4238 25.439358 23.096144 31.891464
9311 3104 2 -0.8476 25.979081 22.316587 31.573675
9312 3104 1 0.4238 25.41409 21.491631 31.58893
9313 3105 1 0.4238 7.436611 36.051377 20.989908
9314 3105 2 -0.8476 6.715186 35.386371 20.796741
9315 3105 1 0.4238 7.093819 34.461835 20.839987
9316 3106 1 0.4238 40.559802 37.197075 3.561645
9317 3106 2 -0.8476 39.622291 36.850175 3.588732
9318 3106 1 0.4238 39.568334 36.085285 4.230628
9319 3107 1 0.4238 29.20107 15.473213 15.16372
9320 3107 2 -0.8476 28.573037 14.849446 15.629004
9321 3107 1 0.4238 27.723992 15.331395 15.845449
9322 3108 1 0.4238 44.566649 4.237238 41.540358
9323 3108 2 -0.8476 43.839651 4.590612 42.129086
9324 3108 1 0.4238 43.68582 5.5574 41.924986
9325 3109 1 0.4238 35.729715 16.067762 40.959183
9326 3109 2 -0.8476 34.979952 15.735152 40.387146
9327 3109 1 0.4238 35.176026 14.800346 40.091017
9328 3110 1 0.4238 14.148124 40.29392 29.712857
9329 3110 2 -0.8476 14.960932 39.721146 29.606681
9330 3110 1 0.4238 14.79183 38.823718 30.014144
9331 3111 1 0.4238 24.768672 44.333341 13.553708
9332 3111 2 -0.8476 24.455949 44.002211 12.663452
9333 3111 1 0.4238 23.605087 43.489597 12.778602
9334 3112 1 0.4238 48.178172 13.302285 42.161494
9335 3112 2 -0.8476 48.108661 12.427892 41.681281
9336 3112 1 0.4238 48.178389 12.582402 40.695754
9337 3113 1 0.4238 48.178581 3.757972 10.740174
9338 3113 2 -0.8476 47.937185 4.727064 10.791061
9339 3113 1 0.4238 48.175856 5.083016 11.694573
9340 3114 1 0.4238 6.092596 37.438359 22.703338
9341 3114 2 -0.8476 6.637976 37.71587 23.494254
9342 3114 1 0.4238 6.330097 38.612133 23.813506
9343 3115 1 0.4238 30.871282 42.349161 10.968205
9344 3115 2 -0.8476 31.317995 42.23377 10.081
9345 3115 1 0.4238 31.588585 43.128305 9.72521
9346 3116 1 0.4238 44.203478 48.178012 6.538936
9347 3116 2 -0.8476 45.019708 47.668541 6.81135
9348 3116 1 0.4238 45.505789 48.174185 7.524125
9349 3117 1 0.4238 8.440922 11.944893 12.127972
9350 3117 2 -0.8476 8.101326 12.73102 11.611563
9351 3117 1 0.4238 7.145742 12.900569 11.852626
9352 3118 1 0.4238 35.554614 8.981908 41.395236
9353 3118 2 -0.8476 36.521614 9.024528 41.646423
9354 3118 1 0.4238 36.941673 8.127581 41.508453
9355 3119 1 0.4238 41.73185 12.957346 34.414783
9356 3119 2 -0.8476 41.275369 13.552927 35.075773
9357 3119 1 0.4238 41.731737 14.442539 35.093626
9358 3120 1 0.4238 42.876147 21.676812 38.151526
9359 3120 2 -0.8476 42.243763 21.375803 38.865307
9360 3120 1 0.4238 42.586286 20.532905 39.280278
9361 3121 1 0.4238 44.197912 24.211366 9.373521
9362 3121 2 -0.8476 43.3512 24.040186 9.877281
9363 3121 1 0.4238 42.908862 23.219124 9.516457
9364 3122 1 0.4238 33.488387 7.673673 19.924156
9365 3122 2 -0.8476 32.524639 7.518136 19.707367
9366 3122 1 0.4238 32.077568 8.394577 19.528541
9367 3123 1 0.4238 32.463269 18.777973 19.174538
9368 3123 2 -0.8476 31.830483 19.489667 18.869458
9369 3123 1 0.4238 32.214293 20.389023 19.07886
9370 3124 1 0.4238 11.058022 12.534099 37.192404
9371 3124 2 -0.8476 11.193546 11.569805 36.96487
9372 3124 1 0.4238 10.645674 11.336729 36.161433
9373 3125 1 0.4238 29.937582 1.499979 1.563207
9374 3125 2 -0.8476 29.798851 2.490122 1.543952
9375 3125 1 0.4238 28.819314 2.688895 1.512405
9376 3126 1 0.4238 40.63403 37.352503 29.517515
9377 3126 2 -0.8476 40.04098 36.57165 29.321148
9378 3126 1 0.4238 39.138927 36.900266 29.041304
9379 3127 1 0.4238 21.453037 34.045235 48.118422
9380 3127 2 -0.8476 22.433849 33.956122 47.945024
9381 3127 1 0.4238 22.730733 33.030065 48.178
9382 3128 1 0.4238 41.519023 45.85916 16.076039
9383 3128 2 -0.8476 42.322199 45.316878 15.829383
9384 3128 1 0.4238 42.930338 45.864392 15.254583
9385 3129 1 0.4238 27.613385 28.47644 10.044422
9386 3129 2 -0.8476 26.937712 29.16192 10.315683
9387 3129 1 0.4238 27.405572 29.954931 10.705864
9388 3130 1 0.4238 39.905929 35.411138 17.037684
9389 3130 2 -0.8476 40.8882 35.410034 17.225143
9390 3130 1 0.4238 41.348897 34.794653 16.585562
9391 3131 1 0.4238 20.798265 15.325755 11.94976
9392 3131 2 -0.8476 20.381934 16.175725 12.27259
9393 3131 1 0.4238 21.064724 16.906266 12.262189
9394 3132 1 0.4238 42.996862 48.178002 17.400133
9395 3132 2 -0.8476 43.264459 47.217001 17.330349
9396 3132 1 0.4238 42.813348 46.692132 18.05216
9397 3133 1 0.4238 36.613806 28.506896 11.027954
9398 3133 2 -0.8476 37.582468 28.466955 11.273103
9399 3133 1 0.4238 37.988137 27.635132 10.894285
9400 3134 1 0.4238 39.467464 24.623834 12.971976
9401 3134 2 -0.8476 39.167467 25.571165 12.859879
9402 3134 1 0.4238 38.184831 25.589991 12.675295
9403 3135 1 0.4238 3.355663 16.759447 17.448928
9404 3135 2 -0.8476 3.569692 17.529032 18.050534
9405 3135 1 0.4238 4.124026 18.196569 17.553435
9406 3136 1 0.4238 11.989823 4.526024 10.35762
9407 3136 2 -0.8476 12.899407 4.9044 10.529342
9408 3136 1 0.4238 13.434663 4.253994 11.068297
9409 3137 1 0.4238 34.383993 34.746305 35.08005
9410 3137 2 -0.8476 33.606841 34.271606 35.493203
9411 3137 1 0.4238 33.195621 33.656881 34.820142
9412 3138 1 0.4238 23.364183 12.943892 36.935351
9413 3138 2 -0.8476 22.780059 12.163182 37.157367
9414 3138 1 0.4238 22.338599 11.829661 36.324374
9415 3139 1 0.4238 46.794667 29.73112 29.763575
9416 3139 2 -0.8476 47.179607 28.88953 29.384698
9417 3139 1 0.4238 48.178 28.945059 29.395982
9418 3140 1 0.4238 36.781959 39.765473 19.90339
9419 3140 2 -0.8476 37.376569 38.965328 19.824609
9420 3140 1 0.4238 36.817535 38.145589 19.700073
9421 3141 1 0.4238 40.044824 33.347666 48.178066
9422 3141 2 -0.8476 39.301722 32.697198 48.020936
9423 3141 1 0.4238 38.42558 33.178272 48.051656
9424 3142 1 0.4238 18.911172 39.24842 1.532842
9425 3142 2 -0.8476 19.841231 38.882481 1.499999
9426 3142 1 0.4238 20.497603 39.632726 1.579419
9427 3143 1 0.4238 34.482904 16.892661 19.650966
9428 3143 2 -0.8476 34.176014 16.065847 19.179588
9429 3143 1 0.4238 34.237256 15.285315 19.801696
9430 3144 1 0.4238 7.829833 43.259813 30.650168
9431 3144 2 -0.8476 7.81513 44.259704 30.65139
9432 3144 1 0.4238 7.946902 44.593851 31.584654
9433 3145 1 0.4238 15.902176 45.753492 20.026595
9434 3145 2 -0.8476 15.409137 45.719136 20.895925
9435 3145 1 0.4238 14.436161 45.883773 20.734024
9436 3146 1 0.4238 25.401673 20.103877 28.80137
9437 3146 2 -0.8476 26.368378 20.348539 28.876349
9438 3146 1 0.4238 26.45074 21.326224 29.069609
9439 3147 1 0.4238 11.678378 36.353307 27.998358
9440 3147 2 -0.8476 10.761734 36.302229 28.394785
9441 3147 1 0.4238 10.768981 36.715124 29.305534
9442 3148 1 0.4238 1.613497 35.214741 26.595005
9443 3148 2 -0.8476 1.556024 35.147734 25.598909
9444 3148 1 0.4238 1.499997 36.06551 25.205784
9445 3149 1 0.4238 3.257342 43.43145 48.180117
9446 3149 2 -0.8476 4.133313 42.960689 48.074952
9447 3149 1 0.4238 4.274441 42.730353 47.112129
9448 3150 1 0.4238 10.600461 21.873166 14.399091
9449 3150 2 -0.8476 11.457449 22.004712 14.897355
9450 3150 1 0.4238 11.359937 22.771739 15.531517
9451 3151 1 0.4238 44.972549 9.641438 6.021296
9452 3151 2 -0.8476 45.788386 10.041759 6.438611
9453 3151 1 0.4238 46.001474 9.556252 7.286477
9454 3152 1 0.4238 15.511871 24.819054 9.806418
9455 3152 2 -0.8476 14.932991 24.039717 10.046273
9456 3152 1 0.4238 13.974268 24.32406 10.045969
9457 3153 1 0.4238 26.268595 4.756736 37.642286
9458 3153 2 -0.8476 25.660385 5.507477 37.384471
9459 3153 1 0.4238 25.447866 6.056807 38.1926
9460 3154 1 0.4238 22.274269 20.579641 32.882696
9461 3154 2 -0.8476 22.787028 21.000147 32.134195
9462 3154 1 0.4238 22.551191 21.969957 32.072165
9463 3155 1 0.4238 48.178094 10.43379 17.287996
9464 3155 2 -0.8476 48.091558 10.010115 18.189668
9465 3155 1 0.4238 47.158328 10.132725 18.527376
9466 3156 1 0.4238 24.580658 19.673697 6.597936
9467 3156 2 -0.8476 23.784303 19.340796 6.092965
9468 3156 1 0.4238 23.685902 18.356158 6.237203
9469 3157 1 0.4238 11.722583 6.557909 45.991345
9470 3157 2 -0.8476 12.262924 5.910116 45.454319
9471 3157 1 0.4238 12.489537 5.116505 46.018967
9472 3158 1 0.4238 5.818453 14.368962 26.037041
9473 3158 2 -0.8476 6.383513 13.558475 26.191374
9474 3158 1 0.4238 7.33166 13.837307 26.343915
9475 3159 1 0.4238 32.348812 43.432197 22.526315
9476 3159 2 -0.8476 32.969051 44.033267 22.022312
9477 3159 1 0.4238 33.915311 43.791051 22.236608
9478 3160 1 0.4238 21.188318 7.317339 31.056115
9479 3160 2 -0.8476 21.265516 8.243093 31.426276
9480 3160 1 0.4238 20.355922 8.58403 31.663762
9481 3161 1 0.4238 4.220836 48.178001 17.12543
9482 3161 2 -0.8476 3.620561 47.601831 17.680135
9483 3161 1 0.4238 2.972697 48.178017 18.178413
9484 3162 1 0.4238 28.061245 8.583069 21.395483
9485 3162 2 -0.8476 27.82995 8.573904 20.422642
9486 3162 1 0.4238 28.537407 9.057531 19.907269
9487 3163 1 0.4238 8.577822 48.17801 21.60974
9488 3163 2 -0.8476 7.7616 47.600366 21.599279
9489 3163 1 0.4238 6.944842 48.177268 21.608787
9490 3164 1 0.4238 9.811422 1.605387 45.8051
9491 3164 2 -0.8476 8.964019 2.128103 45.711957
9492 3164 1 0.4238 8.187652 1.499345 45.668159
9493 3165 1 0.4238 26.73899 20.375575 1.907946
9494 3165 2 -0.8476 27.648669 20.534981 1.524445
9495 3165 1 0.4238 28.157224 19.674198 1.503832
9496 3166 1 0.4238 41.655549 37.725598 12.86962
9497 3166 2 -0.8476 42.599911 38.025575 13.004507
9498 3166 1 0.4238 43.118121 37.301005 13.458881
9499 3167 1 0.4238 5.815499 44.859191 48.1591
9500 3167 2 -0.8476 5.111059 45.358086 47.654257
9501 3167 1 0.4238 4.837874 46.167102 48.174703
9502 3168 1 0.4238 29.278232 28.437624 3.449034
9503 3168 2 -0.8476 28.327868 28.403783 3.139739
9504 3168 1 0.4238 27.929627 27.519219 3.382534
9505 3169 1 0.4238 29.614087 32.228919 32.227203
9506 3169 2 -0.8476 29.063269 31.409467 32.068781
9507 3169 1 0.4238 28.758204 31.391854 31.116612
9508 3170 1 0.4238 1.63573 37.980196 39.623987
9509 3170 2 -0.8476 1.499688 38.800574 40.179391
9510 3170 1 0.4238 1.926576 38.671683 41.074463
9511 3171 1 0.4238 7.149935 4.2361 5.429123
9512 3171 2 -0.8476 8.132081 4.057632 5.488595
9513 3171 1 0.4238 8.285552 3.195474 5.971429
9514 3172 1 0.4238 22.785041 27.556176 25.972413
9515 3172 2 -0.8476 23.386478 26.76529 26.08543
9516 3172 1 0.4238 22.889511 25.931542 25.84483
9517 3173 1 0.4238 15.413215 15.587916 14.234852
9518 3173 2 -0.8476 15.38549 14.748113 13.692669
9519 3173 1 0.4238 16.239741 14.652974 13.181589
9520 3174 1 0.4238 44.126069 37.850874 28.045923
9521 3174 2 -0.8476 43.488101 37.4792 27.371493
9522 3174 1 0.4238 43.946205 37.403149 26.485854
9523 3175 1 0.4238 27.790509 25.254612 48.165621
9524 3175 2 -0.8476 28.730105 25.596875 48.169706
9525 3175 1 0.4238 29.365974 24.825082 48.171916
9526 3176 1 0.4238 21.305995 17.653969 21.324427
9527 3176 2 -0.8476 22.304287 17.709173 21.305276
9528 3176 1 0.4238 22.582008 18.600432 20.946767
9529 3177 1 0.4238 5.918683 41.552248 43.354622
9530 3177 2 -0.8476 5.57396 40.784784 42.814099
9531 3177 1 0.4238 4.57494 40.76987 42.85576
9532 3178 1 0.4238 34.806282 14.227909 29.771643
9533 3178 2 -0.8476 33.953884 14.706062 29.983271
9534 3178 1 0.4238 34.160047 15.636263 30.286951
9535 3179 1 0.4238 26.318171 40.689018 17.235578
9536 3179 2 -0.8476 26.289766 40.36729 16.289171
9537 3179 1 0.4238 27.114312 40.668111 15.809973
9538 3180 1 0.4238 1.499993 26.900368 6.197423
9539 3180 2 -0.8476 2.071383 26.097916 6.025425
9540 3180 1 0.4238 1.499987 25.346319 5.695869
9541 3181 1 0.4238 21.503965 45.241283 44.428885
9542 3181 2 -0.8476 22.140579 44.888181 43.743289
9543 3181 1 0.4238 22.059925 45.426989 42.904731
9544 3182 1 0.4238 35.708534 43.717615 48.125889
9545 3182 2 -0.8476 34.764852 43.869401 47.831906
9546 3182 1 0.4238 34.445718 44.751637 48.178045
9547 3183 1 0.4238 41.579899 31.316596 47.952541
9548 3183 2 -0.8476 42.485791 30.958104 48.178025
9549 3183 1 0.4238 42.515583 29.978532 47.979147
9550 3184 1 0.4238 25.801952 31.780252 18.020334
9551 3184 2 -0.8476 25.741162 30.987374 18.626675
9552 3184 1 0.4238 26.644276 30.567883 18.718386
9553 3185 1 0.4238 29.358885 48.152234 44.420761
9554 3185 2 -0.8476 30.100661 47.682162 44.899091
9555 3185 1 0.4238 30.304025 48.162292 45.752389
9556 3186 1 0.4238 17.582402 5.874059 44.727335
9557 3186 2 -0.8476 18.244749 6.535689 44.375849
9558 3186 1 0.4238 19.136997 6.094697 44.278806
9559 3187 1 0.4238 44.344341 16.006953 42.638236
9560 3187 2 -0.8476 44.798434 16.574013 41.951037
9561 3187 1 0.4238 45.017774 16.016153 41.150611
9562 3188 1 0.4238 7.187041 17.285728 12.6315
9563 3188 2 -0.8476 6.231339 17.566378 12.720215
9564 3188 1 0.4238 6.186235 18.554942 12.864111
9565 3189 1 0.4238 14.885343 44.721729 4.585258
9566 3189 2 -0.8476 14.558681 43.825873 4.886479
9567 3189 1 0.4238 15.339119 43.216976 5.028464
9568 3190 1 0.4238 14.023845 20.564963 29.341832
9569 3190 2 -0.8476 14.380058 21.198532 30.028638
9570 3190 1 0.4238 13.769546 21.209395 30.82057
9571 3191 1 0.4238 3.119222 40.306101 45.754998
9572 3191 2 -0.8476 2.263701 39.791672 45.696288
9573 3191 1 0.4238 1.499387 40.427261 45.587425
9574 3192 1 0.4238 6.987721 25.308975 1.499988
9575 3192 2 -0.8476 7.98665 25.355231 1.499998
9576 3192 1 0.4238 8.275995 26.312456 1.499999
9577 3193 1 0.4238 28.856577 1.501901 27.756783
9578 3193 2 -0.8476 29.667507 2.07981 27.848505
9579 3193 1 0.4238 30.478162 1.503037 27.949359
9580 3194 1 0.4238 22.636673 45.058359 31.798946
9581 3194 2 -0.8476 22.878763 44.094355 31.688998
9582 3194 1 0.4238 23.801342 44.023539 31.309745
9583 3195 1 0.4238 40.72441 17.45873 43.076578
9584 3195 2 -0.8476 40.926705 16.648928 42.525853
9585 3195 1 0.4238 40.107773 16.079098 42.457707
9586 3196 1 0.4238 43.040071 9.010176 46.020484
9587 3196 2 -0.8476 42.874758 9.760022 46.66111
9588 3196 1 0.4238 43.628451 9.810877 47.316367
9589 3197 1 0.4238 6.082606 12.265516 15.430039
9590 3197 2 -0.8476 6.952875 12.739026 15.29432
9591 3197 1 0.4238 7.398459 12.387959 14.470788
9592 3198 1 0.4238 41.840394 22.953371 43.883102
9593 3198 2 -0.8476 41.095832 22.778752 44.527413
9594 3198 1 0.4238 40.761914 23.64707 44.894184
9595 3199 1 0.4238 27.609642 21.618733 21.412043
9596 3199 2 -0.8476 28.153414 21.872595 22.21196
9597 3199 1 0.4238 29.027878 21.388099 22.187956
9598 3200 1 0.4238 10.341235 24.311836 21.28545
9599 3200 2 -0.8476 10.991544 23.566066 21.140793
9600 3200 1 0.4238 11.171889 23.46619 20.162274
9601 3201 1 0.4238 36.676114 15.045183 48.178053
9602 3201 2 -0.8476 36.09925 15.861501 48.148837
9603 3201 1 0.4238 35.143685 15.590406 48.033071
9604 3202 1 0.4238 38.4896 24.018657 5.186111
9605 3202 2 -0.8476 39.121313 24.460114 4.548887
9606 3202 1 0.4238 39.519656 23.771126 3.943398
9607 3203 1 0.4238 38.702484 6.546953 3.994428
9608 3203 2 -0.8476 38.481101 6.691095 4.958903
9609 3203 1 0.4238 38.441107 5.808444 5.427227
9610 3204 1 0.4238 24.989863 17.611008 21.819645
9611 3204 2 -0.8476 25.857566 17.889691 21.408029
9612 3204 1 0.4238 25.757072 18.797617 21.001126
9613 3205 1 0.4238 17.07785 43.16976 42.980568
9614 3205 2 -0.8476 16.193146 42.888395 43.35223
9615 3205 1 0.4238 15.936018 42.002439 42.966269
9616 3206 1 0.4238 42.170039 8.147537 40.745947
9617 3206 2 -0.8476 42.579045 8.848686 40.161906
9618 3206 1 0.4238 41.866353 9.277167 39.606501
9619 3207 1 0.4238 26.911047 48.117898 43.91391
9620 3207 2 -0.8476 26.058755 47.666366 44.17795
9621 3207 1 0.4238 25.626736 48.177961 44.920668
9622 3208 1 0.4238 5.236538 27.166044 5.054769
9623 3208 2 -0.8476 6.009328 27.40621 5.642235
9624 3208 1 0.4238 6.069249 28.401053 5.724075
9625 3209 1 0.4238 7.444128 36.993082 29.59386
9626 3209 2 -0.8476 8.155053 37.42029 29.03522
9627 3209 1 0.4238 7.919877 37.326783 28.067776
9628 3210 1 0.4238 22.009618 15.168615 28.189628
9629 3210 2 -0.8476 21.834319 16.089732 28.53721
9630 3210 1 0.4238 21.66275 16.047526 29.521478
9631 3211 1 0.4238 31.252179 14.426996 34.119784
9632 3211 2 -0.8476 30.286748 14.19346 34.00401
9633 3211 1 0.4238 29.747332 15.03233 33.931023
9634 3212 1 0.4238 20.62495 4.282031 32.42371
9635 3212 2 -0.8476 21.387491 4.92405 32.344064
9636 3212 1 0.4238 22.222423 4.423236 32.115868
9637 3213 1 0.4238 43.839448 24.687203 43.544909
9638 3213 2 -0.8476 44.461735 25.469347 43.51313
9639 3213 1 0.4238 45.19865 25.336125 44.175857
9640 3214 1 0.4238 12.094919 3.269246 30.707763
9641 3214 2 -0.8476 12.889414 3.876517 30.7071
9642 3214 1 0.4238 13.418372 3.732437 29.870772
9643 3215 1 0.4238 12.337898 9.870984 30.169533
9644 3215 2 -0.8476 12.836863 9.023879 29.986647
9645 3215 1 0.4238 12.197172 8.320548 29.676613
9646 3216 1 0.4238 27.836929 33.107592 44.863826
9647 3216 2 -0.8476 28.502509 33.808941 44.608656
9648 3216 1 0.4238 28.475496 34.552787 45.276461
9649 3217 1 0.4238 15.225747 45.308706 17.473816
9650 3217 2 -0.8476 14.505368 44.698946 17.14329
9651 3217 1 0.4238 14.857267 44.145955 16.388063
9652 3218 1 0.4238 41.122947 5.20366 2.928569
9653 3218 2 -0.8476 41.635286 4.834178 2.153332
9654 3218 1 0.4238 41.000134 4.42231 1.499921
9655 3219 1 0.4238 27.338339 40.973304 38.646483
9656 3219 2 -0.8476 27.038519 40.147985 39.124978
9657 3219 1 0.4238 27.762263 39.458982 39.086647
9658 3220 1 0.4238 1.6142 32.791942 39.250581
9659 3220 2 -0.8476 2.117604 32.32 39.97436
9660 3220 1 0.4238 1.499997 31.703064 40.462162
9661 3221 1 0.4238 44.536747 27.286074 11.001407
9662 3221 2 -0.8476 45.163382 26.562652 11.291216
9663 3221 1 0.4238 44.637511 25.771092 11.602491
9664 3222 1 0.4238 30.358008 45.288945 44.207869
9665 3222 2 -0.8476 30.396783 45.188559 45.202062
9666 3222 1 0.4238 29.472818 45.052857 45.559656
9667 3223 1 0.4238 12.008437 1.49996 28.912195
9668 3223 2 -0.8476 12.797119 1.799185 28.375124
9669 3223 1 0.4238 12.687751 1.5 27.427217
9670 3224 1 0.4238 20.713233 18.497954 33.608957
9671 3224 2 -0.8476 20.242953 19.221541 34.114187
9672 3224 1 0.4238 19.259683 19.163736 33.941449
9673 3225 1 0.4238 3.715584 1.498843 3.307567
9674 3225 2 -0.8476 3.988448 2.040457 2.512457
9675 3225 1 0.4238 3.860005 1.499941 1.680985
9676 3226 1 0.4238 48.101358 19.427871 8.436541
9677 3226 2 -0.8476 48.178 20.393854 8.189554
9678 3226 1 0.4238 47.276011 20.746933 7.941059
9679 3227 1 0.4238 21.744879 44.70696 18.022765
9680 3227 2 -0.8476 20.79266 44.745075 18.325793
9681 3227 1 0.4238 20.201232 44.363924 17.615204
9682 3228 1 0.4238 33.051509 48.120277 5.58698
9683 3228 2 -0.8476 33.726662 48.143097 4.849655
9684 3228 1 0.4238 34.646327 48.178066 5.240798
9685 3229 1 0.4238 48.177167 4.546993 29.430136
9686 3229 2 -0.8476 47.580378 5.349387 29.427849
9687 3229 1 0.4238 48.137972 6.179489 29.423382
9688 3230 1 0.4238 5.101189 12.804363 1.49976
9689 3230 2 -0.8476 4.130216 12.844096 1.735627
9690 3230 1 0.4238 3.777276 13.759414 1.541656
9691 3231 1 0.4238 43.100431 47.401654 45.863915
9692 3231 2 -0.8476 42.600328 48.175896 45.476042
9693 3231 1 0.4238 42.71135 48.180241 44.482234
9694 3232 1 0.4238 34.359809 48.170196 7.794811
9695 3232 2 -0.8476 33.584425 47.629734 8.12143
9696 3232 1 0.4238 32.749869 48.178064 8.06804
9697 3233 1 0.4238 2.087832 45.678566 27.181475
9698 3233 2 -0.8476 1.509412 45.189132 27.834073
9699 3233 1 0.4238 2.083445 44.757595 28.529962
9700 3234 1 0.4238 43.817761 5.680249 8.634187
9701 3234 2 -0.8476 42.885702 5.346292 8.493691
9702 3234 1 0.4238 42.867099 4.73202 7.704816
9703 3235 1 0.4238 32.735179 13.375047 39.01645
9704 3235 2 -0.8476 32.738548 13.553869 40.000326
9705 3235 1 0.4238 32.447058 14.49546 40.168963
9706 3236 1 0.4238 1.499973 15.954212 29.595044
9707 3236 2 -0.8476 1.574489 15.0313 29.217312
9708 3236 1 0.4238 1.504295 14.361814 29.956812
9709 3237 1 0.4238 28.562456 13.945539 39.582956
9710 3237 2 -0.8476 29.076895 13.088534 39.553052
9711 3237 1 0.4238 30.05561 13.288686 39.507704
9712 3238 1 0.4238 21.898881 44.407342 20.710902
9713 3238 2 -0.8476 22.887979 44.543184 20.654051
9714 3238 1 0.4238 23.322927 43.698892 20.341017
9715 3239 1 0.4238 12.754394 18.164209 29.004261
9716 3239 2 -0.8476 13.489884 17.993425 28.348603
9717 3239 1 0.4238 13.532107 17.015862 28.142236
9718 3240 1 0.4238 44.598738 19.768656 18.031366
9719 3240 2 -0.8476 45.555783 20.029017 17.903787
9720 3240 1 0.4238 45.708263 20.280365 16.947976
9721 3241 1 0.4238 31.633933 48.177548 28.391628
9722 3241 2 -0.8476 30.77953 48.178 28.911239
9723 3241 1 0.4238 30.952924 47.845063 29.838109
9724 3242 1 0.4238 11.617286 5.411339 32.514367
9725 3242 2 -0.8476 11.140299 6.18343 32.094415
9726 3242 1 0.4238 10.186091 6.188321 32.393517
9727 3243 1 0.4238 25.676976 38.301101 29.210381
9728 3243 2 -0.8476 25.1866 37.879695 29.973236
9729 3243 1 0.4238 25.642326 38.1133 30.832156
9730 3244 1 0.4238 36.20156 26.993618 18.058542
9731 3244 2 -0.8476 36.92233 26.339914 17.82797
9732 3244 1 0.4238 36.532957 25.5887 17.294993
9733 3245 1 0.4238 1.538641 12.918252 14.062394
9734 3245 2 -0.8476 1.504878 12.800474 13.069929
9735 3245 1 0.4238 2.338025 12.342349 12.76011
9736 3246 1 0.4238 33.543751 13.633575 7.509264
9737 3246 2 -0.8476 33.414263 12.702316 7.168691
9738 3246 1 0.4238 34.303984 12.256353 7.071163
9739 3247 1 0.4238 27.727389 35.989064 17.572127
9740 3247 2 -0.8476 27.049899 35.343403 17.219806
9741 3247 1 0.4238 27.504476 34.490771 16.962165
9742 3248 1 0.4238 24.409339 40.135319 34.718597
9743 3248 2 -0.8476 25.238548 39.985548 34.180097
9744 3248 1 0.4238 25.437812 40.803528 33.640465
9745 3249 1 0.4238 41.364905 48.172094 29.960108
9746 3249 2 -0.8476 41.06193 47.250684 29.716777
9747 3249 1 0.4238 41.859264 46.662578 29.581167
9748 3250 1 0.4238 45.432491 7.196299 6.265469
9749 3250 2 -0.8476 44.524678 6.922716 6.583317
9750 3250 1 0.4238 43.827057 7.419811 6.067351
9751 3251 1 0.4238 46.906918 6.855518 14.326458
9752 3251 2 -0.8476 47.855746 6.791859 14.017148
9753 3251 1 0.4238 48.178205 5.851136 14.12232
9754 3252 1 0.4238 9.575173 5.359318 44.797735
9755 3252 2 -0.8476 9.310105 4.800414 45.583461
9756 3252 1 0.4238 10.116177 4.334147 45.947938
9757 3253 1 0.4238 21.460657 24.678019 45.58293
9758 3253 2 -0.8476 22.273201 24.922568 46.11205
9759 3253 1 0.4238 22.929212 24.16837 46.083161
9760 3254 1 0.4238 37.460108 43.897283 43.197578
9761 3254 2 -0.8476 36.632592 43.915701 43.758717
9762 3254 1 0.4238 35.82799 43.939471 43.165378
9763 3255 1 0.4238 1.500834 26.707978 16.38228
9764 3255 2 -0.8476 2.049346 26.282372 15.662562
9765 3255 1 0.4238 1.500933 26.199546 14.830467
9766 3256 1 0.4238 27.285715 15.68875 20.68079
9767 3256 2 -0.8476 28.073312 15.221254 20.279368
9768 3256 1 0.4238 28.073821 14.263163 20.565829
9769 3257 1 0.4238 20.510421 32.902459 38.708926
9770 3257 2 -0.8476 20.605086 32.059696 39.238822
9771 3257 1 0.4238 19.92279 31.395494 38.933361
9772 3258 1 0.4238 8.661249 20.968956 24.829352
9773 3258 2 -0.8476 7.672094 21.100938 24.764905
9774 3258 1 0.4238 7.463344 22.078326 24.798599
9775 3259 1 0.4238 21.556068 45.730151 23.108098
9776 3259 2 -0.8476 21.923079 45.055213 23.748224
9777 3259 1 0.4238 22.766128 44.66688 23.376116
9778 3260 1 0.4238 25.630504 1.5 33.284799
9779 3260 2 -0.8476 24.73456 1.657995 33.699917
9780 3260 1 0.4238 24.791431 1.500019 34.68572
9781 3261 1 0.4238 25.475419 15.353485 23.293207
9782 3261 2 -0.8476 25.666056 14.371932 23.278652
9783 3261 1 0.4238 26.549073 14.210389 22.837987
9784 3262 1 0.4238 1.536871 6.110338 46.165219
9785 3262 2 -0.8476 1.499625 5.853407 45.199507
9786 3262 1 0.4238 1.540938 6.676892 44.633675
9787 3263 1 0.4238 32.231591 38.710951 32.370041
9788 3263 2 -0.8476 32.033919 39.687663 32.453477
9789 3263 1 0.4238 32.80329 40.215383 32.093504
9790 3264 1 0.4238 3.515599 7.3807 33.646296
9791 3264 2 -0.8476 3.275252 7.537727 32.688394
9792 3264 1 0.4238 2.309666 7.319481 32.546931
9793 3265 1 0.4238 12.297977 18.015136 19.614155
9794 3265 2 -0.8476 12.828754 17.765841 18.804139
9795 3265 1 0.4238 13.174712 18.594598 18.364281
9796 3266 1 0.4238 35.001759 48.159625 1.620293
9797 3266 2 -0.8476 34.060703 47.84192 1.5042
9798 3266 1 0.4238 33.500711 48.174183 2.263153
9799 3267 1 0.4238 20.418429 39.984891 37.134046
9800 3267 2 -0.8476 20.778583 39.0609 37.262616
9801 3267 1 0.4238 21.756098 39.109728 37.467748
9802 3268 1 0.4238 35.743353 24.057833 6.355689
9803 3268 2 -0.8476 34.889101 23.68752 5.990831
9804 3268 1 0.4238 34.338305 24.431252 5.612034
9805 3269 1 0.4238 11.6084 34.325626 11.115787
9806 3269 2 -0.8476 12.131692 34.46427 10.274987
9807 3269 1 0.4238 13.104554 34.32728 10.461459
9808 3270 1 0.4238 47.631236 33.78552 4.916108
9809 3270 2 -0.8476 48.178003 33.671634 4.086604
9810 3270 1 0.4238 48.163516 34.520782 3.558648
9811 3271 1 0.4238 8.282227 43.126944 23.298759
9812 3271 2 -0.8476 8.120866 43.374105 24.254204
9813 3271 1 0.4238 8.957694 43.228692 24.782005
9814 3272 1 0.4238 47.54367 45.871969 31.280625
9815 3272 2 -0.8476 48.178289 45.262908 30.804911
9816 3272 1 0.4238 48.085085 45.389849 29.81739
9817 3273 1 0.4238 45.689742 11.435421 33.841062
9818 3273 2 -0.8476 45.390684 11.847747 32.980509
9819 3273 1 0.4238 45.950939 12.65243 32.784042
9820 3274 1 0.4238 21.395643 34.153843 36.609955
9821 3274 2 -0.8476 22.302614 34.543217 36.770555
9822 3274 1 0.4238 22.77034 34.016886 37.480631
9823 3275 1 0.4238 42.424554 47.418969 4.954883
9824 3275 2 -0.8476 41.79266 48.166394 4.749784
9825 3275 1 0.4238 40.856816 47.875906 4.949312
9826 3276 1 0.4238 26.231074 39.363084 10.539711
9827 3276 2 -0.8476 26.893575 39.799377 9.930825
9828 3276 1 0.4238 26.456756 40.562933 9.45525
9829 3277 1 0.4238 13.818389 18.012688 6.141775
9830 3277 2 -0.8476 14.140079 17.077946 6.292684
9831 3277 1 0.4238 14.968805 17.09687 6.852018
9832 3278 1 0.4238 30.007573 18.404569 36.223864
9833 3278 2 -0.8476 29.136624 17.925909 36.112816
9834 3278 1 0.4238 29.304285 17.007822 35.753641
9835 3279 1 0.4238 1.499715 6.528125 4.297742
9836 3279 2 -0.8476 2.447809 6.575203 4.612229
9837 3279 1 0.4238 3.060292 6.321309 3.863629
9838 3280 1 0.4238 13.227053 20.981445 10.244502
9839 3280 2 -0.8476 13.41652 20.956406 9.262934
9840 3280 1 0.4238 14.150856 21.600491 9.048677
9841 3281 1 0.4238 24.18001 36.271143 38.171809
9842 3281 2 -0.8476 23.261912 36.666511 38.199745
9843 3281 1 0.4238 23.209646 37.33582 38.940888
9844 3282 1 0.4238 4.71045 14.590654 33.732144
9845 3282 2 -0.8476 4.531721 15.54279 33.484167
9846 3282 1 0.4238 5.371299 15.959779 33.135988
9847 3283 1 0.4238 21.624727 13.749395 20.864486
9848 3283 2 -0.8476 21.659498 14.265281 20.008534
9849 3283 1 0.4238 21.877935 15.221313 20.204206
9850 3284 1 0.4238 39.921259 48.178006 13.928672
9851 3284 2 -0.8476 40.791779 47.693688 14.016025
9852 3284 1 0.4238 41.496195 48.17802 13.49716
9853 3285 1 0.4238 10.018176 39.791316 38.871826
9854 3285 2 -0.8476 10.559529 39.490427 39.656939
9855 3285 1 0.4238 10.225757 38.601629 39.970998
9856 3286 1 0.4238 28.078585 29.329643 43.803159
9857 3286 2 -0.8476 27.227748 29.819995 43.614397
9858 3286 1 0.4238 27.095782 30.535032 44.300916
9859 3287 1 0.4238 42.835423 45.959002 34.892607
9860 3287 2 -0.8476 42.965536 45.073265 34.447029
9861 3287 1 0.4238 42.89078 44.343885 35.127041
9862 3288 1 0.4238 8.014378 6.3208 15.129014
9863 3288 2 -0.8476 7.359424 7.076258 15.146896
9864 3288 1 0.4238 6.42919 6.710332 15.174537
9865 3289 1 0.4238 16.692258 16.811029 4.440013
9866 3289 2 -0.8476 17.375714 17.35716 4.924397
9867 3289 1 0.4238 17.931055 16.759554 5.502725
9868 3290 1 0.4238 22.332998 25.898318 1.638909
9869 3290 2 -0.8476 21.599052 26.577495 1.645443
9870 3290 1 0.4238 21.98615 27.487968 1.49986
9871 3291 1 0.4238 27.270825 42.308164 31.457772
9872 3291 2 -0.8476 26.391037 42.5247 31.880958
9873 3291 1 0.4238 26.312193 43.514678 31.998118
9874 3292 1 0.4238 44.685611 28.51287 14.086478
9875 3292 2 -0.8476 44.155396 27.84909 13.558967
9876 3292 1 0.4238 44.251645 26.942874 13.970681
9877 3293 1 0.4238 11.915366 45.791671 19.429462
9878 3293 2 -0.8476 12.163111 45.687642 18.466238
9879 3293 1 0.4238 11.753912 44.849549 18.105467
9880 3294 1 0.4238 11.914357 33.341715 23.376263
9881 3294 2 -0.8476 11.710185 34.32054 23.361582
9882 3294 1 0.4238 12.562076 34.839784 23.429906
9883 3295 1 0.4238 5.81553 29.31245 32.783161
9884 3295 2 -0.8476 6.030846 29.652116 33.69873
9885 3295 1 0.4238 7.023285 29.687631 33.816211
9886 3296 1 0.4238 15.539361 39.035713 13.333257
9887 3296 2 -0.8476 15.933463 38.136088 13.145219
9888 3296 1 0.4238 16.189744 38.079547 12.180272
9889 3297 1 0.4238 45.819438 41.095369 12.321346
9890 3297 2 -0.8476 46.218274 41.977797 12.071847
9891 3297 1 0.4238 46.852625 41.8531 11.308926
9892 3298 1 0.4238 7.7043 27.073417 17.025196
9893 3298 2 -0.8476 7.559992 26.220634 17.527127
9894 3298 1 0.4238 7.0655 25.572554 16.94793
9895 3299 1 0.4238 5.417468 34.346846 10.546252
9896 3299 2 -0.8476 5.801635 33.775351 11.271378
9897 3299 1 0.4238 5.918351 32.841525 10.933227
9898 3300 1 0.4238 3.994236 36.195636 25.097026
9899 3300 2 -0.8476 4.582164 36.852313 24.624674
9900 3300 1 0.4238 4.068147 37.691154 24.445421
9901 3301 1 0.4238 14.249516 1.517997 4.223922
9902 3301 2 -0.8476 13.39954 1.509388 4.750673
9903 3301 1 0.4238 13.612916 1.499955 5.727597
9904 3302 1 0.4238 10.144481 32.742778 31.13221
9905 3302 2 -0.8476 10.511209 31.922606 31.571332
9906 3302 1 0.4238 9.756566 31.355145 31.900729
9907 3303 1 0.4238 36.627995 4.154823 45.404222
9908 3303 2 -0.8476 35.70859 3.997483 45.764691
9909 3303 1 0.4238 35.043392 4.499199 45.211707
9910 3304 1 0.4238 48.107332 27.073019 10.452621
9911 3304 2 -0.8476 47.818886 26.168573 10.766908
9912 3304 1 0.4238 48.160477 25.471895 10.136071
9913 3305 1 0.4238 38.545469 44.08066 2.859844
9914 3305 2 -0.8476 37.967472 44.834052 2.546282
9915 3305 1 0.4238 38.25835 45.11957 1.633118
9916 3306 1 0.4238 40.080691 4.545247 33.052391
9917 3306 2 -0.8476 40.788567 3.872082 33.266306
9918 3306 1 0.4238 41.672804 4.201593 32.935327
9919 3307 1 0.4238 26.155784 20.245184 23.265781
9920 3307 2 -0.8476 25.420774 19.654611 23.598924
9921 3307 1 0.4238 24.888147 20.143022 24.290128
9922 3308 1 0.4238 27.032394 33.808727 37.451157
9923 3308 2 -0.8476 26.365491 34.444648 37.839545
9924 3308 1 0.4238 25.701004 33.936994 38.387947
9925 3309 1 0.4238 26.66226 38.055673 19.012652
9926 3309 2 -0.8476 26.16422 38.082661 19.879385
9927 3309 1 0.4238 25.833494 39.011746 20.044978
9928 3310 1 0.4238 45.804239 24.195519 13.623181
9929 3310 2 -0.8476 46.394282 24.856224 14.087205
9930 3310 1 0.4238 46.508539 25.664416 13.509476
9931 3311 1 0.4238 15.994562 6.75069 42.992798
9932 3311 2 -0.8476 16.575312 6.864084 42.186653
9933 3311 1 0.4238 17.234149 7.598181 42.351076
9934 3312 1 0.4238 44.310268 24.721478 1.49999
9935 3312 2 -0.8476 45.302163 24.617902 1.573594
9936 3312 1 0.4238 45.536773 23.645813 1.572496
9937 3313 1 0.4238 5.116856 7.299054 39.98206
9938 3313 2 -0.8476 4.761249 6.451556 39.587988
9939 3313 1 0.4238 3.972866 6.658455 39.00864
9940 3314 1 0.4238 45.336458 5.00751 21.839802
9941 3314 2 -0.8476 45.772439 5.243416 20.971315
9942 3314 1 0.4238 45.45579 6.143882 20.673164
9943 3315 1 0.4238 30.311218 43.509398 1.499725
9944 3315 2 -0.8476 30.143026 42.701989 2.065236
9945 3315 1 0.4238 30.207114 41.879739 1.49973
9946 3316 1 0.4238 7.861657 35.595766 10.560124
9947 3316 2 -0.8476 7.395903 36.477755 10.488232
9948 3316 1 0.4238 7.993709 37.133798 10.027541
9949 3317 1 0.4238 36.262163 10.584507 3.806976
9950 3317 2 -0.8476 35.363767 10.997579 3.956167
9951 3317 1 0.4238 35.451404 11.993724 3.959957
9952 3318 1 0.4238 43.330933 3.994451 26.522313
9953 3318 2 -0.8476 43.148514 4.393859 27.420754
9954 3318 1 0.4238 42.164714 4.537364 27.528197
9955 3319 1 0.4238 22.397925 1.500003 11.626524
9956 3319 2 -0.8476 21.588264 2.07736 11.521134
9957 3319 1 0.4238 20.778197 1.500003 11.418906
9958 3320 1 0.4238 30.373682 33.791113 3.048412
9959 3320 2 -0.8476 29.95842 33.152098 2.400943
9960 3320 1 0.4238 30.40745 33.239671 1.511728
9961 3321 1 0.4238 4.833642 4.78896 15.062636
9962 3321 2 -0.8476 3.905967 4.667944 15.415872
9963 3321 1 0.4238 3.814146 3.751004 15.804189
9964 3322 1 0.4238 25.534619 33.718044 45.62323
9965 3322 2 -0.8476 26.016683 34.588015 45.726983
9966 3322 1 0.4238 25.377859 35.28672 46.049029
9967 3323 1 0.4238 19.105877 16.460461 34.386333
9968 3323 2 -0.8476 18.603707 15.600584 34.294486
9969 3323 1 0.4238 17.624924 15.792293 34.222154
9970 3324 1 0.4238 31.969726 16.502169 41.957238
9971 3324 2 -0.8476 32.921949 16.699867 42.190017
9972 3324 1 0.4238 32.959104 17.166256 43.073815
9973 3325 1 0.4238 19.004294 35.711578 4.538459
9974 3325 2 -0.8476 19.415444 35.363687 5.381031
9975 3325 1 0.4238 18.829986 34.65142 5.768219
9976 3326 1 0.4238 6.216327 16.102735 5.030022
9977 3326 2 -0.8476 5.617127 16.69496 5.568751
9978 3326 1 0.4238 4.762736 16.214119 5.765748
9979 3327 1 0.4238 25.957857 36.453467 10.571015
9980 3327 2 -0.8476 26.419523 35.79202 11.162075
9981 3327 1 0.4238 26.501348 36.169467 12.084484
9982 3328 1 0.4238 5.729185 2.312433 21.981575
9983 3328 2 -0.8476 5.235832 1.499997 22.2923
9984 3328 1 0.4238 4.281924 1.556254 21.997522
9985 3329 1 0.4238 4.823233 7.929709 28.037895
9986 3329 2 -0.8476 4.807592 7.114057 28.616226
9987 3329 1 0.4238 5.599779 7.122886 29.22644
9988 3330 1 0.4238 44.470545 1.499407 10.94193
9989 3330 2 -0.8476 43.505051 1.659764 11.147129
9990 3330 1 0.4238 43.340023 1.499411 12.120295
9991 3331 1 0.4238 10.126774 34.920797 5.235805
9992 3331 2 -0.8476 9.384179 34.347989 5.582854
9993 3331 1 0.4238 8.519215 34.640304 5.174945
9994 3332 1 0.4238 20.341481 3.994408 10.510964
9995 3332 2 -0.8476 19.552443 3.694572 11.047171
9996 3332 1 0.4238 19.778104 3.730121 12.020727
9997 3333 1 0.4238 21.494891 15.091722 35.158981
9998 3333 2 -0.8476 20.746601 14.785332 35.747357
9999 3333 1 0.4238 21.12089 14.420464 36.59987
10000 3334 1 0.4238 22.787249 15.438488 22.775577
10001 3334 2 -0.8476 22.353519 14.703765 23.297171
10002 3334 1 0.4238 22.960139 13.90914 23.321315
10003 3335 1 0.4238 47.105108 33.102507 1.595407
10004 3335 2 -0.8476 47.479978 32.180343 1.500087
10005 3335 1 0.4238 48.17662 32.029589 2.201487
10006 3336 1 0.4238 17.826968 28.467309 25.24798
10007 3336 2 -0.8476 18.05517 27.97361 26.087137
10008 3336 1 0.4238 17.628386 27.069449 26.068454
10009 3337 1 0.4238 21.037395 20.559977 44.579879
10010 3337 2 -0.8476 20.914915 21.093935 45.416471
10011 3337 1 0.4238 21.808366 21.37804 45.764362
10012 3338 1 0.4238 12.416644 46.197083 13.797978
10013 3338 2 -0.8476 12.007032 45.331813 14.086985
10014 3338 1 0.4238 12.665183 44.819224 14.638429
10015 3339 1 0.4238 40.264532 17.267505 38.001632
10016 3339 2 -0.8476 41.25547 17.335835 37.885989
10017 3339 1 0.4238 41.58635 16.544707 37.371563
10018 3340 1 0.4238 14.304596 19.666938 42.073066
10019 3340 2 -0.8476 14.383125 19.238228 41.173044
10020 3340 1 0.4238 15.179927 18.634129 41.15998
10021 3341 1 0.4238 29.405577 29.020851 39.44496
10022 3341 2 -0.8476 30.378184 28.872718 39.624102
10023 3341 1 0.4238 30.91505 29.215075 38.853021
10024 3342 1 0.4238 25.527225 45.764695 32.753923
10025 3342 2 -0.8476 26.309232 46.376301 32.633904
10026 3342 1 0.4238 27.133901 45.834791 32.470544
10027 3343 1 0.4238 10.445936 13.627662 34.868758
10028 3343 2 -0.8476 10.732501 14.2425 34.13401
10029 3343 1 0.4238 11.110884 15.079824 34.528617
10030 3344 1 0.4238 30.09786 20.767008 24.643048
10031 3344 2 -0.8476 29.848151 21.727217 24.768129
10032 3344 1 0.4238 28.858873 21.800628 24.894381
10033 3345 1 0.4238 1.519132 40.131275 32.671309
10034 3345 2 -0.8476 1.501799 39.498633 31.897059
10035 3345 1 0.4238 1.848218 38.606686 32.187619
10036 3346 1 0.4238 42.916974 28.692252 24.491294
10037 3346 2 -0.8476 42.624087 28.309664 25.36756
10038 3346 1 0.4238 43.049977 28.821393 26.113718
10039 3347 1 0.4238 1.499999 30.619223 30.060806
10040 3347 2 -0.8476 1.719598 30.824011 31.01466
10041 3347 1 0.4238 1.499992 30.032247 31.584645
10042 3348 1 0.4238 16.701859 36.549811 22.676472
10043 3348 2 -0.8476 16.239611 36.136357 21.892008
10044 3348 1 0.4238 16.910481 35.933506 21.178717
10045 3349 1 0.4238 48.16263 24.486838 32.418323
10046 3349 2 -0.8476 48.098775 25.038522 33.249929
10047 3349 1 0.4238 48.170769 26.007489 33.013455
10048 3350 1 0.4238 29.728113 41.407423 15.366589
10049 3350 2 -0.8476 29.563445 41.809342 16.267336
10050 3350 1 0.4238 29.575427 41.089093 16.960947
10051 3351 1 0.4238 29.751053 11.360233 13.840268
10052 3351 2 -0.8476 29.045978 12.069362 13.842366
10053 3351 1 0.4238 29.479549 12.97048 13.844251
10054 3352 1 0.4238 11.665542 20.2847 48.104096
10055 3352 2 -0.8476 12.658766 20.315493 47.992039
10056 3352 1 0.4238 12.986598 21.241776 48.177851
10057 3353 1 0.4238 14.706284 1.967374 18.920252
10058 3353 2 -0.8476 15.074333 1.529707 19.74061
10059 3353 1 0.4238 16.072681 1.50798 19.687417
10060 3354 1 0.4238 16.823078 1.500001 23.34871
10061 3354 2 -0.8476 16.683387 1.516362 22.35865
10062 3354 1 0.4238 15.703457 1.499999 22.159982
10063 3355 1 0.4238 26.755771 7.717668 5.919635
10064 3355 2 -0.8476 27.532327 8.345951 5.872509
10065 3355 1 0.4238 28.380057 7.822324 5.787844
10066 3356 1 0.4238 30.157015 7.137434 20.922479
10067 3356 2 -0.8476 29.474319 6.480691 21.242814
10068 3356 1 0.4238 28.83878 6.271343 20.49967
10069 3357 1 0.4238 33.254701 45.402727 18.630692
10070 3357 2 -0.8476 33.33756 44.729937 19.36587
10071 3357 1 0.4238 34.30471 44.565036 19.559336
10072 3358 1 0.4238 23.855529 9.114451 17.401443
10073 3358 2 -0.8476 23.274806 8.301003 17.434026
10074 3358 1 0.4238 23.713514 7.557819 16.928841
10075 3359 1 0.4238 35.543494 39.564697 33.165316
10076 3359 2 -0.8476 36.427497 40.031745 33.185443
10077 3359 1 0.4238 37.161254 39.354341 33.237631
10078 3360 1 0.4238 38.190525 8.996402 24.018284
10079 3360 2 -0.8476 38.545623 8.178344 24.470707
10080 3360 1 0.4238 38.105098 7.367076 24.086283
10081 3361 1 0.4238 18.081604 3.505415 24.838088
10082 3361 2 -0.8476 17.094671 3.591681 24.701998
10083 3361 1 0.4238 16.616076 2.992373 25.343696
10084 3362 1 0.4238 1.49993 1.588465 30.272467
10085 3362 2 -0.8476 2.073739 1.499827 31.086646
10086 3362 1 0.4238 1.502425 1.559684 31.905192
10087 3363 1 0.4238 38.397906 32.846227 30.161881
10088 3363 2 -0.8476 39.345268 32.957935 29.861839
10089 3363 1 0.4238 39.480603 33.889793 29.525201
10090 3364 1 0.4238 18.731912 29.964644 20.112146
10091 3364 2 -0.8476 18.433963 30.825921 20.523761
10092 3364 1 0.4238 17.79928 31.289017 19.905117
10093 3365 1 0.4238 44.202375 45.42325 23.286885
10094 3365 2 -0.8476 43.522038 45.182117 22.594789
10095 3365 1 0.4238 43.206264 44.246021 22.749743
10096 3366 1 0.4238 2.966356 29.798515 16.448779
10097 3366 2 -0.8476 2.486785 29.060473 15.974116
10098 3366 1 0.4238 1.500001 29.210198 16.03609
10099 3367 1 0.4238 47.77025 40.684124 41.525523
10100 3367 2 -0.8476 48.169507 40.213651 42.312447
10101 3367 1 0.4238 48.01537 40.7559 43.138406
10102 3368 1 0.4238 6.495325 45.937842 24.221939
10103 3368 2 -0.8476 6.745274 45.832456 23.259432
10104 3368 1 0.4238 7.715404 45.599865 23.19053
10105 3369 1 0.4238 1.49996 2.763863 11.509714
10106 3369 2 -0.8476 1.530022 1.766822 11.438953
10107 3369 1 0.4238 1.49997 1.499979 10.475682
10108 3370 1 0.4238 45.508709 6.326232 25.668359
10109 3370 2 -0.8476 45.320166 5.832548 26.517316
10110 3370 1 0.4238 45.058078 6.48316 27.230067
10111 3371 1 0.4238 3.803468 47.17519 11.561688
10112 3371 2 -0.8476 3.612124 48.093549 11.21527
10113 3371 1 0.4238 3.963534 48.177994 10.282864
10114 3372 1 0.4238 29.195678 41.879549 25.929424
10115 3372 2 -0.8476 29.472695 41.904523 24.968884
10116 3372 1 0.4238 28.730577 42.286016 24.417772
10117 3373 1 0.4238 28.892405 12.131904 27.082204
10118 3373 2 -0.8476 28.035172 12.22513 27.588623
10119 3373 1 0.4238 27.805508 11.352068 28.01876
10120 3374 1 0.4238 27.630653 16.810236 5.653232
10121 3374 2 -0.8476 28.208861 16.27147 5.040527
10122 3374 1 0.4238 27.894809 16.38739 4.098224
10123 3375 1 0.4238 44.201032 25.073533 15.629897
10124 3375 2 -0.8476 43.260802 25.187876 15.950667
10125 3375 1 0.4238 42.83532 24.289874 16.06272
10126 3376 1 0.4238 48.177432 3.552803 18.890852
10127 3376 2 -0.8476 47.295715 3.382511 18.45088
10128 3376 1 0.4238 46.558211 3.689104 19.052617
10129 3377 1 0.4238 42.979975 6.186197 10.949087
10130 3377 2 -0.8476 42.553668 5.916727 11.812596
10131 3377 1 0.4238 42.551995 6.694923 12.440615
10132 3378 1 0.4238 45.316933 40.390277 9.860504
10133 3378 2 -0.8476 44.42374 40.665525 10.216095
10134 3378 1 0.4238 44.40498 41.657866 10.338193
10135 3379 1 0.4238 38.734059 48.145957 43.508263
10136 3379 2 -0.8476 39.469361 48.178689 42.831315
10137 3379 1 0.4238 39.090553 48.018846 41.919748
10138 3380 1 0.4238 13.9719 41.788313 12.114235
10139 3380 2 -0.8476 14.890311 41.394819 12.155268
10140 3380 1 0.4238 15.358401 41.725722 12.974655
10141 3381 1 0.4238 44.961265 42.012867 5.596975
10142 3381 2 -0.8476 44.487869 41.295655 6.108348
10143 3381 1 0.4238 43.499813 41.432278 6.037087
10144 3382 1 0.4238 37.247322 6.875776 7.45312
10145 3382 2 -0.8476 36.626923 6.989976 6.677192
10146 3382 1 0.4238 35.681161 6.909933 6.992035
10147 3383 1 0.4238 46.66149 47.643715 40.353285
10148 3383 2 -0.8476 47.437308 48.178016 40.688888
10149 3383 1 0.4238 48.17617 48.151943 40.015536
10150 3384 1 0.4238 45.768217 31.95135 30.280262
10151 3384 2 -0.8476 45.648434 32.944032 30.295563
10152 3384 1 0.4238 45.691142 33.299349 29.361793
10153 3385 1 0.4238 36.080662 5.068848 34.821479
10154 3385 2 -0.8476 36.912365 4.572965 34.571738
10155 3385 1 0.4238 36.686061 3.849994 33.918975
10156 3386 1 0.4238 5.281638 30.301757 3.980902
10157 3386 2 -0.8476 4.543112 29.663703 4.198774
10158 3386 1 0.4238 3.731343 29.898298 3.663989
10159 3387 1 0.4238 12.556599 3.942854 43.811992
10160 3387 2 -0.8476 11.70939 3.557136 44.177313
10161 3387 1 0.4238 11.923682 2.937314 44.932229
10162 3388 1 0.4238 5.227724 32.001517 33.990773
10163 3388 2 -0.8476 4.95214 32.960687 34.054386
10164 3388 1 0.4238 5.337555 33.363878 34.884381
10165 3389 1 0.4238 3.637027 21.428344 4.282862
10166 3389 2 -0.8476 4.429121 21.436098 3.672513
10167 3389 1 0.4238 5.19944 21.87851 4.131729
10168 3390 1 0.4238 4.718137 37.904878 44.269945
10169 3390 2 -0.8476 5.327342 38.689583 44.155454
10170 3390 1 0.4238 5.256736 39.285836 44.955139
10171 3391 1 0.4238 3.977737 2.617503 29.897112
10172 3391 2 -0.8476 3.783331 1.84827 29.288436
10173 3391 1 0.4238 4.639802 1.499975 28.907453
10174 3392 1 0.4238 2.462317 41.941651 23.607564
10175 3392 2 -0.8476 1.524038 41.921686 23.952866
10176 3392 1 0.4238 1.499971 41.432005 24.824436
10177 3393 1 0.4238 23.898959 1.772384 6.498257
10178 3393 2 -0.8476 24.853216 1.49997 6.375031
10179 3393 1 0.4238 25.450801 2.272303 6.590422
10180 3394 1 0.4238 5.050742 33.105275 21.325451
10181 3394 2 -0.8476 4.250551 32.505948 21.303052
10182 3394 1 0.4238 4.227225 31.949895 22.133871
10183 3395 1 0.4238 25.61401 41.065249 21.82249
10184 3395 2 -0.8476 26.232435 41.111975 22.606943
10185 3395 1 0.4238 27.035348 41.657372 22.366376
10186 3396 1 0.4238 9.444305 16.223876 12.46651
10187 3396 2 -0.8476 9.69505 17.044402 12.980187
10188 3396 1 0.4238 9.406591 16.942737 13.932267
10189 3397 1 0.4238 39.437067 2.827539 10.490855
10190 3397 2 -0.8476 39.435716 1.840274 10.331782
10191 3397 1 0.4238 40.374923 1.497686 10.354685
10192 3398 1 0.4238 45.903482 20.353986 36.193452
10193 3398 2 -0.8476 45.879772 21.33072 36.406592
10194 3398 1 0.4238 45.044211 21.540924 36.914185
10195 3399 1 0.4238 29.277893 30.976184 37.541018
10196 3399 2 -0.8476 28.872912 31.821948 37.888399
10197 3399 1 0.4238 29.474164 32.591828 37.674433
10198 3400 1 0.4238 13.267824 20.520406 26.713597
10199 3400 2 -0.8476 13.213055 19.660119 26.206737
10200 3400 1 0.4238 12.253438 19.422231 26.056589
10201 3401 1 0.4238 11.074119 19.530292 9.126366
10202 3401 2 -0.8476 10.423658 20.114758 8.641288
10203 3401 1 0.4238 10.741519 21.062466 8.669806
10204 3402 1 0.4238 37.152714 30.003214 34.04278
10205 3402 2 -0.8476 36.99919 29.115973 34.47779
10206 3402 1 0.4238 36.048405 29.053628 34.781302
10207 3403 1 0.4238 38.933845 38.956269 30.946752
10208 3403 2 -0.8476 37.981728 38.817026 30.674567
10209 3403 1 0.4238 37.545325 39.703892 30.522845
10210 3404 1 0.4238 10.503158 1.499984 13.269819
10211 3404 2 -0.8476 10.225614 2.289769 13.81682
10212 3404 1 0.4238 10.106258 3.083213 13.219994
10213 3405 1 0.4238 8.831671 48.176767 33.407999
10214 3405 2 -0.8476 9.169158 47.381531 32.90431
10215 3405 1 0.4238 8.394186 46.85246 32.55862
10216 3406 1 0.4238 44.577934 20.386382 43.423828
10217 3406 2 -0.8476 44.857042 20.186812 42.484536
10218 3406 1 0.4238 44.845217 19.197935 42.336272
10219 3407 1 0.4238 11.622301 1.502357 21.73827
10220 3407 2 -0.8476 12.444716 1.545524 22.305519
10221 3407 1 0.4238 13.247591 1.659643 21.720398
10222 3408 1 0.4238 44.563329 21.970747 45.709706
10223 3408 2 -0.8476 44.654655 20.984845 45.849913
10224 3408 1 0.4238 45.612115 20.719371 45.736801
10225 3409 1 0.4238 26.633445 26.52318 46.266018
10226 3409 2 -0.8476 27.502844 26.251429 45.853347
10227 3409 1 0.4238 27.581547 26.658543 44.943367
10228 3410 1 0.4238 25.370904 33.548424 34.968749
10229 3410 2 -0.8476 24.870279 33.41703 35.824384
10230 3410 1 0.4238 25.006932 32.481536 36.150231
10231 3411 1 0.4238 44.062397 30.31743 21.087941
10232 3411 2 -0.8476 44.098177 29.725705 21.893286
10233 3411 1 0.4238 43.40694 29.007843 21.810425
10234 3412 1 0.4238 6.596858 14.335242 43.075936
10235 3412 2 -0.8476 7.510925 14.434415 42.682685
10236 3412 1 0.4238 7.590061 15.330005 42.244901
10237 3413 1 0.4238 1.499986 27.265079 42.617469
10238 3413 2 -0.8476 2.077694 28.021665 42.311153
10239 3413 1 0.4238 1.502568 28.752736 41.944048
10240 3414 1 0.4238 18.277114 8.41929 3.598348
10241 3414 2 -0.8476 18.108897 7.606529 3.040564
10242 3414 1 0.4238 17.78156 6.863534 3.624352
10243 3415 1 0.4238 9.266581 45.316304 18.183112
10244 3415 2 -0.8476 8.304555 45.25149 17.91796
10245 3415 1 0.4238 8.239194 44.900712 16.983785
10246 3416 1 0.4238 14.093059 41.622669 41.053592
10247 3416 2 -0.8476 13.10736 41.47522 40.972006
10248 3416 1 0.4238 12.909909 40.497243 41.039623
10249 3417 1 0.4238 40.766434 45.710334 36.404904
10250 3417 2 -0.8476 40.475559 44.883864 36.88692
10251 3417 1 0.4238 41.261052 44.475135 37.351614
10252 3418 1 0.4238 24.662632 8.1272 20.824292
10253 3418 2 -0.8476 23.948156 8.815728 20.948605
10254 3418 1 0.4238 23.424686 8.909527 20.10174
10255 3419 1 0.4238 27.553616 4.513038 40.40201
10256 3419 2 -0.8476 27.183707 5.410805 40.641135
10257 3419 1 0.4238 27.906745 5.973102 41.04243
10258 3420 1 0.4238 1.629451 6.854273 35.222577
10259 3420 2 -0.8476 1.602319 6.074969 34.596519
10260 3420 1 0.4238 1.49984 5.229627 35.120823
10261 3421 1 0.4238 21.182593 27.589484 3.971805
10262 3421 2 -0.8476 22.13294 27.900494 3.961209
10263 3421 1 0.4238 22.740114 27.113217 3.85381
10264 3422 1 0.4238 5.869492 7.185528 25.492747
10265 3422 2 -0.8476 5.3449 6.380057 25.217029
10266 3422 1 0.4238 5.04349 5.883843 26.03123
10267 3423 1 0.4238 48.125303 8.769521 48.021736
10268 3423 2 -0.8476 47.158004 8.566014 48.173123
10269 3423 1 0.4238 46.61984 8.91565 47.406224
10270 3424 1 0.4238 43.021851 10.469747 34.923211
10271 3424 2 -0.8476 43.521012 10.661001 35.76835
10272 3424 1 0.4238 44.446433 10.28818 35.700529
10273 3425 1 0.4238 32.107251 43.789046 26.654961
10274 3425 2 -0.8476 31.478091 43.378992 25.994648
10275 3425 1 0.4238 31.96138 43.206851 25.136278
10276 3426 1 0.4238 45.04457 30.098216 44.788809
10277 3426 2 -0.8476 45.458335 30.218266 45.691242
10278 3426 1 0.4238 45.928399 29.376604 45.957033
10279 3427 1 0.4238 21.776085 46.145618 38.416665
10280 3427 2 -0.8476 21.411974 45.473419 37.772017
10281 3427 1 0.4238 20.513163 45.772099 37.451193
10282 3428 1 0.4238 5.666299 26.10384 21.947667
10283 3428 2 -0.8476 5.714783 27.102575 21.934372
10284 3428 1 0.4238 6.672399 27.389482 21.908782
10285 3429 1 0.4238 3.524353 26.572141 20.625081
10286 3429 2 -0.8476 3.267025 25.707383 21.05633
10287 3429 1 0.4238 3.788065 24.960692 20.642844
10288 3430 1 0.4238 48.178016 44.494085 25.732486
10289 3430 2 -0.8476 48.158739 43.707464 26.349621
10290 3430 1 0.4238 48.178063 44.026619 27.297127
10291 3431 1 0.4238 48.177968 31.706123 25.214205
10292 3431 2 -0.8476 47.191574 31.706024 25.378603
10293 3431 1 0.4238 46.727257 32.163832 24.620432
10294 3432 1 0.4238 4.292478 37.591592 31.347374
10295 3432 2 -0.8476 5.257289 37.638458 31.088641
10296 3432 1 0.4238 5.515384 38.592381 30.935612
10297 3433 1 0.4238 48.178014 18.809914 11.070467
10298 3433 2 -0.8476 47.634872 18.903299 11.904898
10299 3433 1 0.4238 48.173722 19.375973 12.602193
10300 3434 1 0.4238 10.62895 33.466903 37.393618
10301 3434 2 -0.8476 10.213265 32.940202 36.652138
10302 3434 1 0.4238 9.86401 32.075345 37.012752
10303 3435 1 0.4238 48.148759 34.750803 28.575807
10304 3435 2 -0.8476 47.65762 34.841335 29.44217
10305 3435 1 0.4238 48.178003 34.392735 30.168778
10306 3436 1 0.4238 15.872369 18.608372 36.185853
10307 3436 2 -0.8476 16.82535 18.883291 36.058388
10308 3436 1 0.4238 17.324795 18.150297 35.596572
10309 3437 1 0.4238 43.858023 39.344378 39.167175
10310 3437 2 -0.8476 44.26991 40.068481 39.720368
10311 3437 1 0.4238 45.106195 39.725988 40.148534
10312 3438 1 0.4238 39.876304 22.378746 31.255431
10313 3438 2 -0.8476 39.315609 22.351209 30.427867
10314 3438 1 0.4238 39.431294 21.466574 29.97616
10315 3439 1 0.4238 35.511112 1.515224 2.345777
10316 3439 2 -0.8476 34.993915 1.973403 1.62288
10317 3439 1 0.4238 34.114225 1.514006 1.500004
10318 3440 1 0.4238 21.428835 45.844287 6.535974
10319 3440 2 -0.8476 21.623873 46.173173 7.459984
10320 3440 1 0.4238 20.92922 45.826993 8.090552
10321 3441 1 0.4238 10.628408 27.200313 29.581659
10322 3441 2 -0.8476 11.489124 26.707026 29.45582
10323 3441 1 0.4238 12.041528 26.783445 30.285886
10324 3442 1 0.4238 8.917525 21.446948 46.088946
10325 3442 2 -0.8476 8.210657 21.009287 45.533257
10326 3442 1 0.4238 7.330338 21.072587 46.003397
10327 3443 1 0.4238 7.437981 22.69838 27.473484
10328 3443 2 -0.8476 7.910695 21.875949 27.789948
10329 3443 1 0.4238 7.416715 21.065538 27.47496
10330 3444 1 0.4238 9.88588 45.459094 12.770019
10331 3444 2 -0.8476 9.819237 44.475658 12.938579
10332 3444 1 0.4238 8.890127 44.249895 13.23147
10333 3445 1 0.4238 13.053303 48.167816 38.527361
10334 3445 2 -0.8476 12.612907 47.56747 39.194921
10335 3445 1 0.4238 12.122725 48.120753 39.868418
10336 3446 1 0.4238 31.837674 12.974654 26.683579
10337 3446 2 -0.8476 31.578155 13.140901 27.6349
10338 3446 1 0.4238 31.962385 14.013081 27.937669
10339 3447 1 0.4238 33.205816 12.39945 18.487854
10340 3447 2 -0.8476 33.582836 11.775723 17.80315
10341 3447 1 0.4238 33.006041 10.961223 17.740714
10342 3448 1 0.4238 5.788113 37.885795 3.213021
10343 3448 2 -0.8476 6.058584 38.767099 3.600511
10344 3448 1 0.4238 6.833711 39.133671 3.085921
10345 3449 1 0.4238 35.161032 23.934631 8.820408
10346 3449 2 -0.8476 34.661782 23.163783 8.424754
10347 3449 1 0.4238 34.86265 22.334021 8.945472
10348 3450 1 0.4238 28.615159 42.119068 9.625783
10349 3450 2 -0.8476 28.984068 42.99244 9.307778
10350 3450 1 0.4238 28.928189 43.666029 10.044769
10351 3451 1 0.4238 23.647628 38.358787 32.683481
10352 3451 2 -0.8476 23.116639 38.608803 31.873825
10353 3451 1 0.4238 22.466332 39.330354 32.111448
10354 3452 1 0.4238 21.239541 38.200253 13.487638
10355 3452 2 -0.8476 22.067174 38.401971 14.011408
10356 3452 1 0.4238 22.588341 37.559627 14.148671
10357 3453 1 0.4238 10.976452 30.988887 10.391583
10358 3453 2 -0.8476 11.703869 31.650824 10.572421
10359 3453 1 0.4238 12.584498 31.178056 10.603781
10360 3454 1 0.4238 4.200342 8.002643 45.978462
10361 3454 2 -0.8476 4.962732 7.63852 46.513417
10362 3454 1 0.4238 5.651057 8.352522 46.641511
10363 3455 1 0.4238 41.887287 23.554107 13.090718
10364 3455 2 -0.8476 42.77257 23.794789 12.692792
10365 3455 1 0.4238 43.184097 24.538043 13.220258
10366 3456 1 0.4238 41.436413 26.286368 17.400518
10367 3456 2 -0.8476 40.542168 25.848211 17.491863
10368 3456 1 0.4238 40.663991 24.861745 17.601606
10369 3457 1 0.4238 27.416438 6.716871 8.183745
10370 3457 2 -0.8476 27.666111 7.674898 8.324628
10371 3457 1 0.4238 26.836465 8.229036 8.392588
10372 3458 1 0.4238 45.801696 47.200328 18.266753
10373 3458 2 -0.8476 45.679115 47.682203 19.134376
10374 3458 1 0.4238 44.81079 48.178003 19.120498
10375 3459 1 0.4238 2.318718 13.658096 18.012796
10376 3459 2 -0.8476 1.545669 13.989121 17.471671
10377 3459 1 0.4238 1.5 13.482233 16.61087
10378 3460 1 0.4238 7.276281 26.875273 14.354763
10379 3460 2 -0.8476 6.337153 26.576991 14.184272
10380 3460 1 0.4238 6.272863 25.587582 14.314409
10381 3461 1 0.4238 18.299811 30.963941 32.394883
10382 3461 2 -0.8476 18.142881 31.884839 32.038063
10383 3461 1 0.4238 19.02131 32.339664 31.891443
10384 3462 1 0.4238 34.754826 36.969615 3.925263
10385 3462 2 -0.8476 35.319237 37.794694 3.951434
10386 3462 1 0.4238 36.23011 37.58688 3.59489
10387 3463 1 0.4238 3.921288 7.901267 42.735068
10388 3463 2 -0.8476 3.470021 7.009185 42.711653
10389 3463 1 0.4238 3.166297 6.813667 41.779171
10390 3464 1 0.4238 33.712074 1.877326 11.423703
10391 3464 2 -0.8476 33.79956 1.499984 12.345635
10392 3464 1 0.4238 33.98079 2.240315 12.992988
10393 3465 1 0.4238 20.522214 28.941527 25.424199
10394 3465 2 -0.8476 20.544202 29.888322 25.103114
10395 3465 1 0.4238 19.782067 30.394818 25.506364
10396 3466 1 0.4238 32.814247 16.767798 37.335285
10397 3466 2 -0.8476 33.071463 16.215739 38.128426
10398 3466 1 0.4238 33.796997 15.578099 37.869555
10399 3467 1 0.4238 35.222679 41.468623 43.273664
10400 3467 2 -0.8476 34.337836 41.933901 43.249807
10401 3467 1 0.4238 33.61595 41.29049 43.50457
10402 3468 1 0.4238 30.288165 27.178754 10.762696
10403 3468 2 -0.8476 29.452244 26.635567 10.684059
10404 3468 1 0.4238 29.690655 25.669672 10.583033
10405 3469 1 0.4238 48.178055 42.557136 9.298841
10406 3469 2 -0.8476 47.601746 43.373066 9.344956
10407 3469 1 0.4238 48.178089 44.182168 9.459766
10408 3470 1 0.4238 47.952569 29.603875 2.763345
10409 3470 2 -0.8476 48.178001 28.706041 2.385093
10410 3470 1 0.4238 47.726222 28.594252 1.499995
10411 3471 1 0.4238 36.680983 42.495921 41.279521
10412 3471 2 -0.8476 35.733624 42.369564 40.985336
10413 3471 1 0.4238 35.367458 43.240429 40.657441
10414 3472 1 0.4238 47.93782 27.7448 23.901691
10415 3472 2 -0.8476 48.178 28.713774 23.960016
10416 3472 1 0.4238 47.343755 29.265093 23.950906
10417 3473 1 0.4238 48.175976 28.507487 32.119011
10418 3473 2 -0.8476 47.929499 29.382435 32.535802
10419 3473 1 0.4238 48.178002 30.127973 31.917401
10420 3474 1 0.4238 38.490007 27.456336 42.055165
10421 3474 2 -0.8476 38.276606 26.5845 42.496029
10422 3474 1 0.4238 38.296774 26.699468 43.489193
10423 3475 1 0.4238 28.555415 37.398224 6.886574
10424 3475 2 -0.8476 29.486335 37.064505 7.034963
10425 3475 1 0.4238 29.453869 36.11828 7.356839
10426 3476 1 0.4238 27.492968 19.132372 45.828171
10427 3476 2 -0.8476 26.923401 18.41332 45.42998
10428 3476 1 0.4238 26.303979 18.814211 44.754997
10429 3477 1 0.4238 42.497087 33.177197 43.80613
10430 3477 2 -0.8476 41.685305 33.57576 43.37933
10431 3477 1 0.4238 40.933649 32.917061 43.412916
10432 3478 1 0.4238 20.548547 11.20109 48.165464
10433 3478 2 -0.8476 19.821203 11.60928 47.613784
10434 3478 1 0.4238 19.002122 11.725583 48.175548
10435 3479 1 0.4238 24.595048 41.307058 11.408205
10436 3479 2 -0.8476 23.90851 41.254559 10.683009
10437 3479 1 0.4238 23.005244 41.451441 11.064255
10438 3480 1 0.4238 39.1554 26.087065 45.755847
10439 3480 2 -0.8476 38.650943 26.789291 46.258243
10440 3480 1 0.4238 38.703932 27.656381 45.762918
10441 3481 1 0.4238 9.133567 45.714988 8.475561
10442 3481 2 -0.8476 8.175147 45.507952 8.279176
10443 3481 1 0.4238 7.76334 46.273406 7.784711
10444 3482 1 0.4238 21.788488 24.966532 4.711782
10445 3482 2 -0.8476 20.832094 24.678462 4.760011
10446 3482 1 0.4238 20.253592 25.472957 4.944707
10447 3483 1 0.4238 23.227212 5.984201 25.09436
10448 3483 2 -0.8476 23.818148 6.247465 24.331807
10449 3483 1 0.4238 24.774415 6.101883 24.585498
10450 3484 1 0.4238 28.534581 36.906657 9.812319
10451 3484 2 -0.8476 29.277814 36.277041 10.038567
10452 3484 1 0.4238 29.148223 35.928209 10.966749
10453 3485 1 0.4238 34.90575 41.977423 32.006042
10454 3485 2 -0.8476 35.496435 42.47887 31.37387
10455 3485 1 0.4238 36.393154 42.038001 31.334787
10456 3486 1 0.4238 18.75553 25.100303 44.802792
10457 3486 2 -0.8476 18.431497 24.489558 44.080301
10458 3486 1 0.4238 19.196739 23.946228 43.735051
10459 3487 1 0.4238 2.240434 16.600771 33.351245
10460 3487 2 -0.8476 1.504296 15.988894 33.061925
10461 3487 1 0.4238 1.776876 15.51109 32.226818
10462 3488 1 0.4238 41.724934 39.854291 15.587297
10463 3488 2 -0.8476 42.264019 39.012139 15.57434
10464 3488 1 0.4238 41.649655 38.223122 15.57162
10465 3489 1 0.4238 48.178 40.056791 12.9725
10466 3489 2 -0.8476 47.640634 40.228177 13.798251
10467 3489 1 0.4238 48.177999 39.97777 14.603568
10468 3490 1 0.4238 21.010044 32.550364 24.328719
10469 3490 2 -0.8476 20.6963 32.704128 23.391745
10470 3490 1 0.4238 20.578103 31.824386 22.931218
10471 3491 1 0.4238 7.695769 6.955135 44.384611
10472 3491 2 -0.8476 7.501576 7.388035 45.264887
10473 3491 1 0.4238 8.065894 6.967064 45.975048
10474 3492 1 0.4238 13.015611 12.192738 13.702475
10475 3492 2 -0.8476 13.066343 13.008967 13.126978
10476 3492 1 0.4238 13.79428 12.895338 12.450815
10477 3493 1 0.4238 45.460322 30.869192 18.961956
10478 3493 2 -0.8476 45.577406 31.259101 18.048576
10479 3493 1 0.4238 46.109544 30.629117 17.482936
10480 3494 1 0.4238 43.668811 19.56961 27.307331
10481 3494 2 -0.8476 44.096825 19.412919 26.417245
10482 3494 1 0.4238 44.436781 20.280196 26.053571
10483 3495 1 0.4238 44.054054 33.649671 48.176675
10484 3495 2 -0.8476 44.037678 34.649536 48.178052
10485 3495 1 0.4238 44.974869 34.998255 48.169773
10486 3496 1 0.4238 11.780879 47.649976 24.974076
10487 3496 2 -0.8476 12.372575 48.177555 25.58363
10488 3496 1 0.4238 13.328856 48.025357 25.333909
10489 3497 1 0.4238 6.54124 48.178635 3.020426
10490 3497 2 -0.8476 7.40354 47.989476 2.550684
10491 3497 1 0.4238 7.29953 48.178225 1.574182
10492 3498 1 0.4238 45.972602 27.820153 9.02579
10493 3498 2 -0.8476 46.073708 26.836334 8.877877
10494 3498 1 0.4238 45.172265 26.425338 8.741928
10495 3499 1 0.4238 2.145124 12.637838 20.28852
10496 3499 2 -0.8476 1.499998 11.968078 20.656262
10497 3499 1 0.4238 1.620004 11.898584 21.646599
10498 3500 1 0.4238 42.834312 29.318423 43.730008
10499 3500 2 -0.8476 43.280519 28.868467 42.956419
10500 3500 1 0.4238 43.385727 27.893685 43.153217
10501 3501 1 0.4238 39.974642 23.784923 48.178013
10502 3501 2 -0.8476 39.821035 24.639945 47.682693
10503 3501 1 0.4238 39.109698 25.16962 48.144693
10504 3502 1 0.4238 1.499565 43.969611 42.67072
10505 3502 2 -0.8476 1.733428 44.154752 41.716241
10506 3502 1 0.4238 1.983608 45.117654 41.615105
10507 3503 1 0.4238 6.516135 38.376459 47.159567
10508 3503 2 -0.8476 6.248036 37.478035 46.81178
10509 3503 1 0.4238 6.577258 37.37201 45.873499
10510 3504 1 0.4238 1.5037 12.691826 32.320449
10511 3504 2 -0.8476 1.695129 12.946024 33.268467
10512 3504 1 0.4238 1.671943 12.12853 33.843938
10513 3505 1 0.4238 23.634557 46.989452 23.69467
10514 3505 2 -0.8476 23.017626 47.736497 23.447042
10515 3505 1 0.4238 22.67853 48.177999 24.277758
10516 3506 1 0.4238 3.67266 19.628924 31.335808
10517 3506 2 -0.8476 4.652948 19.826485 31.338133
10518 3506 1 0.4238 5.148774 19.058125 30.933438
10519 3507 1 0.4238 12.504887 29.423372 29.75914
10520 3507 2 -0.8476 12.258107 29.838477 30.634804
10521 3507 1 0.4238 11.435777 29.396521 30.993201
10522 3508 1 0.4238 27.240184 41.767037 41.130153
10523 3508 2 -0.8476 27.387896 42.589749 40.581221
10524 3508 1 0.4238 27.135294 43.396577 41.11528
10525 3509 1 0.4238 16.521528 31.301879 4.563974
10526 3509 2 -0.8476 15.59306 31.312383 4.935237
10527 3509 1 0.4238 15.096465 30.506062 4.613928
10528 3510 1 0.4238 15.620135 4.782563 3.236485
10529 3510 2 -0.8476 16.128647 4.230569 2.575638
10530 3510 1 0.4238 15.595282 4.142583 1.734342
10531 3511 1 0.4238 13.243751 37.944726 34.17011
10532 3511 2 -0.8476 12.407314 37.397605 34.137978
10533 3511 1 0.4238 11.698389 37.901194 33.644194
10534 3512 1 0.4238 3.360268 14.660595 27.336954
10535 3512 2 -0.8476 3.31201 15.641285 27.526476
10536 3512 1 0.4238 3.8319 16.140679 26.833426
10537 3513 1 0.4238 13.44651 33.908795 1.499989
10538 3513 2 -0.8476 13.916655 34.790935 1.528138
10539 3513 1 0.4238 14.905309 34.641413 1.542445
10540 3514 1 0.4238 35.917058 9.76993 45.899794
10541 3514 2 -0.8476 36.773592 9.400739 46.260418
10542 3514 1 0.4238 36.953309 8.509056 45.844964
10543 3515 1 0.4238 3.71918 22.084886 30.811184
10544 3515 2 -0.8476 3.203744 22.376274 31.61705
10545 3515 1 0.4238 2.729825 23.233917 31.417428
10546 3516 1 0.4238 26.973343 22.141919 12.211739
10547 3516 2 -0.8476 26.934547 21.148049 12.315259
10548 3516 1 0.4238 27.691906 20.730797 11.812957
10549 3517 1 0.4238 37.807159 40.793077 44.121288
10550 3517 2 -0.8476 37.865387 41.748766 44.409851
10551 3517 1 0.4238 37.207607 41.91585 45.144295
10552 3518 1 0.4238 1.499987 2.325683 21.205861
10553 3518 2 -0.8476 1.898013 2.298697 22.122838
10554 3518 1 0.4238 1.531129 3.052651 22.667769
10555 3519 1 0.4238 32.862915 22.347471 48.0403
10556 3519 2 -0.8476 33.827995 22.098579 48.121987
10557 3519 1 0.4238 34.382725 22.928726 48.177938
10558 3520 1 0.4238 26.709288 48.178026 4.133624
10559 3520 2 -0.8476 25.913183 47.588308 3.997792
10560 3520 1 0.4238 25.113972 48.150801 3.785985
10561 3521 1 0.4238 23.511528 1.504062 23.360448
10562 3521 2 -0.8476 23.600197 2.069163 22.540205
10563 3521 1 0.4238 23.898396 1.5 21.773961
10564 3522 1 0.4238 38.685885 45.531807 7.663065
10565 3522 2 -0.8476 38.048508 45.948156 7.014679
10566 3522 1 0.4238 37.112824 45.838662 7.3501
10567 3523 1 0.4238 23.082215 18.13414 43.708169
10568 3523 2 -0.8476 23.919959 18.563715 44.045291
10569 3523 1 0.4238 23.816817 19.558135 44.023167
10570 3524 1 0.4238 46.626109 19.11692 44.089738
10571 3524 2 -0.8476 47.284976 19.868503 44.057848
10572 3524 1 0.4238 48.164225 19.527106 43.72563
10573 3525 1 0.4238 29.17321 28.979939 35.669446
10574 3525 2 -0.8476 29.05718 29.294702 34.727394
10575 3525 1 0.4238 28.913582 28.507142 34.128121
10576 3526 1 0.4238 48.178013 12.584448 9.074317
10577 3526 2 -0.8476 47.607015 13.403566 9.129151
10578 3526 1 0.4238 48.178025 14.193586 9.352346
10579 3527 1 0.4238 44.349178 34.169169 32.397855
10580 3527 2 -0.8476 43.362077 34.022461 32.333752
10581 3527 1 0.4238 42.896326 34.905977 32.284017
10582 3528 1 0.4238 45.946825 11.532475 27.665445
10583 3528 2 -0.8476 45.391599 12.363342 27.702647
10584 3528 1 0.4238 45.01755 12.555173 26.795295
10585 3529 1 0.4238 17.52666 24.405525 11.580423
10586 3529 2 -0.8476 17.640072 25.386511 11.422932
10587 3529 1 0.4238 18.406542 25.725277 11.968607
10588 3530 1 0.4238 3.744749 18.279019 12.402584
10589 3530 2 -0.8476 3.869014 19.258366 12.24309
10590 3530 1 0.4238 3.910439 19.736342 13.120485
10591 3531 1 0.4238 37.21442 13.13092 22.684132
10592 3531 2 -0.8476 37.467684 14.097332 22.727779
10593 3531 1 0.4238 37.365147 14.509979 21.822678
10594 3532 1 0.4238 5.922038 18.503289 10.103639
10595 3532 2 -0.8476 4.967252 18.794862 10.045581
10596 3532 1 0.4238 4.38341 17.996645 9.897334
10597 3533 1 0.4238 15.529927 42.612012 30.125519
10598 3533 2 -0.8476 16.305799 41.991664 30.240376
10599 3533 1 0.4238 17.125135 42.520226 30.462436
10600 3534 1 0.4238 5.312668 17.453037 2.745942
10601 3534 2 -0.8476 5.551925 17.177932 1.814774
10602 3534 1 0.4238 4.912917 16.476094 1.499986
10603 3535 1 0.4238 32.228585 6.212482 14.409162
10604 3535 2 -0.8476 31.806568 6.421743 15.291268
10605 3535 1 0.4238 30.862587 6.718579 15.147092
10606 3536 1 0.4238 43.943771 22.41026 48.0968
10607 3536 2 -0.8476 43.353272 23.213305 48.176985
10608 3536 1 0.4238 42.395866 22.924567 48.174924
10609 3537 1 0.4238 43.169525 1.499936 20.845348
10610 3537 2 -0.8476 42.468283 1.685591 21.533673
10611 3537 1 0.4238 41.564701 1.500536 21.147286
10612 3538 1 0.4238 17.372545 26.735085 46.782039
10613 3538 2 -0.8476 16.511548 27.136112 47.094869
10614 3538 1 0.4238 16.361412 26.896653 48.054097
10615 3539 1 0.4238 16.356577 8.432007 44.807201
10616 3539 2 -0.8476 16.676725 9.176664 45.392856
10617 3539 1 0.4238 17.617248 8.994421 45.679568
10618 3540 1 0.4238 12.765892 3.033651 35.873131
10619 3540 2 -0.8476 11.983027 2.442872 35.677932
10620 3540 1 0.4238 12.157368 1.527635 36.041176
10621 3541 1 0.4238 21.879086 33.013084 42.59168
10622 3541 2 -0.8476 21.518035 33.559937 43.347056
10623 3541 1 0.4238 20.833331 33.028478 43.845787
10624 3542 1 0.4238 4.407269 6.520352 20.899766
10625 3542 2 -0.8476 3.819388 6.636407 20.099187
10626 3542 1 0.4238 3.994831 7.528775 19.683377
10627 3543 1 0.4238 11.763245 20.227989 45.397974
10628 3543 2 -0.8476 12.34434 20.365162 44.595782
10629 3543 1 0.4238 12.768973 19.496856 44.339399
10630 3544 1 0.4238 45.710094 7.277602 1.498722
10631 3544 2 -0.8476 45.548598 8.264475 1.49965
10632 3544 1 0.4238 44.564338 8.441149 1.503835
10633 3545 1 0.4238 46.072579 43.939341 30.551876
10634 3545 2 -0.8476 46.769162 43.234581 30.417391
10635 3545 1 0.4238 46.995451 43.170773 29.445423
10636 3546 1 0.4238 8.729346 48.177973 12.308939
10637 3546 2 -0.8476 8.670214 47.613339 13.132159
10638 3546 1 0.4238 8.375858 48.178005 13.903201
10639 3547 1 0.4238 5.899692 47.898056 43.042955
10640 3547 2 -0.8476 5.031028 48.015235 42.56161
10641 3547 1 0.4238 4.301255 48.177753 43.225703
10642 3548 1 0.4238 1.500441 13.002429 41.767829
10643 3548 2 -0.8476 1.858949 13.766794 42.303756
10644 3548 1 0.4238 2.702585 14.101516 41.883946
10645 3549 1 0.4238 26.2278 34.143221 48.178019
10646 3549 2 -0.8476 25.269241 33.867954 48.104578
10647 3549 1 0.4238 25.21644 32.8803 47.957093
10648 3550 1 0.4238 25.798398 43.088722 38.035294
10649 3550 2 -0.8476 26.64299 43.24451 37.523048
10650 3550 1 0.4238 27.303636 43.717958 38.105623
10651 3551 1 0.4238 46.218392 38.249719 8.236774
10652 3551 2 -0.8476 46.74037 39.064011 7.982871
10653 3551 1 0.4238 47.714799 38.840764 7.957384
10654 3552 1 0.4238 22.954416 18.732914 13.383366
10655 3552 2 -0.8476 22.727434 19.19079 14.242918
10656 3552 1 0.4238 23.046618 18.635415 15.010824
10657 3553 1 0.4238 22.832977 31.545674 4.021214
10658 3553 2 -0.8476 23.195392 30.613799 4.004921
10659 3553 1 0.4238 24.113555 30.620128 3.608769
10660 3554 1 0.4238 33.914128 36.960586 46.171438
10661 3554 2 -0.8476 34.898374 36.795879 46.107168
10662 3554 1 0.4238 35.218956 37.044567 45.193177
10663 3555 1 0.4238 15.800167 19.852982 1.693686
10664 3555 2 -0.8476 15.020276 19.245366 1.54344
10665 3555 1 0.4238 15.338966 18.298504 1.499996
10666 3556 1 0.4238 13.034751 24.034396 44.459785
10667 3556 2 -0.8476 12.408603 24.006754 45.239
10668 3556 1 0.4238 12.273007 24.933011 45.590654
10669 3557 1 0.4238 42.4527 10.383514 32.246123
10670 3557 2 -0.8476 43.060015 11.176068 32.301138
10671 3557 1 0.4238 43.433085 11.373675 31.394623
10672 3558 1 0.4238 42.430051 38.966247 43.952779
10673 3558 2 -0.8476 42.305711 39.938948 43.756836
10674 3558 1 0.4238 41.908565 40.047265 42.845495
10675 3559 1 0.4238 42.698722 38.071175 41.533751
10676 3559 2 -0.8476 43.609065 38.35535 41.834616
10677 3559 1 0.4238 44.247162 37.592186 41.732571
10678 3560 1 0.4238 17.607055 14.679793 21.239641
10679 3560 2 -0.8476 18.234147 15.093131 20.579409
10680 3560 1 0.4238 19.115729 15.264549 21.019214
10681 3561 1 0.4238 19.754454 12.249837 35.526088
10682 3561 2 -0.8476 18.793136 12.314957 35.79372
10683 3561 1 0.4238 18.498573 13.269533 35.74882
10684 3562 1 0.4238 4.455309 44.34727 4.36925
10685 3562 2 -0.8476 4.148814 45.221508 3.992728
10686 3562 1 0.4238 4.939352 45.815194 3.842442
10687 3563 1 0.4238 28.085511 45.589985 36.625397
10688 3563 2 -0.8476 27.732835 44.930265 35.961779
10689 3563 1 0.4238 27.028051 45.365404 35.401482
10690 3564 1 0.4238 48.178 18.862584 21.85196
10691 3564 2 -0.8476 47.938308 18.988447 22.814616
10692 3564 1 0.4238 48.178 19.916655 23.099181
10693 3565 1 0.4238 14.540151 35.103321 47.951459
10694 3565 2 -0.8476 15.100355 35.645569 47.32525
10695 3565 1 0.4238 15.43912 35.059896 46.58889
10696 3566 1 0.4238 8.48352 39.019747 43.451438
10697 3566 2 -0.8476 7.771373 38.376541 43.732742
10698 3566 1 0.4238 8.188788 37.49839 43.966444
10699 3567 1 0.4238 14.100686 15.43927 19.360112
10700 3567 2 -0.8476 14.098787 15.773235 20.302696
10701 3567 1 0.4238 14.955402 15.515167 20.749473
10702 3568 1 0.4238 32.082748 25.949467 35.614306
10703 3568 2 -0.8476 32.032231 26.931709 35.794997
10704 3568 1 0.4238 31.323598 27.340408 35.219842
10705 3569 1 0.4238 1.499992 14.495475 6.785058
10706 3569 2 -0.8476 1.548599 14.536605 5.787088
10707 3569 1 0.4238 2.498862 14.428691 5.494933
10708 3570 1 0.4238 20.703421 39.032023 16.27713
10709 3570 2 -0.8476 20.300044 38.191528 16.638869
10710 3570 1 0.4238 20.353522 37.471512 15.946975
10711 3571 1 0.4238 8.55982 13.633643 36.868706
10712 3571 2 -0.8476 7.697844 13.504726 37.35899
10713 3571 1 0.4238 7.282786 14.395642 37.543368
10714 3572 1 0.4238 2.460728 1.631927 15.245049
10715 3572 2 -0.8476 1.518739 1.516753 14.929786
10716 3572 1 0.4238 1.500863 1.505626 13.930008
10717 3573 1 0.4238 35.274078 46.011555 46.183958
10718 3573 2 -0.8476 36.184583 45.847893 46.563689
10719 3573 1 0.4238 36.565978 45.012888 46.167073
10720 3574 1 0.4238 3.541537 18.033788 28.971489
10721 3574 2 -0.8476 4.16419 18.734625 28.62345
10722 3574 1 0.4238 3.72323 19.630335 28.680538
10723 3575 1 0.4238 25.994241 39.573029 46.310681
10724 3575 2 -0.8476 26.372833 40.336391 46.834081
10725 3575 1 0.4238 27.207147 40.04037 47.299153
10726 3576 1 0.4238 48.171741 14.000404 21.063225
10727 3576 2 -0.8476 47.611066 13.631676 21.804632
10728 3576 1 0.4238 48.178002 13.061911 22.39957
10729 3577 1 0.4238 1.498221 46.900088 1.875724
10730 3577 2 -0.8476 1.889063 47.751615 1.526234
10731 3577 1 0.4238 2.44767 48.178519 2.237368
10732 3578 1 0.4238 42.867423 37.925699 4.189313
10733 3578 2 -0.8476 42.848311 38.925441 4.201571
10734 3578 1 0.4238 41.956163 39.245692 3.882961
10735 3579 1 0.4238 29.141598 26.866442 41.269391
10736 3579 2 -0.8476 29.879503 26.435017 40.750383
10737 3579 1 0.4238 29.851612 25.445369 40.891161
10738 3580 1 0.4238 12.797328 6.126619 28.161562
10739 3580 2 -0.8476 13.142689 5.339867 27.64995
10740 3580 1 0.4238 13.573811 5.655207 26.804554
10741 3581 1 0.4238 22.175643 2.890041 34.120026
10742 3581 2 -0.8476 23.011358 3.279771 34.506925
10743 3581 1 0.4238 22.822977 4.200957 34.847407
10744 3582 1 0.4238 29.101751 35.874888 39.012526
10745 3582 2 -0.8476 28.377271 35.338782 39.445792
10746 3582 1 0.4238 28.684162 34.39379 39.558965
10747 3583 1 0.4238 30.191486 42.849794 46.497739
10748 3583 2 -0.8476 30.94718 42.621145 47.111454
10749 3583 1 0.4238 30.914213 41.646319 47.331969
10750 3584 1 0.4238 34.659174 20.5815 6.726792
10751 3584 2 -0.8476 35.525203 21.012938 6.474099
10752 3584 1 0.4238 36.223035 20.308579 6.344069
10753 3585 1 0.4238 1.496682 2.530724 40.312374
10754 3585 2 -0.8476 1.669713 1.590974 40.017535
10755 3585 1 0.4238 2.630882 1.494369 39.759034
10756 3586 1 0.4238 9.352817 9.474721 48.070667
10757 3586 2 -0.8476 8.999071 8.540353 48.028011
10758 3586 1 0.4238 8.01046 8.551056 48.178127
10759 3587 1 0.4238 12.359633 41.130142 38.387953
10760 3587 2 -0.8476 12.89324 41.725083 37.786863
10761 3587 1 0.4238 12.288868 42.400532 37.364368
10762 3588 1 0.4238 43.869249 14.94634 26.789386
10763 3588 2 -0.8476 43.503237 15.84061 26.531866
10764 3588 1 0.4238 44.180409 16.54841 26.733009
10765 3589 1 0.4238 15.061012 21.537608 4.621398
10766 3589 2 -0.8476 15.99513 21.859236 4.776248
10767 3589 1 0.4238 16.373479 22.209284 3.919324
10768 3590 1 0.4238 8.256533 8.817165 22.744207
10769 3590 2 -0.8476 7.445176 9.393271 22.843214
10770 3590 1 0.4238 7.075984 9.293099 23.767153
10771 3591 1 0.4238 21.768231 28.497961 20.515443
10772 3591 2 -0.8476 21.393171 29.393012 20.274168
10773 3591 1 0.4238 21.289951 29.945172 21.101492
10774 3592 1 0.4238 5.256107 23.921922 16.272241
10775 3592 2 -0.8476 4.550853 24.413486 15.761379
10776 3592 1 0.4238 3.789698 24.633555 16.371471
10777 3593 1 0.4238 1.597671 42.759567 21.185507
10778 3593 2 -0.8476 1.499974 43.73648 21.375494
10779 3593 1 0.4238 1.499794 43.885342 22.364352
10780 3594 1 0.4238 33.101406 34.396637 17.858842
10781 3594 2 -0.8476 33.711509 33.773387 18.34806
10782 3594 1 0.4238 33.281645 32.873263 18.418727
10783 3595 1 0.4238 29.854821 21.798733 1.500001
10784 3595 2 -0.8476 30.10311 22.371439 2.281256
10785 3595 1 0.4238 29.507063 23.173907 2.309065
10786 3596 1 0.4238 1.499998 20.192086 7.934333
10787 3596 2 -0.8476 1.678894 19.262513 8.256653
10788 3596 1 0.4238 2.530469 19.249549 8.780724
10789 3597 1 0.4238 46.713632 16.075107 33.656939
10790 3597 2 -0.8476 47.224495 16.913 33.849172
10791 3597 1 0.4238 48.151181 16.82989 33.482641
10792 3598 1 0.4238 32.032479 38.852723 46.282799
10793 3598 2 -0.8476 32.067203 39.284796 45.381629
10794 3598 1 0.4238 32.08735 40.278798 45.48912
10795 3599 1 0.4238 8.968324 18.186977 1.49999
10796 3599 2 -0.8476 8.228544 18.858879 1.535656
10797 3599 1 0.4238 8.616312 19.778848 1.593048
10798 3600 1 0.4238 20.907229 10.361779 21.965314
10799 3600 2 -0.8476 21.490144 11.161606 21.822186
10800 3600 1 0.4238 21.973919 11.070007 20.9518
10801 3601 1 0.4238 8.685631 38.37285 1.588836
10802 3601 2 -0.8476 8.511346 37.391063 1.513216
10803 3601 1 0.4238 7.525745 37.224353 1.541473
10804 3602 1 0.4238 42.212684 37.329327 38.968634
10805 3602 2 -0.8476 41.3583 37.101738 39.435785
10806 3602 1 0.4238 40.682946 37.818817 39.263465
10807 3603 1 0.4238 24.447658 6.317721 9.852763
10808 3603 2 -0.8476 24.987574 6.704574 9.105211
10809 3603 1 0.4238 24.778231 6.218626 8.256666
10810 3604 1 0.4238 41.568634 19.49046 25.591486
10811 3604 2 -0.8476 41.783057 20.464026 25.67018
10812 3604 1 0.4238 40.933885 20.988222 25.734412
10813 3605 1 0.4238 5.231481 33.223583 14.223869
10814 3605 2 -0.8476 5.805016 33.830905 14.773613
10815 3605 1 0.4238 5.911631 33.448309 15.691356
10816 3606 1 0.4238 22.204202 9.002647 14.069416
10817 3606 2 -0.8476 22.122366 8.375528 14.844028
10818 3606 1 0.4238 21.965782 7.447379 14.506361
10819 3607 1 0.4238 44.725557 45.907139 28.460584
10820 3607 2 -0.8476 45.281317 45.077639 28.405266
10821 3607 1 0.4238 46.218621 45.320473 28.155282
10822 3608 1 0.4238 33.788196 6.548118 27.463598
10823 3608 2 -0.8476 32.81242 6.346774 27.549176
10824 3608 1 0.4238 32.610056 6.071512 28.489005
10825 3609 1 0.4238 6.840554 4.617409 17.283824
10826 3609 2 -0.8476 6.348677 3.887326 17.758204
10827 3609 1 0.4238 5.367473 4.079331 17.738938
10828 3610 1 0.4238 18.118011 46.596484 35.295641
10829 3610 2 -0.8476 18.822025 47.254762 35.562163
10830 3610 1 0.4238 18.399389 48.145589 35.728913
10831 3611 1 0.4238 25.33274 14.601735 1.613931
10832 3611 2 -0.8476 24.914435 13.694849 1.563141
10833 3611 1 0.4238 25.631092 13.000289 1.499986
10834 3612 1 0.4238 47.387323 10.25403 25.514074
10835 3612 2 -0.8476 47.836075 11.137061 25.65147
10836 3612 1 0.4238 48.178001 11.19482 26.58942
10837 3613 1 0.4238 36.857153 16.813115 27.610313
10838 3613 2 -0.8476 37.619888 16.203934 27.393209
10839 3613 1 0.4238 37.28618 15.263848 27.323373
10840 3614 1 0.4238 26.687369 27.660763 7.690425
10841 3614 2 -0.8476 25.995273 28.211283 8.157256
10842 3614 1 0.4238 25.085472 27.858863 7.938028
10843 3615 1 0.4238 10.869943 2.974967 6.270681
10844 3615 2 -0.8476 11.196177 2.058482 6.039106
10845 3615 1 0.4238 10.427514 1.499961 5.72732
10846 3616 1 0.4238 14.297258 31.143446 20.365833
10847 3616 2 -0.8476 14.426247 32.130513 20.270644
10848 3616 1 0.4238 15.360771 32.37134 20.532686
10849 3617 1 0.4238 35.709371 23.951034 25.187484
10850 3617 2 -0.8476 34.930146 23.38672 25.460172
10851 3617 1 0.4238 35.257403 22.588716 25.966228
10852 3618 1 0.4238 45.209365 30.333886 48.176626
10853 3618 2 -0.8476 44.961204 31.299914 48.104468
10854 3618 1 0.4238 45.791795 31.855651 48.068776
10855 3619 1 0.4238 14.045689 40.068433 8.586929
10856 3619 2 -0.8476 13.076616 40.308609 8.643597
10857 3619 1 0.4238 12.526724 39.473555 8.661033
10858 3620 1 0.4238 22.058122 36.024659 31.275939
10859 3620 2 -0.8476 22.898149 36.134216 30.744571
10860 3620 1 0.4238 23.152078 35.256687 30.3378
10861 3621 1 0.4238 32.151181 24.366511 39.872471
10862 3621 2 -0.8476 32.885169 24.510614 40.53617
10863 3621 1 0.4238 32.506441 24.91217 41.370027
10864 3622 1 0.4238 48.177969 5.283316 7.095297
10865 3622 2 -0.8476 48.154048 4.301384 7.283016
10866 3622 1 0.4238 48.17818 4.150272 8.271238
10867 3623 1 0.4238 35.468829 7.108774 15.078275
10868 3623 2 -0.8476 34.998807 7.273868 14.211197
10869 3623 1 0.4238 35.649239 7.63497 13.542959
10870 3624 1 0.4238 38.499986 5.046581 22.916383
10871 3624 2 -0.8476 37.613852 5.12314 22.459323
10872 3624 1 0.4238 36.916937 5.388327 23.125646
10873 3625 1 0.4238 42.402621 34.173072 19.371532
10874 3625 2 -0.8476 43.150872 33.981816 20.00678
10875 3625 1 0.4238 43.100106 33.028431 20.304235
10876 3626 1 0.4238 28.997938 23.628049 36.549446
10877 3626 2 -0.8476 28.191769 24.209207 36.438331
10878 3626 1 0.4238 27.365769 23.665027 36.585272
10879 3627 1 0.4238 39.633143 14.184863 37.160478
10880 3627 2 -0.8476 39.473578 14.982868 36.579335
10881 3627 1 0.4238 38.732902 14.784893 35.937304
10882 3628 1 0.4238 4.27809 23.923815 8.489864
10883 3628 2 -0.8476 3.595756 24.180111 9.174505
10884 3628 1 0.4238 4.056826 24.450035 10.019819
10885 3629 1 0.4238 26.395607 21.478698 9.520641
10886 3629 2 -0.8476 25.499362 21.06951 9.691845
10887 3629 1 0.4238 25.19441 20.580856 8.874397
10888 3630 1 0.4238 21.861957 23.80874 40.962339
10889 3630 2 -0.8476 20.972996 24.215783 41.172255
10890 3630 1 0.4238 21.005987 24.640005 42.077212
10891 3631 1 0.4238 30.208674 14.369929 42.010362
10892 3631 2 -0.8476 29.467783 13.723203 42.191541
10893 3631 1 0.4238 28.608379 14.222809 42.300257
10894 3632 1 0.4238 34.989045 33.689184 12.18791
10895 3632 2 -0.8476 34.05652 34.04376 12.119547
10896 3632 1 0.4238 33.725365 33.932216 11.182587
10897 3633 1 0.4238 19.819445 35.247208 24.220735
10898 3633 2 -0.8476 19.048321 35.812022 23.926876
10899 3633 1 0.4238 18.442563 35.979779 24.704638
10900 3634 1 0.4238 45.716253 13.600451 37.311547
10901 3634 2 -0.8476 45.566611 12.616616 37.409908
10902 3634 1 0.4238 45.965539 12.138895 36.627196
10903 3635 1 0.4238 32.480304 24.524855 33.156821
10904 3635 2 -0.8476 33.329796 24.360278 33.658097
10905 3635 1 0.4238 33.154459 23.727683 34.412471
10906 3636 1 0.4238 22.975936 22.114217 39.135817
10907 3636 2 -0.8476 22.288961 21.450901 38.83904
10908 3636 1 0.4238 21.558827 21.924819 38.346795
10909 3637 1 0.4238 15.584364 44.206104 40.959388
10910 3637 2 -0.8476 16.173384 45.013936 40.93792
10911 3637 1 0.4238 16.528472 45.143026 40.012043
10912 3638 1 0.4238 43.398238 30.661165 9.48527
10913 3638 2 -0.8476 44.386711 30.81099 9.507036
10914 3638 1 0.4238 44.850352 29.947772 9.706768
10915 3639 1 0.4238 15.38181 12.045671 36.04962
10916 3639 2 -0.8476 16.204414 11.497931 36.202278
10917 3639 1 0.4238 15.970214 10.526562 36.16238
10918 3640 1 0.4238 29.561607 28.184126 30.228157
10919 3640 2 -0.8476 29.228522 27.991379 31.151143
10920 3640 1 0.4238 28.567524 28.691939 31.420026
10921 3641 1 0.4238 33.911181 46.088266 11.697511
10922 3641 2 -0.8476 34.283679 45.304404 12.194305
10923 3641 1 0.4238 35.204941 45.105243 11.860223
10924 3642 1 0.4238 16.805131 48.177999 17.449516
10925 3642 2 -0.8476 16.306815 47.595179 16.807642
10926 3642 1 0.4238 15.627717 48.142556 16.318558
10927 3643 1 0.4238 6.772328 28.443398 27.131825
10928 3643 2 -0.8476 6.420658 27.519858 27.284802
10929 3643 1 0.4238 7.050268 27.01735 27.87732
10930 3644 1 0.4238 9.628727 45.156366 33.948917
10931 3644 2 -0.8476 10.594437 45.146836 33.689471
10932 3644 1 0.4238 11.016941 46.016293 33.945468
10933 3645 1 0.4238 41.458241 38.336668 26.050901
10934 3645 2 -0.8476 41.031809 37.99064 26.886616
10935 3645 1 0.4238 40.136543 38.419789 27.006323
10936 3646 1 0.4238 30.142634 4.496777 45.590982
10937 3646 2 -0.8476 29.21522 4.14276 45.711711
10938 3646 1 0.4238 28.59365 4.899109 45.915641
10939 3647 1 0.4238 7.782665 10.362489 5.88259
10940 3647 2 -0.8476 6.874726 10.241525 6.283855
10941 3647 1 0.4238 6.717252 9.270867 6.465584
10942 3648 1 0.4238 16.798514 7.453364 20.151088
10943 3648 2 -0.8476 16.964051 6.597578 19.660957
10944 3648 1 0.4238 17.594036 6.764361 18.90247
10945 3649 1 0.4238 22.299344 48.180164 3.445088
10946 3649 2 -0.8476 21.345539 47.942727 3.62915
10947 3649 1 0.4238 21.310045 47.198954 4.296639
10948 3650 1 0.4238 15.472529 39.686746 48.168293
10949 3650 2 -0.8476 15.054084 40.594945 48.159472
10950 3650 1 0.4238 15.770881 41.292057 48.144055
10951 3651 1 0.4238 12.102627 37.314915 38.144464
10952 3651 2 -0.8476 11.966126 36.448879 37.663477
10953 3651 1 0.4238 12.29216 36.535454 36.722092
10954 3652 1 0.4238 6.362823 10.27816 43.835919
10955 3652 2 -0.8476 6.5784 9.30859 43.951942
10956 3652 1 0.4238 5.745048 8.807426 44.18509
10957 3653 1 0.4238 37.525443 12.148743 43.559243
10958 3653 2 -0.8476 37.380822 12.275259 44.540609
10959 3653 1 0.4238 37.576533 11.419435 45.019423
10960 3654 1 0.4238 43.908868 13.513219 41.879305
10961 3654 2 -0.8476 43.547034 13.214479 42.762385
10962 3654 1 0.4238 42.896644 13.89342 43.10302
10963 3655 1 0.4238 32.130126 10.065748 41.942925
10964 3655 2 -0.8476 32.448053 10.894138 42.404111
10965 3655 1 0.4238 32.121137 11.698324 41.907715
10966 3656 1 0.4238 13.92591 23.363657 16.291438
10967 3656 2 -0.8476 14.499908 24.175856 16.187236
10968 3656 1 0.4238 15.123575 24.046574 15.416311
10969 3657 1 0.4238 2.456887 26.336317 40.502825
10970 3657 2 -0.8476 3.186416 26.104761 41.146385
10971 3657 1 0.4238 3.631164 25.257702 40.855369
10972 3658 1 0.4238 6.407148 23.584089 45.910171
10973 3658 2 -0.8476 7.148065 23.663563 45.243292
10974 3658 1 0.4238 7.126004 24.572668 44.827311
10975 3659 1 0.4238 14.264947 11.330162 43.905903
10976 3659 2 -0.8476 14.950588 11.108358 44.599227
10977 3659 1 0.4238 15.565239 11.887632 44.721434
10978 3660 1 0.4238 46.536641 31.343326 39.972915
10979 3660 2 -0.8476 47.210594 31.91461 39.504491
10980 3660 1 0.4238 48.129606 31.568219 39.692717
10981 3661 1 0.4238 15.874549 39.919349 36.672756
10982 3661 2 -0.8476 15.139895 39.273507 36.464976
10983 3661 1 0.4238 14.472722 39.71043 35.861669
10984 3662 1 0.4238 12.927539 16.679566 39.392949
10985 3662 2 -0.8476 13.538162 17.470796 39.359854
10986 3662 1 0.4238 14.295992 17.281096 38.735589
10987 3663 1 0.4238 44.26479 12.174787 21.760678
10988 3663 2 -0.8476 44.216545 13.160201 21.923866
10989 3663 1 0.4238 45.112362 13.570563 21.753234
10990 3664 1 0.4238 33.232229 25.588413 13.384824
10991 3664 2 -0.8476 32.548123 25.117675 12.827684
10992 3664 1 0.4238 32.444996 25.593364 11.954136
10993 3665 1 0.4238 35.137371 3.91922 30.577929
10994 3665 2 -0.8476 34.55322 4.325232 29.875133
10995 3665 1 0.4238 34.942026 4.142484 28.972121
10996 3666 1 0.4238 44.133887 24.120597 35.808105
10997 3666 2 -0.8476 45.036859 23.712086 35.674837
10998 3666 1 0.4238 45.702473 24.431817 35.47749
10999 3667 1 0.4238 15.620147 17.815801 19.310015
11000 3667 2 -0.8476 16.399089 17.561002 18.737017
11001 3667 1 0.4238 16.510019 16.567235 18.748022
11002 3668 1 0.4238 11.841697 42.75514 48.141729
11003 3668 2 -0.8476 11.256695 41.947587 48.066688
11004 3668 1 0.4238 11.811084 41.122858 48.178373
11005 3669 1 0.4238 23.377632 7.131482 11.984759
11006 3669 2 -0.8476 23.178115 8.092795 11.794836
11007 3669 1 0.4238 23.167746 8.242025 10.806088
11008 3670 1 0.4238 14.399882 1.513809 8.100424
11009 3670 2 -0.8476 14.698213 2.449305 8.289754
11010 3670 1 0.4238 14.544363 3.018172 7.481843
11011 3671 1 0.4238 28.124856 19.392463 25.936312
11012 3671 2 -0.8476 27.175818 19.594801 25.694678
11013 3671 1 0.4238 26.872283 20.409154 26.189345
11014 3672 1 0.4238 29.680042 16.35128 2.348481
11015 3672 2 -0.8476 30.55799 15.939743 2.593113
11016 3672 1 0.4238 31.108946 15.814717 1.767998
11017 3673 1 0.4238 22.180449 37.825441 21.281615
11018 3673 2 -0.8476 23.170079 37.960244 21.232002
11019 3673 1 0.4238 23.51555 37.580743 20.373731
11020 3674 1 0.4238 11.964164 25.246804 16.539616
11021 3674 2 -0.8476 12.565264 25.960344 16.899532
11022 3674 1 0.4238 12.021289 26.763989 17.140876
11023 3675 1 0.4238 34.258697 37.099659 16.419455
11024 3675 2 -0.8476 34.598784 36.606099 17.219917
11025 3675 1 0.4238 35.226774 37.192763 17.731241
11026 3676 1 0.4238 38.208903 48.178067 5.511447
11027 3676 2 -0.8476 37.225315 48.004972 5.562368
11028 3676 1 0.4238 36.904194 48.178003 6.493465
11029 3677 1 0.4238 4.177509 1.499949 24.557238
11030 3677 2 -0.8476 3.367869 2.082523 24.485888
11031 3677 1 0.4238 2.55182 1.51045 24.403446
11032 3678 1 0.4238 25.131 3.275213 42.976016
11033 3678 2 -0.8476 24.297177 3.685479 43.345367
11034 3678 1 0.4238 24.482057 4.630347 43.615633
11035 3679 1 0.4238 1.53686 22.025539 33.480005
11036 3679 2 -0.8476 1.5 21.028158 33.542225
11037 3679 1 0.4238 2.358775 20.641277 33.206328
11038 3680 1 0.4238 35.713176 4.922063 12.018768
11039 3680 2 -0.8476 34.755301 4.720099 12.222942
11040 3680 1 0.4238 34.242428 5.575496 12.295448
11041 3681 1 0.4238 42.294492 30.724409 31.801643
11042 3681 2 -0.8476 42.414689 31.62421 31.382225
11043 3681 1 0.4238 41.530129 31.963729 31.062413
11044 3682 1 0.4238 2.765872 46.41563 44.113088
11045 3682 2 -0.8476 2.491599 45.546877 44.525451
11046 3682 1 0.4238 1.499885 45.537101 44.653543
11047 3683 1 0.4238 48.165501 43.829635 36.584556
11048 3683 2 -0.8476 47.578628 43.601445 37.361415
11049 3683 1 0.4238 48.146387 43.365323 38.150019
11050 3684 1 0.4238 23.70306 3.451323 19.944117
11051 3684 2 -0.8476 23.308733 3.569539 19.032782
11052 3684 1 0.4238 23.982297 3.307614 18.341619
11053 3685 1 0.4238 26.452464 37.738765 8.242492
11054 3685 2 -0.8476 26.179121 37.043672 7.577565
11055 3685 1 0.4238 25.18112 37.002271 7.529832
11056 3686 1 0.4238 22.512066 42.511704 29.4157
11057 3686 2 -0.8476 22.297712 41.928658 28.632048
11058 3686 1 0.4238 23.061671 41.943174 27.986947
11059 3687 1 0.4238 46.11003 3.662652 3.675331
11060 3687 2 -0.8476 46.414347 2.920934 4.273032
11061 3687 1 0.4238 47.131805 2.39647 3.814565
11062 3688 1 0.4238 28.039822 4.122503 16.172429
11063 3688 2 -0.8476 27.61716 3.247992 15.934548
11064 3688 1 0.4238 28.279313 2.510571 16.067822
11065 3689 1 0.4238 17.554128 13.94606 48.090239
11066 3689 2 -0.8476 16.822846 13.265167 48.130369
11067 3689 1 0.4238 15.938059 13.728718 48.178034
11068 3690 1 0.4238 13.851524 25.301014 47.635699
11069 3690 2 -0.8476 13.462752 24.556189 48.178
11070 3690 1 0.4238 13.255609 23.781657 47.580345
11071 3691 1 0.4238 44.761913 36.847688 32.839468
11072 3691 2 -0.8476 44.518453 37.348813 33.669891
11073 3691 1 0.4238 44.579978 38.331686 33.496183
11074 3692 1 0.4238 28.088208 1.499965 10.646354
11075 3692 2 -0.8476 28.168663 2.416908 11.037176
11076 3692 1 0.4238 27.260511 2.754685 11.284495
11077 3693 1 0.4238 31.564048 24.019051 6.711577
11078 3693 2 -0.8476 32.406403 23.535372 6.949261
11079 3693 1 0.4238 32.515746 22.742246 6.350099
11080 3694 1 0.4238 17.256021 3.437261 31.586076
11081 3694 2 -0.8476 17.648896 2.922981 30.823734
11082 3694 1 0.4238 17.069252 3.029592 30.015869
11083 3695 1 0.4238 18.49954 23.257208 5.257905
11084 3695 2 -0.8476 18.311502 22.625889 6.010286
11085 3695 1 0.4238 18.950799 22.8001 6.759252
11086 3696 1 0.4238 23.888908 4.141444 39.437827
11087 3696 2 -0.8476 24.780854 4.202853 39.885781
11088 3696 1 0.4238 24.657052 4.481448 40.838176
11089 3697 1 0.4238 47.140973 35.926842 10.400929
11090 3697 2 -0.8476 48.060227 36.005394 10.015181
11091 3697 1 0.4238 48.13601 36.862903 9.506324
11092 3698 1 0.4238 20.033078 12.766917 32.783245
11093 3698 2 -0.8476 20.189471 13.650246 33.22514
11094 3698 1 0.4238 20.717812 14.239722 32.614097
11095 3699 1 0.4238 43.671432 41.485627 16.325198
11096 3699 2 -0.8476 44.202064 41.730723 17.13659
11097 3699 1 0.4238 44.993671 41.124466 17.21282
11098 3700 1 0.4238 5.992526 37.623857 19.619341
11099 3700 2 -0.8476 5.960031 38.376469 20.277003
11100 3700 1 0.4238 5.162587 38.949654 20.088477
11101 3701 1 0.4238 23.65378 28.034432 18.602692
11102 3701 2 -0.8476 23.516611 27.050804 18.485821
11103 3701 1 0.4238 24.387125 26.618492 18.250636
11104 3702 1 0.4238 45.329006 24.674779 46.603549
11105 3702 2 -0.8476 45.677464 24.012024 47.26637
11106 3702 1 0.4238 45.681546 24.422984 48.178014
11107 3703 1 0.4238 22.550627 5.128342 13.540204
11108 3703 2 -0.8476 21.592907 4.937226 13.325153
11109 3703 1 0.4238 21.245616 5.636549 12.700384
11110 3704 1 0.4238 20.281181 1.500018 6.428335
11111 3704 2 -0.8476 19.353083 1.836401 6.268711
11112 3704 1 0.4238 18.747918 1.49998 6.990234
11113 3705 1 0.4238 17.701343 33.059022 39.310184
11114 3705 2 -0.8476 17.021774 33.063911 40.043779
11115 3705 1 0.4238 16.2793 32.434484 39.814536
11116 3706 1 0.4238 1.726053 3.621344 46.302651
11117 3706 2 -0.8476 1.499798 3.065996 45.502402
11118 3706 1 0.4238 1.524404 2.09768 45.750915
11119 3707 1 0.4238 41.988972 43.43144 1.49998
11120 3707 2 -0.8476 41.627422 44.363793 1.499984
11121 3707 1 0.4238 40.627876 44.333684 1.499984
11122 3708 1 0.4238 23.304586 15.189663 25.796534
11123 3708 2 -0.8476 24.148752 14.654002 25.817776
11124 3708 1 0.4238 24.065416 13.927468 26.499834
11125 3709 1 0.4238 45.739721 43.856712 44.032548
11126 3709 2 -0.8476 45.393425 43.020288 43.607725
11127 3709 1 0.4238 46.1023 42.315411 43.633107
11128 3710 1 0.4238 20.397772 31.533845 3.096556
11129 3710 2 -0.8476 20.039969 30.637734 3.359162
11130 3710 1 0.4238 20.799744 30.030574 3.591753
11131 3711 1 0.4238 28.664959 35.897483 43.096256
11132 3711 2 -0.8476 28.257199 36.607551 43.670308
11133 3711 1 0.4238 27.261448 36.516551 43.656201
11134 3712 1 0.4238 8.144162 27.561442 6.940598
11135 3712 2 -0.8476 9.074066 27.928649 6.961492
11136 3712 1 0.4238 9.730439 27.174214 6.960647
11137 3713 1 0.4238 31.572272 18.929441 38.411329
11138 3713 2 -0.8476 32.074504 19.012404 39.272072
11139 3713 1 0.4238 32.041327 18.141612 39.762602
11140 3714 1 0.4238 31.58608 33.118836 23.645523
11141 3714 2 -0.8476 31.736258 34.020639 24.050738
11142 3714 1 0.4238 32.488643 34.477976 23.576652
11143 3715 1 0.4238 40.166519 29.520571 25.368073
11144 3715 2 -0.8476 39.454387 29.811269 26.007106
11145 3715 1 0.4238 38.745035 29.108255 26.058004
11146 3716 1 0.4238 32.557467 10.858448 46.227167
11147 3716 2 -0.8476 32.238159 9.919942 46.095832
11148 3716 1 0.4238 33.024331 9.314997 45.969438
11149 3717 1 0.4238 41.293783 44.500128 24.732245
11150 3717 2 -0.8476 41.569955 45.460993 24.710591
11151 3717 1 0.4238 42.36148 45.593824 25.307117
11152 3718 1 0.4238 48.178141 9.045322 23.47062
11153 3718 2 -0.8476 47.818575 9.766867 22.878939
11154 3718 1 0.4238 48.178031 10.651498 23.175957
11155 3719 1 0.4238 45.52733 2.46299 39.960382
11156 3719 2 -0.8476 45.489885 1.515924 39.641532
11157 3719 1 0.4238 45.243405 1.499967 38.672515
11158 3720 1 0.4238 8.223979 4.389999 1.499251
11159 3720 2 -0.8476 8.093172 4.631959 2.46068
11160 3720 1 0.4238 7.409693 4.025524 2.866995
11161 3721 1 0.4238 31.114151 22.984442 29.834213
11162 3721 2 -0.8476 31.701252 22.177506 29.898764
11163 3721 1 0.4238 31.14621 21.379356 30.13304
11164 3722 1 0.4238 13.240696 19.380328 36.311255
11165 3722 2 -0.8476 13.157065 18.406787 36.523912
11166 3722 1 0.4238 12.311085 18.248297 37.033026
11167 3723 1 0.4238 48.157968 37.318565 24.116454
11168 3723 2 -0.8476 48.070186 37.369009 23.121592
11169 3723 1 0.4238 48.178001 36.454911 22.730696
11170 3724 1 0.4238 18.686288 11.354897 17.178033
11171 3724 2 -0.8476 18.851943 12.273619 16.819554
11172 3724 1 0.4238 19.82737 12.386776 16.630508
11173 3725 1 0.4238 10.80456 32.869627 1.533707
11174 3725 2 -0.8476 10.81181 31.869889 1.512003
11175 3725 1 0.4238 11.757005 31.543605 1.499952
11176 3726 1 0.4238 2.890666 4.169145 28.265708
11177 3726 2 -0.8476 2.106102 4.508957 28.784347
11178 3726 1 0.4238 1.500012 3.746215 29.00991
11179 3727 1 0.4238 7.383145 46.978998 5.045686
11180 3727 2 -0.8476 7.180347 47.884184 5.419199
11181 3727 1 0.4238 7.867024 48.122918 6.105843
11182 3728 1 0.4238 1.533215 7.188402 21.996762
11183 3728 2 -0.8476 2.090567 6.366397 22.113672
11184 3728 1 0.4238 1.500019 5.593515 22.345845
11185 3729 1 0.4238 12.174388 36.878808 7.932369
11186 3729 2 -0.8476 13.14617 36.853804 8.166919
11187 3729 1 0.4238 13.247712 36.734754 9.154601
11188 3730 1 0.4238 19.921859 6.57607 33.51571
11189 3730 2 -0.8476 19.160772 7.203216 33.681344
11190 3730 1 0.4238 19.298505 7.671307 34.554225
11191 3731 1 0.4238 41.532009 41.182759 28.491
11192 3731 2 -0.8476 41.294521 40.212557 28.53902
11193 3731 1 0.4238 40.857456 40.019471 29.417479
11194 3732 1 0.4238 20.686503 3.826418 41.670978
11195 3732 2 -0.8476 21.402693 4.246415 41.113597
11196 3732 1 0.4238 22.292704 3.877003 41.380832
11197 3733 1 0.4238 16.403389 5.727503 36.867644
11198 3733 2 -0.8476 17.222645 5.162299 36.770877
11199 3733 1 0.4238 17.589908 4.949885 37.676414
11200 3734 1 0.4238 34.930975 45.731491 9.034368
11201 3734 2 -0.8476 34.668409 44.783536 9.214478
11202 3734 1 0.4238 33.710936 44.751609 9.501229
11203 3735 1 0.4238 16.445462 45.939046 23.312488
11204 3735 2 -0.8476 16.627414 45.626551 24.244818
11205 3735 1 0.4238 15.787989 45.683657 24.785284
11206 3736 1 0.4238 30.62428 9.429229 21.901724
11207 3736 2 -0.8476 30.810986 10.094866 22.624267
11208 3736 1 0.4238 31.213366 9.627964 23.411727
11209 3737 1 0.4238 19.585795 10.224113 33.706934
11210 3737 2 -0.8476 18.647764 10.568441 33.667722
11211 3737 1 0.4238 18.090386 10.095753 34.350287
11212 3738 1 0.4238 18.421462 17.582339 7.86078
11213 3738 2 -0.8476 17.451292 17.822111 7.825024
11214 3738 1 0.4238 16.930425 17.190295 8.399049
11215 3739 1 0.4238 22.578751 34.044031 40.171767
11216 3739 2 -0.8476 23.570147 34.073492 40.044232
11217 3739 1 0.4238 24.02271 33.742647 40.872319
11218 3740 1 0.4238 3.152697 3.252336 4.998179
11219 3740 2 -0.8476 2.712851 3.633245 4.184888
11220 3740 1 0.4238 1.720099 3.55304 4.274393
11221 3741 1 0.4238 20.625913 19.514704 15.945685
11222 3741 2 -0.8476 19.799932 19.726518 16.468074
11223 3741 1 0.4238 19.209957 18.919744 16.500409
11224 3742 1 0.4238 20.796584 32.531759 5.496023
11225 3742 2 -0.8476 20.245264 31.707663 5.626073
11226 3742 1 0.4238 19.275339 31.941323 5.557885
11227 3743 1 0.4238 4.86292 14.62636 16.182635
11228 3743 2 -0.8476 3.870101 14.521581 16.124921
11229 3743 1 0.4238 3.630722 14.086881 15.256743
11230 3744 1 0.4238 47.528231 37.783945 3.569164
11231 3744 2 -0.8476 48.178972 38.326586 4.100273
11232 3744 1 0.4238 47.805543 39.242078 4.250026
11233 3745 1 0.4238 36.612858 36.663281 37.817049
11234 3745 2 -0.8476 35.838341 36.038908 37.918449
11235 3745 1 0.4238 35.149311 36.247054 37.224251
11236 3746 1 0.4238 11.850448 47.335613 1.499883
11237 3746 2 -0.8476 11.312303 48.1782 1.521078
11238 3746 1 0.4238 10.338594 47.951367 1.541992
11239 3747 1 0.4238 27.728962 35.263353 14.355974
11240 3747 2 -0.8476 28.626043 34.823637 14.399518
11241 3747 1 0.4238 29.071335 34.885619 13.50628
11242 3748 1 0.4238 28.832448 19.095406 38.591538
11243 3748 2 -0.8476 29.098553 19.644039 39.384122
11244 3748 1 0.4238 29.468779 19.045592 40.094611
11245 3749 1 0.4238 39.145885 6.099079 1.49998
11246 3749 2 -0.8476 38.474848 6.840503 1.499981
11247 3749 1 0.4238 38.950209 7.720294 1.499982
11248 3750 1 0.4238 41.233415 8.585153 48.150121
11249 3750 2 -0.8476 41.179837 7.676872 47.735206
11250 3750 1 0.4238 40.886584 7.762186 46.782986
11251 3751 1 0.4238 6.854309 28.333881 45.209939
11252 3751 2 -0.8476 7.05395 28.859947 44.38326
11253 3751 1 0.4238 7.904208 29.370718 44.510435
11254 3752 1 0.4238 6.147773 15.343412 21.377379
11255 3752 2 -0.8476 6.282854 16.2899 21.67049
11256 3752 1 0.4238 6.356524 16.880421 20.866837
11257 3753 1 0.4238 37.182749 15.51488 16.058337
11258 3753 2 -0.8476 36.299845 15.133816 15.783981
11259 3753 1 0.4238 36.042456 15.499467 14.889526
11260 3754 1 0.4238 6.368742 21.412132 33.055389
11261 3754 2 -0.8476 5.69865 20.792604 33.464244
11262 3754 1 0.4238 4.806549 21.24303 33.499891
11263 3755 1 0.4238 38.317215 21.673931 35.895064
11264 3755 2 -0.8476 38.58418 21.647966 34.931708
11265 3755 1 0.4238 38.879465 20.722993 34.692477
11266 3756 1 0.4238 9.938119 7.871372 14.748349
11267 3756 2 -0.8476 9.828595 8.508225 13.985182
11268 3756 1 0.4238 10.013451 9.43952 14.299057
11269 3757 1 0.4238 41.135 17.68905 48.039197
11270 3757 2 -0.8476 40.453933 18.407987 48.178036
11271 3757 1 0.4238 40.490523 19.053578 47.41523
11272 3758 1 0.4238 45.875902 7.138891 23.029845
11273 3758 2 -0.8476 45.870048 8.12492 23.196316
11274 3758 1 0.4238 45.901036 8.296908 24.180927
11275 3759 1 0.4238 11.170247 23.546468 5.994945
11276 3759 2 -0.8476 11.213849 23.392227 5.007874
11277 3759 1 0.4238 10.546259 22.693844 4.749835
11278 3760 1 0.4238 14.295514 12.191839 7.690375
11279 3760 2 -0.8476 14.127096 12.306221 6.711318
11280 3760 1 0.4238 14.34585 11.455251 6.233828
11281 3761 1 0.4238 47.130576 18.104782 48.178002
11282 3761 2 -0.8476 46.457679 17.365045 48.178027
11283 3761 1 0.4238 45.535959 17.752899 48.178036
11284 3762 1 0.4238 13.215294 32.373215 31.017958
11285 3762 2 -0.8476 13.35199 33.258789 31.461886
11286 3762 1 0.4238 14.203286 33.668236 31.133789
11287 3763 1 0.4238 34.384888 29.819383 40.246516
11288 3763 2 -0.8476 33.42108 29.64242 40.445911
11289 3763 1 0.4238 32.915659 30.505274 40.440277
11290 3764 1 0.4238 34.575128 45.212961 36.175854
11291 3764 2 -0.8476 34.781512 44.241447 36.059373
11292 3764 1 0.4238 33.933892 43.738603 35.89
11293 3765 1 0.4238 4.128127 43.332765 32.281628
11294 3765 2 -0.8476 4.584954 43.363783 31.392613
11295 3765 1 0.4238 5.52257 43.690713 31.510896
11296 3766 1 0.4238 30.269144 11.947033 24.580723
11297 3766 2 -0.8476 29.802688 12.82624 24.483697
11298 3766 1 0.4238 30.480972 13.55403 24.382444
11299 3767 1 0.4238 3.953061 1.506182 45.791945
11300 3767 2 -0.8476 3.980531 2.474927 46.038476
11301 3767 1 0.4238 3.99873 3.030092 45.206935
11302 3768 1 0.4238 6.313837 41.740443 48.166104
11303 3768 2 -0.8476 6.125928 40.758332 48.178278
11304 3768 1 0.4238 5.14003 40.606703 48.107476
11305 3769 1 0.4238 31.306567 15.691581 31.708258
11306 3769 2 -0.8476 31.40459 15.166814 30.862675
11307 3769 1 0.4238 31.438392 15.793049 30.083773
11308 3770 1 0.4238 18.118465 16.582744 26.590742
11309 3770 2 -0.8476 18.971779 16.389353 26.106538
11310 3770 1 0.4238 19.71588 16.914206 26.519869
11311 3771 1 0.4238 13.874158 45.687763 1.499983
11312 3771 2 -0.8476 14.255303 44.764437 1.546856
11313 3771 1 0.4238 15.253981 44.815796 1.548836
11314 3772 1 0.4238 9.612616 9.757934 29.794336
11315 3772 2 -0.8476 9.850348 9.581829 28.839103
11316 3772 1 0.4238 9.614224 8.638656 28.605287
11317 3773 1 0.4238 44.881866 22.929247 11.667281
11318 3773 2 -0.8476 45.619617 22.943247 10.992354
11319 3773 1 0.4238 46.096478 23.821042 11.037961
11320 3774 1 0.4238 29.041649 29.923167 23.770839
11321 3774 2 -0.8476 29.887182 29.403926 23.895188
11322 3774 1 0.4238 30.620498 30.023292 24.175604
11323 3775 1 0.4238 45.318014 48.160004 24.845543
11324 3775 2 -0.8476 45.932227 48.178016 25.634477
11325 3775 1 0.4238 45.39368 48.155159 26.476762
11326 3776 1 0.4238 36.350732 4.509011 7.185016
11327 3776 2 -0.8476 36.944288 4.096982 6.493696
11328 3776 1 0.4238 36.389434 3.777741 5.725437
11329 3777 1 0.4238 2.696903 32.207853 11.738699
11330 3777 2 -0.8476 3.456779 32.809648 11.492873
11331 3777 1 0.4238 3.100648 33.707659 11.234519
11332 3778 1 0.4238 7.232617 48.178059 45.139357
11333 3778 2 -0.8476 8.206179 48.000614 44.995516
11334 3778 1 0.4238 8.706132 48.178094 45.843188
11335 3779 1 0.4238 35.02259 15.42683 4.169985
11336 3779 2 -0.8476 35.35324 14.83218 4.90283
11337 3779 1 0.4238 34.689008 14.102518 5.065276
11338 3780 1 0.4238 14.299124 9.797651 41.184266
11339 3780 2 -0.8476 14.565752 8.875328 40.90457
11340 3780 1 0.4238 15.562198 8.794657 40.928781
11341 3781 1 0.4238 46.159513 35.895661 21.069027
11342 3781 2 -0.8476 45.802326 36.828009 21.1251
11343 3781 1 0.4238 46.562903 37.477232 21.11939
11344 3782 1 0.4238 27.182178 41.285772 35.914286
11345 3782 2 -0.8476 27.74559 40.466793 36.0231
11346 3782 1 0.4238 27.154883 39.663404 36.098143
11347 3783 1 0.4238 30.782457 21.53555 38.069158
11348 3783 2 -0.8476 31.03122 21.545404 39.037672
11349 3783 1 0.4238 32.006506 21.746468 39.129273
11350 3784 1 0.4238 27.39961 6.641286 14.375989
11351 3784 2 -0.8476 28.181565 6.242499 14.855067
11352 3784 1 0.4238 28.212594 6.592333 15.791364
11353 3785 1 0.4238 35.748489 39.846055 45.177186
11354 3785 2 -0.8476 34.811213 40.135231 45.371842
11355 3785 1 0.4238 34.442826 39.587966 46.123368
11356 3786 1 0.4238 15.704197 37.365258 45.170193
11357 3786 2 -0.8476 16.406712 36.710563 44.891181
11358 3786 1 0.4238 17.213487 37.20501 44.567708
11359 3787 1 0.4238 36.370194 34.646565 30.928145
11360 3787 2 -0.8476 37.191559 34.952479 31.409576
11361 3787 1 0.4238 37.575098 35.748676 30.941637
11362 3788 1 0.4238 35.956574 1.499986 14.333938
11363 3788 2 -0.8476 36.318668 2.403309 14.563926
11364 3788 1 0.4238 36.918295 2.329061 15.360754
11365 3789 1 0.4238 34.872291 10.128171 14.326369
11366 3789 2 -0.8476 34.347039 10.977734 14.277866
11367 3789 1 0.4238 33.893508 11.139704 15.154264
11368 3790 1 0.4238 35.062709 13.10597 34.949097
11369 3790 2 -0.8476 34.09354 12.898391 34.816347
11370 3790 1 0.4238 33.538914 13.55674 35.325235
11371 3791 1 0.4238 45.048604 15.75791 24.425476
11372 3791 2 -0.8476 44.697281 14.841339 24.234506
11373 3791 1 0.4238 43.73954 14.903312 23.95363
11374 3792 1 0.4238 15.639961 34.125795 23.626949
11375 3792 2 -0.8476 15.18741 34.804856 24.20494
11376 3792 1 0.4238 15.839028 35.159 24.875742
11377 3793 1 0.4238 24.473524 41.251306 44.564167
11378 3793 2 -0.8476 24.788116 42.186247 44.400103
11379 3793 1 0.4238 25.061012 42.282964 43.442934
11380 3794 1 0.4238 34.306995 7.550676 39.452
11381 3794 2 -0.8476 33.561214 7.231836 40.036938
11382 3794 1 0.4238 33.190401 8.003048 40.554363
11383 3795 1 0.4238 37.260072 34.526908 7.980569
11384 3795 2 -0.8476 37.225607 35.522689 7.895518
11385 3795 1 0.4238 36.299977 35.842638 8.097613
11386 3796 1 0.4238 1.515236 32.70668 47.912126
11387 3796 2 -0.8476 2.025015 33.081314 47.137675
11388 3796 1 0.4238 1.500001 32.947807 46.297118
11389 3797 1 0.4238 18.594544 1.501257 9.485523
11390 3797 2 -0.8476 17.778129 2.075507 9.546383
11391 3797 1 0.4238 16.961631 1.5 9.500306
11392 3798 1 0.4238 40.956719 30.060315 40.095807
11393 3798 2 -0.8476 40.183441 30.100393 40.728606
11394 3798 1 0.4238 39.49729 29.424471 40.459669
11395 3799 1 0.4238 6.189505 12.61724 34.669627
11396 3799 2 -0.8476 6.089216 12.578868 35.663845
11397 3799 1 0.4238 5.606467 13.394832 35.981893
11398 3800 1 0.4238 43.506481 48.11039 33.476848
11399 3800 2 -0.8476 42.528031 47.934893 33.368047
11400 3800 1 0.4238 42.247005 48.178015 32.439653
11401 3801 1 0.4238 30.353795 48.057127 14.002433
11402 3801 2 -0.8476 30.968661 48.178071 13.223131
11403 3801 1 0.4238 31.91683 48.156327 13.540151
11404 3802 1 0.4238 2.418712 28.805448 25.111484
11405 3802 2 -0.8476 1.5 28.41052 25.111234
11406 3802 1 0.4238 1.532084 27.49215 24.716814
11407 3803 1 0.4238 38.195129 38.803492 14.760084
11408 3803 2 -0.8476 39.178018 38.744606 14.585548
11409 3803 1 0.4238 39.473879 39.54911 14.070535
11410 3804 1 0.4238 2.035844 1.500952 37.033271
11411 3804 2 -0.8476 1.495916 2.340534 37.093096
11412 3804 1 0.4238 1.831078 2.899003 37.851897
11413 3805 1 0.4238 13.49587 35.131098 16.427178
11414 3805 2 -0.8476 12.686677 35.243223 15.850432
11415 3805 1 0.4238 11.869602 35.27901 16.425851
11416 3806 1 0.4238 33.705798 28.956051 9.711132
11417 3806 2 -0.8476 33.945646 28.707113 10.649484
11418 3806 1 0.4238 33.691637 27.754512 10.816903
11419 3807 1 0.4238 39.106966 19.595217 1.499969
11420 3807 2 -0.8476 38.202672 19.430366 1.893767
11421 3807 1 0.4238 38.190303 19.744223 2.843157
11422 3808 1 0.4238 48.178079 9.529773 28.700408
11423 3808 2 -0.8476 48.06256 8.667748 29.193935
11424 3808 1 0.4238 48.177988 8.826959 30.174408
11425 3809 1 0.4238 19.792857 3.042052 28.982149
11426 3809 2 -0.8476 20.585496 3.639245 28.859331
11427 3809 1 0.4238 21.130007 3.647152 29.698047
11428 3810 1 0.4238 41.440286 18.114174 4.714584
11429 3810 2 -0.8476 41.145085 18.632125 3.911725
11430 3810 1 0.4238 40.157594 18.528551 3.792836
11431 3811 1 0.4238 28.282932 14.87284 31.492039
11432 3811 2 -0.8476 28.571273 15.824 31.602284
11433 3811 1 0.4238 28.817388 16.203204 30.710302
11434 3812 1 0.4238 19.396109 36.543282 31.68711
11435 3812 2 -0.8476 19.520994 37.226732 32.406345
11436 3812 1 0.4238 20.099095 37.967911 32.065091
11437 3813 1 0.4238 37.374681 42.900407 36.907692
11438 3813 2 -0.8476 37.788666 42.06441 36.547519
11439 3813 1 0.4238 38.750591 42.234294 36.333416
11440 3814 1 0.4238 30.199487 1.500002 30.620018
11441 3814 2 -0.8476 29.387767 2.077281 30.531368
11442 3814 1 0.4238 28.574199 1.5 30.461698
11443 3815 1 0.4238 5.933152 48.131284 18.94627
11444 3815 2 -0.8476 6.932628 48.152126 18.971044
11445 3815 1 0.4238 7.282825 47.221764 19.079619
11446 3816 1 0.4238 29.196981 14.147144 6.490167
11447 3816 2 -0.8476 29.546685 13.21055 6.512461
11448 3816 1 0.4238 30.546513 13.228128 6.518428
11449 3817 1 0.4238 33.159923 8.6191 8.683903
11450 3817 2 -0.8476 32.856532 9.565663 8.574484
11451 3817 1 0.4238 32.073282 9.594959 7.953468
11452 3818 1 0.4238 36.007006 4.255622 1.499969
11453 3818 2 -0.8476 36.396467 5.081926 1.906837
11454 3818 1 0.4238 35.938693 5.886907 1.529413
11455 3819 1 0.4238 20.530699 22.092755 1.500025
11456 3819 2 -0.8476 20.824234 21.287148 2.014646
11457 3819 1 0.4238 20.528713 20.46018 1.536326
11458 3820 1 0.4238 36.663044 9.943846 36.243369
11459 3820 2 -0.8476 37.57482 9.911202 35.833979
11460 3820 1 0.4238 38.22759 9.554131 36.502104
11461 3821 1 0.4238 7.780016 24.46085 36.76606
11462 3821 2 -0.8476 7.749744 25.403517 36.433703
11463 3821 1 0.4238 6.872742 25.815887 36.680316
11464 3822 1 0.4238 31.750264 18.946546 31.719303
11465 3822 2 -0.8476 32.368028 18.208834 31.991604
11466 3822 1 0.4238 32.856275 17.869149 31.18772
11467 3823 1 0.4238 18.211019 32.25372 29.26931
11468 3823 2 -0.8476 18.898178 31.528538 29.313161
11469 3823 1 0.4238 19.811786 31.935066 29.320584
11470 3824 1 0.4238 35.207129 21.767432 45.751865
11471 3824 2 -0.8476 34.986045 22.742662 45.758899
11472 3824 1 0.4238 33.994196 22.859949 45.709123
11473 3825 1 0.4238 36.952969 22.251414 48.178
11474 3825 2 -0.8476 36.8568 23.226252 47.976894
11475 3825 1 0.4238 37.49623 23.481644 47.251703
11476 3826 1 0.4238 40.174901 35.544714 7.833409
11477 3826 2 -0.8476 39.966907 34.635988 7.471531
11478 3826 1 0.4238 39.685034 34.714511 6.515298
11479 3827 1 0.4238 7.994766 3.601416 22.753883
11480 3827 2 -0.8476 8.927258 3.451955 23.082701
11481 3827 1 0.4238 8.962003 3.609744 24.069562
11482 3828 1 0.4238 14.195268 30.534047 15.408994
11483 3828 2 -0.8476 14.261673 29.554797 15.600464
11484 3828 1 0.4238 13.391548 29.227452 15.968878
11485 3829 1 0.4238 9.334956 43.099008 27.496617
11486 3829 2 -0.8476 8.736124 43.59184 28.127899
11487 3829 1 0.4238 7.78503 43.338021 27.951841
11488 3830 1 0.4238 40.115355 11.813087 44.177364
11489 3830 2 -0.8476 40.797896 12.51356 43.968857
11490 3830 1 0.4238 40.363268 13.26524 43.472797
11491 3831 1 0.4238 19.263599 10.902053 38.085609
11492 3831 2 -0.8476 20.094547 11.458169 38.101736
11493 3831 1 0.4238 20.792074 10.999321 38.652112
11494 3832 1 0.4238 32.127825 28.642151 29.448837
11495 3832 2 -0.8476 32.794382 28.193899 30.044465
11496 3832 1 0.4238 33.455539 28.868823 30.372104
11497 3833 1 0.4238 23.377716 32.376842 28.781516
11498 3833 2 -0.8476 22.768467 32.878557 28.167433
11499 3833 1 0.4238 22.073445 33.356429 28.704631
11500 3834 1 0.4238 30.96322 10.430282 27.580285
11501 3834 2 -0.8476 31.857492 10.263271 27.165094
11502 3834 1 0.4238 31.772245 10.287293 26.169024
11503 3835 1 0.4238 34.466742 12.937003 48.177999
11504 3835 2 -0.8476 33.575177 13.388029 48.136938
11505 3835 1 0.4238 32.852912 12.696911 48.11068
11506 3836 1 0.4238 1.718474 36.020935 17.618905
11507 3836 2 -0.8476 1.507591 35.043909 17.649714
11508 3836 1 0.4238 1.501217 34.674829 16.720338
11509 3837 1 0.4238 31.845811 27.830764 18.121193
11510 3837 2 -0.8476 31.27323 27.718799 18.93336
11511 3837 1 0.4238 31.187963 28.596638 19.404665
11512 3838 1 0.4238 1.76703 16.416504 41.760606
11513 3838 2 -0.8476 1.499889 17.374494 41.656245
11514 3838 1 0.4238 1.500077 17.616784 40.686042
11515 3839 1 0.4238 24.896493 39.340184 6.1992
11516 3839 2 -0.8476 25.734836 39.741145 6.56854
11517 3839 1 0.4238 26.525272 39.365301 6.084853
11518 3840 1 0.4238 48.177994 35.534312 19.638905
11519 3840 2 -0.8476 47.873211 34.711415 19.159376
11520 3840 1 0.4238 48.155426 34.760163 18.201265
11521 3841 1 0.4238 44.772829 13.794427 30.687363
11522 3841 2 -0.8476 44.756171 14.752658 30.972875
11523 3841 1 0.4238 45.027681 14.81914 31.933012
11524 3842 1 0.4238 22.813975 6.31453 41.189489
11525 3842 2 -0.8476 23.148809 7.066397 40.621527
11526 3842 1 0.4238 23.94295 6.75971 40.096853
11527 3843 1 0.4238 6.954994 39.251833 14.244454
11528 3843 2 -0.8476 7.911679 39.290121 14.533048
11529 3843 1 0.4238 8.077678 38.592722 15.230242
11530 3844 1 0.4238 3.653736 26.828386 23.573135
11531 3844 2 -0.8476 4.283545 26.205227 24.03683
11532 3844 1 0.4238 4.040429 25.260611 23.816392
11533 3845 1 0.4238 19.133067 16.107745 39.844193
11534 3845 2 -0.8476 19.841038 15.423091 39.670916
11535 3845 1 0.4238 19.52378 14.785975 38.96847
11536 3846 1 0.4238 48.17801 6.469084 24.61424
11537 3846 2 -0.8476 47.858803 5.810941 23.932364
11538 3846 1 0.4238 48.17755 6.088783 23.026161
11539 3847 1 0.4238 41.357388 10.483146 25.700208
11540 3847 2 -0.8476 41.304781 9.64286 26.239793
11541 3847 1 0.4238 40.366228 9.297902 26.228813
11542 3848 1 0.4238 36.938687 27.118461 20.760891
11543 3848 2 -0.8476 37.042151 26.875776 21.725463
11544 3848 1 0.4238 36.139254 26.745287 22.135035
11545 3849 1 0.4238 30.016126 43.410543 6.439692
11546 3849 2 -0.8476 30.616554 43.221178 7.216627
11547 3849 1 0.4238 31.184381 44.023118 7.402271
11548 3850 1 0.4238 14.228882 31.915684 22.989663
11549 3850 2 -0.8476 13.560002 31.172853 23.017966
11550 3850 1 0.4238 13.629598 30.694841 23.893558
11551 3851 1 0.4238 1.524907 45.434421 48.138028
11552 3851 2 -0.8476 2.366492 45.915946 47.893348
11553 3851 1 0.4238 2.703465 45.573546 47.016301
11554 3852 1 0.4238 26.116021 37.869525 48.176741
11555 3852 2 -0.8476 25.360505 37.486904 47.644955
11556 3852 1 0.4238 24.90534 36.773681 48.178
11557 3853 1 0.4238 40.823105 40.988079 25.959849
11558 3853 2 -0.8476 41.020641 41.913967 25.637809
11559 3853 1 0.4238 40.761265 42.574394 26.342479
11560 3854 1 0.4238 41.404471 27.702818 9.401364
11561 3854 2 -0.8476 42.241089 28.247908 9.455661
11562 3854 1 0.4238 42.990943 27.752135 9.017566
11563 3855 1 0.4238 30.11398 10.844672 1.748067
11564 3855 2 -0.8476 30.478799 11.771689 1.6612
11565 3855 1 0.4238 31.464757 11.728123 1.499994
11566 3856 1 0.4238 17.905674 26.902774 14.37446
11567 3856 2 -0.8476 18.183748 26.988092 15.331223
11568 3856 1 0.4238 18.176423 26.085756 15.762193
11569 3857 1 0.4238 36.477971 35.557029 1.501916
11570 3857 2 -0.8476 37.373809 35.114108 1.537909
11571 3857 1 0.4238 37.834062 35.361748 2.390459
11572 3858 1 0.4238 2.588094 33.266807 32.522461
11573 3858 2 -0.8476 1.6404 33.15098 32.819882
11574 3858 1 0.4238 1.5 33.637012 33.682472
11575 3859 1 0.4238 45.109297 3.137387 43.718428
11576 3859 2 -0.8476 45.949547 2.652024 43.476763
11577 3859 1 0.4238 45.72167 1.738291 43.140366
11578 3860 1 0.4238 38.648535 34.713809 44.605138
11579 3860 2 -0.8476 38.519992 33.723478 44.552971
11580 3860 1 0.4238 37.557894 33.521437 44.369814
11581 3861 1 0.4238 34.477267 11.471977 40.430147
11582 3861 2 -0.8476 35.394294 11.870682 40.420372
11583 3861 1 0.4238 35.892406 11.581043 41.237681
11584 3862 1 0.4238 39.450585 13.339148 26.698481
11585 3862 2 -0.8476 38.867745 12.546742 26.878455
11586 3862 1 0.4238 39.43958 11.748195 27.066409
11587 3863 1 0.4238 37.301763 3.30675 3.416536
11588 3863 2 -0.8476 37.900869 4.034345 3.750718
11589 3863 1 0.4238 38.604097 4.227647 3.066537
11590 3864 1 0.4238 23.062867 9.381584 38.117214
11591 3864 2 -0.8476 23.943508 9.373209 38.590924
11592 3864 1 0.4238 24.440304 8.537682 38.356216
11593 3865 1 0.4238 23.478578 1.54314 37.85697
11594 3865 2 -0.8476 23.48272 1.896038 36.921317
11595 3865 1 0.4238 23.777949 2.851449 36.926738
11596 3866 1 0.4238 15.437738 1.499865 37.844732
11597 3866 2 -0.8476 14.562605 1.657064 37.387096
11598 3866 1 0.4238 14.667017 1.499805 36.405074
11599 3867 1 0.4238 36.272998 38.021009 35.462049
11600 3867 2 -0.8476 35.710785 38.784082 35.780855
11601 3867 1 0.4238 36.025849 39.075682 36.684018
11602 3868 1 0.4238 44.933188 5.308173 18.058701
11603 3868 2 -0.8476 45.00466 6.225275 17.666508
11604 3868 1 0.4238 45.567809 6.799114 18.261126
11605 3869 1 0.4238 16.138059 46.618762 37.590476
11606 3869 2 -0.8476 16.889538 47.272065 37.682529
11607 3869 1 0.4238 16.520147 48.178004 37.88947
11608 3870 1 0.4238 26.553404 27.633867 35.212695
11609 3870 2 -0.8476 27.00787 26.764218 35.405495
11610 3870 1 0.4238 27.559011 26.852903 36.23518
11611 3871 1 0.4238 35.360552 16.160925 9.732254
11612 3871 2 -0.8476 35.14553 15.232009 10.033717
11613 3871 1 0.4238 34.289832 14.933976 9.610685
11614 3872 1 0.4238 9.729384 36.777648 3.609833
11615 3872 2 -0.8476 9.072065 37.450759 3.948734
11616 3872 1 0.4238 8.161541 37.038842 3.984361
11617 3873 1 0.4238 46.65423 29.967052 14.596259
11618 3873 2 -0.8476 47.277824 29.955315 15.37792
11619 3873 1 0.4238 48.178003 29.636328 15.081401
11620 3874 1 0.4238 11.119246 22.589196 40.797766
11621 3874 2 -0.8476 11.255967 23.108568 39.954226
11622 3874 1 0.4238 12.141859 22.870488 39.556089
11623 3875 1 0.4238 17.154042 14.080981 15.694608
11624 3875 2 -0.8476 17.4266 14.641913 16.476316
11625 3875 1 0.4238 17.225988 15.602407 16.28343
11626 3876 1 0.4238 5.611978 35.91363 39.804405
11627 3876 2 -0.8476 6.520488 35.662837 40.138638
11628 3876 1 0.4238 6.446011 34.86985 40.743307
11629 3877 1 0.4238 34.996823 16.749953 35.696466
11630 3877 2 -0.8476 35.134476 15.774293 35.525764
11631 3877 1 0.4238 36.113659 15.582375 35.459684
11632 3878 1 0.4238 6.38568 22.725971 14.389758
11633 3878 2 -0.8476 5.461575 22.393399 14.20154
11634 3878 1 0.4238 5.510288 21.596878 13.598896
11635 3879 1 0.4238 16.479769 14.879405 6.701424
11636 3879 2 -0.8476 15.616342 14.579356 7.106966
11637 3879 1 0.4238 15.6062 14.812083 8.079455
11638 3880 1 0.4238 5.07045 9.067965 30.705062
11639 3880 2 -0.8476 4.146024 8.736714 30.516089
11640 3880 1 0.4238 3.496963 9.492524 30.602522
11641 3881 1 0.4238 15.760371 32.744602 26.162317
11642 3881 2 -0.8476 15.088461 32.184011 25.678298
11643 3881 1 0.4238 14.78135 31.442494 26.274816
11644 3882 1 0.4238 9.095943 11.44178 26.993865
11645 3882 2 -0.8476 8.226022 10.960747 27.102695
11646 3882 1 0.4238 7.653334 11.12165 26.298868
11647 3883 1 0.4238 12.149384 34.286947 3.610244
11648 3883 2 -0.8476 11.965085 35.20136 3.24985
11649 3883 1 0.4238 11.453841 35.125429 2.393776
11650 3884 1 0.4238 7.818647 3.04761 41.400654
11651 3884 2 -0.8476 6.936684 2.576424 41.389504
11652 3884 1 0.4238 7.086942 1.587777 41.389635
11653 3885 1 0.4238 46.294295 11.845404 30.318193
11654 3885 2 -0.8476 45.687311 11.051938 30.362706
11655 3885 1 0.4238 46.142185 10.260943 29.953541
11656 3886 1 0.4238 8.552357 29.072528 15.37605
11657 3886 2 -0.8476 8.716602 29.984988 15.001295
11658 3886 1 0.4238 8.464154 30.674522 15.680127
11659 3887 1 0.4238 39.008328 33.223121 41.138715
11660 3887 2 -0.8476 38.801091 32.951596 42.07857
11661 3887 1 0.4238 38.970177 31.972033 42.1875
11662 3888 1 0.4238 5.058154 22.898591 23.069959
11663 3888 2 -0.8476 4.390282 22.739837 22.342811
11664 3888 1 0.4238 4.868038 22.609967 21.473971
11665 3889 1 0.4238 1.499403 48.055862 9.879305
11666 3889 2 -0.8476 1.611871 47.065171 9.802604
11667 3889 1 0.4238 1.49999 46.646259 10.703712
11668 3890 1 0.4238 45.581823 39.918248 21.110501
11669 3890 2 -0.8476 45.702586 39.763893 20.129893
11670 3890 1 0.4238 45.673197 40.639893 19.64848
11671 3891 1 0.4238 48.178 20.453781 15.24341
11672 3891 2 -0.8476 48.144559 19.454372 15.251375
11673 3891 1 0.4238 47.252957 19.148038 14.9179
11674 3892 1 0.4238 13.454723 32.992152 5.437731
11675 3892 2 -0.8476 12.759988 32.429242 5.885475
11676 3892 1 0.4238 11.924349 32.964955 6.006802
11677 3893 1 0.4238 26.648612 43.615637 29.103385
11678 3893 2 -0.8476 25.651711 43.652698 29.172771
11679 3893 1 0.4238 25.292409 42.729254 29.307505
11680 3894 1 0.4238 14.086545 9.359672 46.163004
11681 3894 2 -0.8476 13.202608 9.75709 45.916601
11682 3894 1 0.4238 12.485338 9.069171 46.027466
11683 3895 1 0.4238 16.323362 1.63734 2.710908
11684 3895 2 -0.8476 17.140571 1.502819 2.150487
11685 3895 1 0.4238 17.227935 2.258738 1.501678
11686 3896 1 0.4238 15.383635 29.256558 41.320411
11687 3896 2 -0.8476 14.640699 28.65397 41.02898
11688 3896 1 0.4238 14.944841 28.101018 40.25326
11689 3897 1 0.4238 10.461659 1.500001 18.937324
11690 3897 2 -0.8476 11.278304 2.077055 18.927366
11691 3897 1 0.4238 12.094545 1.500002 18.954928
11692 3898 1 0.4238 26.23227 12.733423 4.046717
11693 3898 2 -0.8476 26.000813 13.690831 3.874097
11694 3898 1 0.4238 26.82215 14.186686 3.592081
11695 3899 1 0.4238 44.304774 8.320438 8.644382
11696 3899 2 -0.8476 44.512502 8.807548 9.492659
11697 3899 1 0.4238 44.554229 9.790057 9.311179
11698 3900 1 0.4238 6.866831 35.699277 35.414724
11699 3900 2 -0.8476 7.186816 36.263783 36.175607
11700 3900 1 0.4238 7.344698 37.197568 35.854487
11701 3901 1 0.4238 43.730766 42.004668 29.351166
11702 3901 2 -0.8476 44.714656 42.147174 29.459109
11703 3901 1 0.4238 45.148307 41.287523 29.729193
11704 3902 1 0.4238 42.868118 12.907724 25.445127
11705 3902 2 -0.8476 41.899864 13.156266 25.471803
11706 3902 1 0.4238 41.811616 14.152296 25.483454
11707 3903 1 0.4238 27.859334 47.440255 34.281684
11708 3903 2 -0.8476 27.754066 48.178009 34.948495
11709 3903 1 0.4238 27.330294 47.818079 35.779679
11710 3904 1 0.4238 45.468016 5.199623 48.179657
11711 3904 2 -0.8476 45.17774 4.24268 48.180495
11712 3904 1 0.4238 44.178766 4.197396 48.180983
11713 3905 1 0.4238 44.336974 1.944683 3.281964
11714 3905 2 -0.8476 43.818941 1.796633 4.124415
11715 3905 1 0.4238 44.440018 1.499913 4.849825
11716 3906 1 0.4238 36.529451 38.159166 42.960116
11717 3906 2 -0.8476 37.331288 38.271932 43.546922
11718 3906 1 0.4238 38.028375 37.602131 43.29112
11719 3907 1 0.4238 22.632588 8.241002 48.176483
11720 3907 2 -0.8476 23.301543 8.98356 48.143205
11721 3907 1 0.4238 24.225229 8.60042 48.145857
11722 3908 1 0.4238 8.478921 20.678039 4.020528
11723 3908 2 -0.8476 7.726814 21.258745 4.332161
11724 3908 1 0.4238 8.072695 22.176853 4.525663
11725 3909 1 0.4238 43.111197 19.04984 47.337456
11726 3909 2 -0.8476 42.831632 20.007858 47.273859
11727 3909 1 0.4238 42.551825 20.334067 48.176796
11728 3910 1 0.4238 1.499982 30.909488 5.43325
11729 3910 2 -0.8476 1.954338 30.018793 5.418302
11730 3910 1 0.4238 1.499986 29.423933 4.755199
11731 3911 1 0.4238 35.379735 31.310212 30.467402
11732 3911 2 -0.8476 35.279298 32.254727 30.154668
11733 3911 1 0.4238 35.834092 32.395088 29.334606
11734 3912 1 0.4238 12.054337 4.980435 15.896824
11735 3912 2 -0.8476 11.072262 4.794941 15.863334
11736 3912 1 0.4238 10.569733 5.659488 15.858579
11737 3913 1 0.4238 26.750572 35.592565 24.352772
11738 3913 2 -0.8476 26.690535 34.707067 24.813519
11739 3913 1 0.4238 25.741728 34.39129 24.806419
11740 3914 1 0.4238 7.530292 22.070606 38.773652
11741 3914 2 -0.8476 8.522139 22.156813 38.867503
11742 3914 1 0.4238 8.768892 23.124327 38.922542
11743 3915 1 0.4238 27.025917 18.5753 18.162888
11744 3915 2 -0.8476 27.073585 18.738981 17.177527
11745 3915 1 0.4238 26.885955 17.887036 16.688666
11746 3916 1 0.4238 29.430417 30.898938 7.896335
11747 3916 2 -0.8476 28.831915 30.216245 8.315532
11748 3916 1 0.4238 27.887428 30.381751 8.031716
11749 3917 1 0.4238 2.513906 41.045188 48.080554
11750 3917 2 -0.8476 1.554616 40.764149 48.108506
11751 3917 1 0.4238 1.5 39.765707 48.119945
11752 3918 1 0.4238 39.508857 15.584742 25.117578
11753 3918 2 -0.8476 38.565884 15.337556 24.894642
11754 3918 1 0.4238 38.043856 16.165477 24.689623
11755 3919 1 0.4238 33.12276 31.2519 11.197345
11756 3919 2 -0.8476 33.559159 31.347744 12.091979
11757 3919 1 0.4238 34.49998 31.012616 12.041522
11758 3920 1 0.4238 39.679395 48.178007 31.964773
11759 3920 2 -0.8476 38.999105 47.752252 32.561379
11760 3920 1 0.4238 39.03558 48.178007 33.465482
11761 3921 1 0.4238 42.142365 3.874372 20.318765
11762 3921 2 -0.8476 43.089767 3.851157 19.999564
11763 3921 1 0.4238 43.469387 4.776173 20.014806
11764 3922 1 0.4238 14.233508 37.553856 17.453987
11765 3922 2 -0.8476 14.410614 38.537109 17.496959
11766 3922 1 0.4238 15.298635 38.697311 17.927951
11767 3923 1 0.4238 27.982336 28.907377 5.613481
11768 3923 2 -0.8476 28.806864 29.46965 5.676753
11769 3923 1 0.4238 29.591924 28.887429 5.888171
11770 3924 1 0.4238 5.68311 30.148036 11.475969
11771 3924 2 -0.8476 5.704135 29.242917 11.900607
11772 3924 1 0.4238 6.653172 28.973187 12.063621
11773 3925 1 0.4238 23.764917 23.967852 36.261174
11774 3925 2 -0.8476 24.680919 24.213275 36.578519
11775 3925 1 0.4238 25.046882 24.946519 36.005437
11776 3926 1 0.4238 46.033956 43.5749 15.086283
11777 3926 2 -0.8476 45.716816 42.675238 15.386333
11778 3926 1 0.4238 46.199571 41.964109 14.875214
11779 3927 1 0.4238 23.311042 7.445097 45.90572
11780 3927 2 -0.8476 24.244105 7.085612 45.892877
11781 3927 1 0.4238 24.222135 6.109038 45.678821
11782 3928 1 0.4238 38.252603 27.35694 38.104749
11783 3928 2 -0.8476 38.832493 28.170742 38.142892
11784 3928 1 0.4238 39.793364 27.894607 38.164715
11785 3929 1 0.4238 23.100799 15.389957 31.912141
11786 3929 2 -0.8476 23.293929 16.040297 32.646823
11787 3929 1 0.4238 22.437651 16.44607 32.966411
11788 3930 1 0.4238 48.146435 22.773775 17.941074
11789 3930 2 -0.8476 48.00979 22.436064 17.009795
11790 3930 1 0.4238 48.178001 23.176261 16.358786
11791 3931 1 0.4238 36.356806 21.392887 32.191516
11792 3931 2 -0.8476 37.043509 20.849175 32.674026
11793 3931 1 0.4238 37.852479 20.744518 32.095568
11794 3932 1 0.4238 18.289455 19.291063 1.500003
11795 3932 2 -0.8476 18.277518 19.027183 2.464484
11796 3932 1 0.4238 17.578991 18.326493 2.60972
11797 3933 1 0.4238 4.466636 45.785013 6.42471
11798 3933 2 -0.8476 5.420873 46.049111 6.284411
11799 3933 1 0.4238 5.976691 45.229405 6.146036
11800 3934 1 0.4238 20.593239 5.196712 48.177984
11801 3934 2 -0.8476 20.429406 4.210228 48.175337
11802 3934 1 0.4238 21.304875 3.726955 48.174245
11803 3935 1 0.4238 45.888822 33.722752 36.834494
11804 3935 2 -0.8476 45.787569 33.657031 37.827181
11805 3935 1 0.4238 45.296945 34.459809 38.166054
11806 3936 1 0.4238 4.868845 37.469558 37.024338
11807 3936 2 -0.8476 4.787543 37.268726 36.048092
11808 3936 1 0.4238 4.945717 38.104091 35.521646
11809 3937 1 0.4238 47.930358 26.549509 28.72515
11810 3937 2 -0.8476 48.178002 26.101971 29.584441
11811 3937 1 0.4238 47.860693 26.65742 30.353071
11812 3938 1 0.4238 24.184696 1.5 31.076927
11813 3938 2 -0.8476 23.947674 2.459958 31.226266
11814 3938 1 0.4238 24.773068 2.975005 31.457461
11815 3939 1 0.4238 46.383471 41.22291 3.698752
11816 3939 2 -0.8476 46.985854 41.989172 3.922303
11817 3939 1 0.4238 47.939149 41.702448 3.827339
11818 3940 1 0.4238 14.356231 40.82348 24.648243
11819 3940 2 -0.8476 15.259411 40.74311 24.22657
11820 3940 1 0.4238 15.312864 41.351414 23.434668
11821 3941 1 0.4238 8.140943 39.29548 31.028801
11822 3941 2 -0.8476 7.72496 40.104787 31.443505
11823 3941 1 0.4238 8.442933 40.705357 31.7954
11824 3942 1 0.4238 13.666184 13.093278 20.643051
11825 3942 2 -0.8476 12.950101 12.397829 20.58326
11826 3942 1 0.4238 13.255608 11.65522 19.987276
11827 3943 1 0.4238 20.211124 20.161518 21.542681
11828 3943 2 -0.8476 21.005595 20.752907 21.680796
11829 3943 1 0.4238 21.218875 21.229216 20.827778
11830 3944 1 0.4238 14.882865 1.499865 42.981826
11831 3944 2 -0.8476 14.055793 2.056502 43.059981
11832 3944 1 0.4238 13.31301 1.499485 43.431471
11833 3945 1 0.4238 9.598425 33.029507 42.524328
11834 3945 2 -0.8476 9.051992 32.408186 41.962749
11835 3945 1 0.4238 8.372575 32.932867 41.449814
11836 3946 1 0.4238 21.388436 40.422079 21.549922
11837 3946 2 -0.8476 22.34371 40.475386 21.840802
11838 3946 1 0.4238 22.805131 41.205952 21.33745
11839 3947 1 0.4238 45.583272 36.810096 39.386154
11840 3947 2 -0.8476 45.468087 37.080925 38.430442
11841 3947 1 0.4238 44.54562 36.843896 38.125693
11842 3948 1 0.4238 4.612127 12.708476 20.687141
11843 3948 2 -0.8476 4.505536 13.394963 21.406428
11844 3948 1 0.4238 3.836635 13.074076 22.076951
11845 3949 1 0.4238 17.56805 34.570417 32.074038
11846 3949 2 -0.8476 16.96798 34.249951 31.341087
11847 3949 1 0.4238 17.326223 34.556226 30.459125
11848 3950 1 0.4238 38.89174 21.369335 10.533132
11849 3950 2 -0.8476 38.117273 20.786837 10.779906
11850 3950 1 0.4238 37.902963 20.176491 10.017313
11851 3951 1 0.4238 5.294062 34.145509 27.276951
11852 3951 2 -0.8476 4.8237 35.017278 27.139922
11853 3951 1 0.4238 3.911947 34.97185 27.548142
11854 3952 1 0.4238 39.305954 5.273248 19.627109
11855 3952 2 -0.8476 40.010378 5.180124 20.330753
11856 3952 1 0.4238 40.689127 5.906253 20.221047
11857 3953 1 0.4238 11.12953 28.810223 14.488419
11858 3953 2 -0.8476 11.110687 27.810735 14.462559
11859 3953 1 0.4238 12.041783 27.462507 14.353945
11860 3954 1 0.4238 47.625325 34.278237 26.155105
11861 3954 2 -0.8476 48.067441 34.908543 25.516946
11862 3954 1 0.4238 48.175746 34.462092 24.628718
11863 3955 1 0.4238 9.755145 1.503608 10.518183
11864 3955 2 -0.8476 8.993306 1.674305 11.143054
11865 3955 1 0.4238 8.129268 1.50124 10.670311
11866 3956 1 0.4238 39.30451 17.926418 30.672824
11867 3956 2 -0.8476 39.180123 17.490733 29.781361
11868 3956 1 0.4238 38.890889 18.175965 29.11293
11869 3957 1 0.4238 26.198097 10.874247 33.139759
11870 3957 2 -0.8476 26.537195 10.814303 34.078598
11871 3957 1 0.4238 27.003773 9.939526 34.209249
11872 3958 1 0.4238 39.01126 42.899662 19.043492
11873 3958 2 -0.8476 38.013287 42.874849 18.984902
11874 3958 1 0.4238 37.719496 41.967414 18.684489
11875 3959 1 0.4238 45.694672 10.969552 23.419847
11876 3959 2 -0.8476 46.018593 11.857513 23.746345
11877 3959 1 0.4238 45.320766 12.272885 24.329871
11878 3960 1 0.4238 15.540013 31.303002 13.029195
11879 3960 2 -0.8476 16.314794 31.908189 12.846263
11880 3960 1 0.4238 17.107732 31.362108 12.575997
11881 3961 1 0.4238 31.453916 46.651364 16.493812
11882 3961 2 -0.8476 31.514704 47.594746 16.167721
11883 3961 1 0.4238 30.882716 48.168761 16.68839
11884 3962 1 0.4238 38.758334 10.445319 21.814267
11885 3962 2 -0.8476 38.774344 10.356586 20.81834
11886 3962 1 0.4238 39.722372 10.331298 20.501158
11887 3963 1 0.4238 33.098528 10.734841 33.473379
11888 3963 2 -0.8476 32.406284 11.067678 32.833052
11889 3963 1 0.4238 32.465652 12.063662 32.766038
11890 3964 1 0.4238 11.141141 5.364054 48.109467
11891 3964 2 -0.8476 10.148278 5.460678 48.179386
11892 3964 1 0.4238 9.846982 6.225933 47.610524
11893 3965 1 0.4238 32.806715 33.852788 20.934567
11894 3965 2 -0.8476 32.154285 34.607295 20.863471
11895 3965 1 0.4238 31.541 34.445887 20.090277
11896 3966 1 0.4238 13.002574 17.782735 8.568389
11897 3966 2 -0.8476 12.341406 17.272715 8.018173
11898 3966 1 0.4238 11.604918 16.939099 8.606634
11899 3967 1 0.4238 13.482766 47.180125 48.038626
11900 3967 2 -0.8476 13.773233 48.126932 48.17714
11901 3967 1 0.4238 14.771284 48.178024 48.141312
11902 3968 1 0.4238 29.87295 16.575196 46.572432
11903 3968 2 -0.8476 29.117372 17.024613 46.095855
11904 3968 1 0.4238 28.296843 16.456841 46.161939
11905 3969 1 0.4238 16.83956 10.915133 15.212037
11906 3969 2 -0.8476 16.091996 11.556539 15.384508
11907 3969 1 0.4238 15.254562 11.214868 14.957934
11908 3970 1 0.4238 31.020818 41.884323 43.805193
11909 3970 2 -0.8476 30.913425 42.86118 43.990171
11910 3970 1 0.4238 31.782825 43.237289 44.310617
11911 3971 1 0.4238 9.42126 30.684381 39.920609
11912 3971 2 -0.8476 10.348143 31.042492 40.033062
11913 3971 1 0.4238 10.386527 31.981345 39.690891
11914 3972 1 0.4238 7.102287 12.834723 20.869235
11915 3972 2 -0.8476 7.822987 12.486033 21.468407
11916 3972 1 0.4238 8.522081 13.190035 21.593503
11917 3973 1 0.4238 31.286227 1.553319 7.421239
11918 3973 2 -0.8476 32.231256 1.499695 7.098679
11919 3973 1 0.4238 32.242714 1.500694 6.098745
11920 3974 1 0.4238 40.338409 16.562842 27.484806
11921 3974 2 -0.8476 40.751214 17.432337 27.213569
11922 3974 1 0.4238 41.72803 17.418565 27.427206
11923 3975 1 0.4238 33.235466 23.281959 20.512774
11924 3975 2 -0.8476 32.444479 23.681841 20.049704
11925 3975 1 0.4238 32.254473 24.585088 20.434465
11926 3976 1 0.4238 23.949436 6.115937 48.178233
11927 3976 2 -0.8476 23.234033 5.450537 47.965064
11928 3976 1 0.4238 23.644236 4.546083 47.848025
11929 3977 1 0.4238 44.784604 11.679624 1.496721
11930 3977 2 -0.8476 44.066637 12.373049 1.55742
11931 3977 1 0.4238 43.17577 11.924852 1.631413
11932 3978 1 0.4238 18.043063 42.074252 6.264677
11933 3978 2 -0.8476 17.403588 41.567995 6.843275
11934 3978 1 0.4238 16.536922 42.064132 6.895598
11935 3979 1 0.4238 39.101339 26.10394 7.292757
11936 3979 2 -0.8476 38.798907 25.155837 7.390912
11937 3979 1 0.4238 37.80191 25.115466 7.324825
11938 3980 1 0.4238 27.782795 34.253225 32.472432
11939 3980 2 -0.8476 27.210041 33.542973 32.063173
11940 3980 1 0.4238 26.886656 32.922692 32.777788
11941 3981 1 0.4238 45.770368 4.753399 6.679931
11942 3981 2 -0.8476 45.731471 3.777761 6.895846
11943 3981 1 0.4238 45.721816 3.656164 7.888378
11944 3982 1 0.4238 1.499999 10.056072 14.176184
11945 3982 2 -0.8476 1.554112 9.788711 15.13826
11946 3982 1 0.4238 1.499992 10.604268 15.714399
11947 3983 1 0.4238 5.006721 10.264299 48.176474
11948 3983 2 -0.8476 4.074487 10.046248 47.887695
11949 3983 1 0.4238 3.841222 9.120553 48.185479
11950 3984 1 0.4238 13.18207 32.689422 12.800138
11951 3984 2 -0.8476 13.745087 33.497177 12.974905
11952 3984 1 0.4238 13.177528 34.220204 13.368744
11953 3985 1 0.4238 1.499694 38.655354 17.050151
11954 3985 2 -0.8476 1.697811 39.003307 17.966491
11955 3985 1 0.4238 1.504571 38.291877 18.642158
11956 3986 1 0.4238 35.643005 10.79968 11.796794
11957 3986 2 -0.8476 35.876606 9.888622 11.457081
11958 3986 1 0.4238 36.77642 9.915846 11.021659
11959 3987 1 0.4238 28.685706 12.303053 18.016802
11960 3987 2 -0.8476 28.635063 12.490844 17.0359
11961 3987 1 0.4238 29.058732 11.739243 16.530331
11962 3988 1 0.4238 33.096623 25.635486 46.625266
11963 3988 2 -0.8476 32.387291 24.980406 46.885493
11964 3988 1 0.4238 32.439702 24.805402 47.868665
11965 3989 1 0.4238 41.804751 44.242021 40.493173
11966 3989 2 -0.8476 42.31083 43.767489 39.772963
11967 3989 1 0.4238 41.828607 42.927296 39.5249
11968 3990 1 0.4238 16.835712 29.18874 2.967561
11969 3990 2 -0.8476 16.050335 29.457465 2.409915
11970 3990 1 0.4238 16.088638 28.983842 1.53002
11971 3991 1 0.4238 31.082607 23.105348 22.750565
11972 3991 2 -0.8476 30.721557 23.9792 23.07618
11973 3991 1 0.4238 29.724215 23.928915 23.128893
11974 3992 1 0.4238 26.672526 22.463961 15.138486
11975 3992 2 -0.8476 25.798009 22.454351 14.653587
11976 3992 1 0.4238 25.626245 23.356617 14.258096
11977 3993 1 0.4238 3.848444 16.681249 31.233972
11978 3993 2 -0.8476 4.399288 15.949438 30.832694
11979 3993 1 0.4238 3.804739 15.322524 30.329217
11980 3994 1 0.4238 48.178508 6.036213 18.60381
11981 3994 2 -0.8476 47.606621 5.929144 19.417124
11982 3994 1 0.4238 48.178317 5.981955 20.235888
11983 3995 1 0.4238 38.78542 1.500286 32.554846
11984 3995 2 -0.8476 39.635651 1.909596 32.223829
11985 3995 1 0.4238 39.853758 1.540303 31.320473
11986 3996 1 0.4238 1.499995 22.948286 42.590207
11987 3996 2 -0.8476 2.062339 23.666647 42.180661
11988 3996 1 0.4238 1.5 24.477005 42.016059
11989 3997 1 0.4238 3.826238 38.062059 46.60012
11990 3997 2 -0.8476 3.808522 38.597309 47.444628
11991 3997 1 0.4238 4.242214 38.075434 48.179174
11992 3998 1 0.4238 34.847179 32.313222 39.214443
11993 3998 2 -0.8476 35.060506 33.288837 39.266085
11994 3998 1 0.4238 34.210879 33.81622 39.266827
11995 3999 1 0.4238 13.888576 42.223335 35.06758
11996 3999 2 -0.8476 14.510436 42.588703 35.760254
11997 3999 1 0.4238 15.449112 42.325424 35.537611
11998 4000 1 0.4238 38.469271 6.670702 34.560562
11999 4000 2 -0.8476 38.498763 7.67025 34.554812
12000 4000 1 0.4238 38.048149 8.012266 33.730208
12001 4001 1 0.4238 1.499973 42.370945 36.654059
12002 4001 2 -0.8476 2.068623 43.173243 36.835596
12003 4001 1 0.4238 1.499879 43.995587 36.818879
12004 4002 1 0.4238 3.425953 38.792437 12.112027
12005 4002 2 -0.8476 3.743879 39.202275 12.966986
12006 4002 1 0.4238 3.960353 38.479203 13.622963
12007 4003 1 0.4238 15.56753 18.996708 44.396871
12008 4003 2 -0.8476 16.128141 18.488444 43.743126
12009 4003 1 0.4238 15.709275 17.597722 43.566587
12010 4004 1 0.4238 26.932152 30.181056 33.22685
12011 4004 2 -0.8476 26.11201 29.975977 33.760994
12012 4004 1 0.4238 25.526131 30.785606 33.796278
12013 4005 1 0.4238 34.887066 18.472317 8.492026
12014 4005 2 -0.8476 35.884248 18.545595 8.508071
12015 4005 1 0.4238 36.27523 17.92183 7.831278
12016 4006 1 0.4238 42.002317 34.117997 46.82724
12017 4006 2 -0.8476 41.979525 33.302627 46.248747
12018 4006 1 0.4238 41.052887 33.169083 45.897309
12019 4007 1 0.4238 1.499971 11.641286 6.844298
12020 4007 2 -0.8476 1.845217 11.990558 5.973199
12021 4007 1 0.4238 1.499916 11.422681 5.226016
12022 4008 1 0.4238 36.581591 3.723005 36.899404
12023 4008 2 -0.8476 37.551539 3.964329 36.93043
12024 4008 1 0.4238 37.647785 4.925363 37.189561
12025 4009 1 0.4238 9.960806 37.155669 16.075656
12026 4009 2 -0.8476 9.702225 37.013031 17.031056
12027 4009 1 0.4238 9.253418 37.835203 17.381206
12028 4010 1 0.4238 27.065731 25.517265 38.57552
12029 4010 2 -0.8476 27.793771 26.02533 39.035768
12030 4010 1 0.4238 27.605338 27.005592 38.975937
12031 4011 1 0.4238 30.925313 8.125747 33.043309
12032 4011 2 -0.8476 31.052126 8.847219 33.724042
12033 4011 1 0.4238 30.31729 9.519932 33.6376
12034 4012 1 0.4238 41.174866 1.499972 7.6563
12035 4012 2 -0.8476 41.422208 1.814082 6.739699
12036 4012 1 0.4238 40.736279 1.499969 6.08332
12037 4013 1 0.4238 43.566402 42.184753 19.542051
12038 4013 2 -0.8476 43.527908 41.864604 20.488635
12039 4013 1 0.4238 43.179227 40.927599 20.509668
12040 4014 1 0.4238 4.108957 20.887429 42.071602
12041 4014 2 -0.8476 3.619849 21.735854 41.869246
12042 4014 1 0.4238 4.274048 22.440035 41.593287
12043 4015 1 0.4238 1.499998 4.562997 13.356908
12044 4015 2 -0.8476 1.956025 3.966517 14.017401
12045 4015 1 0.4238 1.499907 4.040969 14.9042
12046 4016 1 0.4238 3.57163 28.784204 10.679171
12047 4016 2 -0.8476 4.058686 28.754973 9.806289
12048 4016 1 0.4238 4.140608 29.681511 9.439119
12049 4017 1 0.4238 40.143634 25.123459 36.973097
12050 4017 2 -0.8476 40.285391 24.300344 36.4232
12051 4017 1 0.4238 41.156822 23.878386 36.673318
12052 4018 1 0.4238 9.879673 1.499952 34.02721
12053 4018 2 -0.8476 10.726376 1.825917 33.606685
12054 4018 1 0.4238 10.776693 1.499888 32.662665
12055 4019 1 0.4238 3.12761 43.66942 25.668149
12056 4019 2 -0.8476 2.345731 44.100221 25.21751
12057 4019 1 0.4238 1.499272 43.791303 25.651189
12058 4020 1 0.4238 4.890723 5.058281 6.475619
12059 4020 2 -0.8476 3.94754 5.260319 6.739412
12060 4020 1 0.4238 3.945688 5.91886 7.491955
12061 4021 1 0.4238 41.869792 30.786758 23.068903
12062 4021 2 -0.8476 42.174888 31.581223 22.543791
12063 4021 1 0.4238 42.997562 31.963169 22.964891
12064 4022 1 0.4238 18.435967 23.799981 48.178026
12065 4022 2 -0.8476 17.937698 24.657997 48.053376
12066 4022 1 0.4238 16.957118 24.469271 48.000033
12067 4023 1 0.4238 39.23877 15.580248 1.499918
12068 4023 2 -0.8476 39.954943 16.222741 1.772497
12069 4023 1 0.4238 39.595417 17.155366 1.741647
12070 4024 1 0.4238 10.400771 35.36854 14.028931
12071 4024 2 -0.8476 9.488346 35.251848 13.636677
12072 4024 1 0.4238 9.556784 35.211164 12.639851
12073 4025 1 0.4238 5.447806 42.79537 40.744662
12074 4025 2 -0.8476 4.526441 43.181026 40.793197
12075 4025 1 0.4238 3.85482 42.440147 40.797937
12076 4026 1 0.4238 31.941976 35.743691 12.473399
12077 4026 2 -0.8476 31.612121 36.538057 11.963321
12078 4026 1 0.4238 31.847053 36.434605 10.996831
12079 4027 1 0.4238 38.773881 3.990479 13.646989
12080 4027 2 -0.8476 37.880002 3.86291 13.217213
12081 4027 1 0.4238 37.981249 3.890986 12.222748
12082 4028 1 0.4238 26.22335 10.389856 37.46688
12083 4028 2 -0.8476 25.717 10.223535 36.620743
12084 4028 1 0.4238 25.167347 11.028548 36.397509
12085 4029 1 0.4238 48.120605 15.414039 31.388917
12086 4029 2 -0.8476 48.169903 14.483976 31.02484
12087 4029 1 0.4238 47.270321 14.052196 31.090547
12088 4030 1 0.4238 4.137067 33.91631 40.645309
12089 4030 2 -0.8476 3.903684 33.532376 41.538688
12090 4030 1 0.4238 4.665996 32.978003 41.87268
12091 4031 1 0.4238 4.892275 6.040751 44.592099
12092 4031 2 -0.8476 3.972107 5.743638 44.847078
12093 4031 1 0.4238 3.967846 5.457221 45.805174
12094 4032 1 0.4238 1.500007 11.778716 47.926492
12095 4032 2 -0.8476 1.626033 12.77065 47.940129
12096 4032 1 0.4238 2.574484 12.982937 48.175445
12097 4033 1 0.4238 17.921705 26.522846 3.487385
12098 4033 2 -0.8476 18.029186 25.581991 3.808695
12099 4033 1 0.4238 17.127779 25.167583 3.934117
12100 4034 1 0.4238 5.823248 2.562981 4.129281
12101 4034 2 -0.8476 6.609211 1.955042 4.016709
12102 4034 1 0.4238 6.805026 1.499162 4.884943
12103 4035 1 0.4238 7.764866 21.998242 18.851468
12104 4035 2 -0.8476 6.888258 22.13474 18.390028
12105 4035 1 0.4238 6.875596 23.036792 17.958586
12106 4036 1 0.4238 30.743228 33.85278 6.718793
12107 4036 2 -0.8476 29.93432 33.50066 7.189622
12108 4036 1 0.4238 30.026752 33.656684 8.17304
12109 4037 1 0.4238 47.562897 11.200409 48.177943
12110 4037 2 -0.8476 46.752082 11.785636 48.168524
12111 4037 1 0.4238 45.930049 11.216212 48.164391
12112 4038 1 0.4238 46.5795 36.751774 1.499273
12113 4038 2 -0.8476 47.228143 35.991903 1.542386
12114 4038 1 0.4238 48.161841 36.348367 1.508594
12115 4039 1 0.4238 9.94765 28.490111 17.687578
12116 4039 2 -0.8476 10.589955 29.051543 17.165813
12117 4039 1 0.4238 11.321 29.369796 17.769376
12118 4040 1 0.4238 4.253471 14.816038 3.756763
12119 4040 2 -0.8476 5.052931 14.22672 3.640288
12120 4040 1 0.4238 5.713751 14.676361 3.039339
12121 4041 1 0.4238 9.491934 48.144072 8.005533
12122 4041 2 -0.8476 9.006346 48.17887 8.879028
12123 4041 1 0.4238 9.651147 48.014958 9.625596
12124 4042 1 0.4238 18.46288 9.978763 1.652915
12125 4042 2 -0.8476 17.526477 10.294623 1.5
12126 4042 1 0.4238 16.890737 9.537203 1.648823
12127 4043 1 0.4238 4.412418 28.863755 45.130159
12128 4043 2 -0.8476 3.708381 28.645629 44.454324
12129 4043 1 0.4238 3.990071 27.844508 43.926255
12130 4044 1 0.4238 19.237396 9.185259 5.799081
12131 4044 2 -0.8476 18.445538 9.795962 5.800613
12132 4044 1 0.4238 18.752986 10.740681 5.686675
12133 4045 1 0.4238 48.131435 11.460158 1.506611
12134 4045 2 -0.8476 47.213951 11.062387 1.507006
12135 4045 1 0.4238 47.283166 10.064787 1.509126
12136 4046 1 0.4238 7.379801 4.949391 25.466688
12137 4046 2 -0.8476 6.957234 4.045733 25.536248
12138 4046 1 0.4238 6.336703 3.907636 24.764322
12139 4047 1 0.4238 15.793847 28.503522 13.206223
12140 4047 2 -0.8476 16.384258 28.709628 12.42588
12141 4047 1 0.4238 16.620197 27.860664 11.953025
12142 4048 1 0.4238 32.198521 21.105079 13.900498
12143 4048 2 -0.8476 31.824555 20.211554 14.149017
12144 4048 1 0.4238 32.494151 19.499514 13.937738
12145 4049 1 0.4238 3.125736 17.028528 4.060776
12146 4049 2 -0.8476 2.342378 16.412082 3.981115
12147 4049 1 0.4238 1.499935 16.948478 3.930428
12148 4050 1 0.4238 21.421583 13.240826 26.339816
12149 4050 2 -0.8476 21.109776 13.492829 25.423699
12150 4050 1 0.4238 20.696353 14.402961 25.450934
12151 4051 1 0.4238 9.107458 39.269078 35.544403
12152 4051 2 -0.8476 9.186289 39.914788 34.7849
12153 4051 1 0.4238 9.479394 39.427594 33.962264
12154 4052 1 0.4238 42.972385 43.479152 8.813631
12155 4052 2 -0.8476 42.519602 43.570104 7.926662
12156 4052 1 0.4238 43.190717 43.839208 7.235875
12157 4053 1 0.4238 44.426803 1.501442 28.356655
12158 4053 2 -0.8476 43.618628 2.07806 28.236801
12159 4053 1 0.4238 42.810806 1.49997 28.121757
12160 4054 1 0.4238 48.178015 14.048932 33.649131
12161 4054 2 -0.8476 48.153191 13.441357 34.443005
12162 4054 1 0.4238 47.242634 13.468902 34.85547
12163 4055 1 0.4238 2.512742 7.068561 27.625525
12164 4055 2 -0.8476 1.57381 6.92593 27.312376
12165 4055 1 0.4238 1.49998 6.028084 26.8783
12166 4056 1 0.4238 48.175344 43.80594 12.137659
12167 4056 2 -0.8476 47.788502 43.660362 13.048241
12168 4056 1 0.4238 48.160982 42.818073 13.437866
12169 4057 1 0.4238 44.091388 3.996545 10.480095
12170 4057 2 -0.8476 45.01442 4.37415 10.406423
12171 4057 1 0.4238 45.684024 3.659528 10.608774
12172 4058 1 0.4238 43.815065 16.993344 29.306866
12173 4058 2 -0.8476 43.817841 17.986303 29.425292
12174 4058 1 0.4238 42.88293 18.306292 29.578744
12175 4059 1 0.4238 25.381613 10.941429 20.039264
12176 4059 2 -0.8476 26.33563 10.850808 20.324989
12177 4059 1 0.4238 26.874642 11.593315 19.92731
12178 4060 1 0.4238 43.487084 48.178155 1.512461
12179 4060 2 -0.8476 44.308125 48.101924 2.078219
12180 4060 1 0.4238 45.120014 48.17898 1.499514
12181 4061 1 0.4238 17.190606 8.739275 26.529366
12182 4061 2 -0.8476 16.613686 8.996099 25.753992
12183 4061 1 0.4238 16.16834 9.870801 25.945204
12184 4062 1 0.4238 37.037228 35.01585 35.672463
12185 4062 2 -0.8476 37.421384 35.563236 34.928963
12186 4062 1 0.4238 37.60972 34.973394 34.143714
12187 4063 1 0.4238 2.668134 16.185805 9.728051
12188 4063 2 -0.8476 2.034347 15.684796 9.138726
12189 4063 1 0.4238 1.499922 16.333253 8.596607
12190 4064 1 0.4238 4.223076 24.111306 5.997517
12191 4064 2 -0.8476 3.562705 23.998785 5.255055
12192 4064 1 0.4238 3.668072 24.746222 4.599132
12193 4065 1 0.4238 45.878088 24.113959 28.624436
12194 4065 2 -0.8476 46.078796 24.763303 29.357968
12195 4065 1 0.4238 45.992624 24.304335 30.242232
12196 4066 1 0.4238 40.657639 44.722529 45.880747
12197 4066 2 -0.8476 39.77591 44.68485 46.350996
12198 4066 1 0.4238 39.112724 45.251205 45.861684
12199 4067 1 0.4238 21.007376 1.499943 44.245236
12200 4067 2 -0.8476 21.283968 1.89912 43.371077
12201 4067 1 0.4238 21.889842 2.677228 43.536801
12202 4068 1 0.4238 38.167073 9.020546 43.589665
12203 4068 2 -0.8476 39.028715 9.194644 44.066387
12204 4068 1 0.4238 39.255127 8.409642 44.643022
12205 4069 1 0.4238 17.463486 43.7374 48.049478
12206 4069 2 -0.8476 16.734883 43.480324 47.414616
12207 4069 1 0.4238 17.098087 43.454386 46.483268
12208 4070 1 0.4238 28.26086 44.05212 27.133879
12209 4070 2 -0.8476 28.189333 44.173491 26.143853
12210 4070 1 0.4238 29.09372 44.372128 25.766193
12211 4071 1 0.4238 8.810543 14.133557 9.505935
12212 4071 2 -0.8476 9.182606 14.957868 9.079226
12213 4071 1 0.4238 9.712404 15.472187 9.753607
12214 4072 1 0.4238 17.861077 18.298268 14.187559
12215 4072 2 -0.8476 17.478971 17.374824 14.22287
12216 4072 1 0.4238 17.889422 16.816474 13.501916
12217 4073 1 0.4238 13.250547 38.590669 27.75658
12218 4073 2 -0.8476 13.613613 38.027096 27.014577
12219 4073 1 0.4238 14.444333 37.564027 27.323561
12220 4074 1 0.4238 36.565066 9.249827 16.31346
12221 4074 2 -0.8476 37.560852 9.165528 16.277348
12222 4074 1 0.4238 37.807533 8.34936 15.754837
12223 4075 1 0.4238 41.812234 43.679289 28.504831
12224 4075 2 -0.8476 42.458247 44.435784 28.606728
12225 4075 1 0.4238 42.547362 44.917698 27.735053
12226 4076 1 0.4238 10.414559 10.348153 6.248269
12227 4076 2 -0.8476 10.919146 10.876226 5.565238
12228 4076 1 0.4238 11.613579 11.433168 6.020846
12229 4077 1 0.4238 42.70541 1.499571 30.619411
12230 4077 2 -0.8476 43.474088 2.127079 30.743378
12231 4077 1 0.4238 44.31844 1.602452 30.85217
12232 4078 1 0.4238 17.588736 7.986978 23.433281
12233 4078 2 -0.8476 18.513593 7.633139 23.293858
12234 4078 1 0.4238 19.129693 8.388917 23.072002
12235 4079 1 0.4238 48.174219 25.787297 25.653368
12236 4079 2 -0.8476 47.323361 26.013224 26.127707
12237 4079 1 0.4238 46.895139 25.173705 26.462123
12238 4080 1 0.4238 14.951517 36.609116 35.832177
12239 4080 2 -0.8476 15.206579 35.788783 36.344033
12240 4080 1 0.4238 14.893437 35.875225 37.289797
12241 4081 4 -1 25.350693 24.91019 25.834846
12242 4082 4 -1 23.622816 10.668223 5.201666
12243 4083 4 -1 16.925075 13.756962 41.58954
12244 4084 4 -1 24.01782 11.91303 3.070058
12245 4085 4 -1 20.874556 31.005315 33.303546
12246 4086 4 -1 41.909421 3.274759 9.496199
12247 4087 4 -1 13.358837 46.113417 23.723451
12248 4088 4 -1 7.685736 35.84252 18.370773
12249 4089 4 -1 2.891851 33.957526 13.736731
12250 4090 4 -1 13.001785 3.597763 17.941864
12251 4091 4 -1 29.919927 6.996011 36.309364
12252 4092 8 1 31.145909 28.914487 8.854183
12253 4093 8 1 35.672496 33.194912 26.160213
12254 4094 8 1 10.618958 37.877134 42.810892
12255 4095 8 1 43.47665 7.577901 29.08282
12256 4096 8 1 23.931745 30.335796 20.578345
12257 4097 8 1 31.086471 8.997536 44.074247
12258 4098 8 1 7.798536 35.710221 15.421135
12259 4099 8 1 48.178004 16.449015 29.029909
12260 4100 8 1 24.289014 1.5 27.972217
12261 4101 8 1 19.340814 15.058261 28.479897
12262 4102 8 1 12.067238 41.133881 3.86846

Bonds

1 1 2 1
2 1 2 3
3 1 5 4
4 1 5 6
5 1 8 7
6 1 8 9
7 1 11 10
8 1 11 12
9 1 14 13
10 1 14 15
11 1 17 16
12 1 17 18
13 1 20 19
14 1 20 21
15 1 23 22
16 1 23 24
17 1 26 25
18 1 26 27
19 1 29 28
20 1 29 30
21 1 32 31
22 1 32 33
23 1 35 34
24 1 35 36
25 1 38 37
26 1 38 39
27 1 41 40
28 1 41 42
29 1 44 43
30 1 44 45
31 1 47 46
32 1 47 48
33 1 50 49
34 1 50 51
35 1 53 52
36 1 53 54
37 1 56 55
38 1 56 57
39 1 59 58
40 1 59 60
41 1 62 61
42 1 62 63
43 1 65 64
44 1 65 66
45 1 68 67
46 1 68 69
47 1 71 70
48 1 71 72
49 1 74 73
50 1 74 75
51 1 77 76
52 1 77 78
53 1 80 79
54 1 80 81
55 1 83 82
56 1 83 84
57 1 86 85
58 1 86 87
59 1 89 88
60 1 89 90
61 1 92 91
62 1 92 93
63 1 95 94
64 1 95 96
65 1 98 97
66 1 98 99
67 1 101 100
68 1 101 102
69 1 104 103
70 1 104 105
71 1 107 106
72 1 107 108
73 1 110 109
74 1 110 111
75 1 113 112
76 1 113 114
77 1 116 115
78 1 116 117
79 1 119 118
80 1 119 120
81 1 122 121
82 1 122 123
83 1 125 124
84 1 125 126
85 1 128 127
86 1 128 129
87 1 131 130
88 1 131 132
89 1 134 133
90 1 134 135
91 1 137 136
92 1 137 138
93 1 140 139
94 1 140 141
95 1 143 142
96 1 143 144
97 1 146 145
98 1 146 147
99 1 149 148
100 1 149 150
101 1 152 151
102 1 152 153
103 1 155 154
104 1 155 156
105 1 158 157
106 1 158 159
107 1 161 160
108 1 161 162
109 1 164 163
110 1 164 165
111 1 167 166
112 1 167 168
113 1 170 169
114 1 170 171
115 1 173 172
116 1 173 174
117 1 176 175
118 1 176 177
119 1 179 178
120 1 179 180
121 1 182 181
122 1 182 183
123 1 185 184
124 1 185 186
125 1 188 187
126 1 188 189
127 1 191 190
128 1 191 192
129 1 194 193
130 1 194 195
131 1 197 196
132 1 197 198
133 1 200 199
134 1 200 201
135 1 203 202
136 1 203 204
137 1 206 205
138 1 206 207
139 1 209 208
140 1 209 210
141 1 212 211
142 1 212 213
143 1 215 214
144 1 215 216
145 1 218 217
146 1 218 219
147 1 221 220
148 1 221 222
149 1 224 223
150 1 224 225
151 1 227 226
152 1 227 228
153 1 230 229
154 1 230 231
155 1 233 232
156 1 233 234
157 1 236 235
158 1 236 237
159 1 239 238
160 1 239 240
161 1 242 241
162 1 242 243
163 1 245 244
164 1 245 246
165 1 248 247
166 1 248 249
167 1 251 250
168 1 251 252
169 1 254 253
170 1 254 255
171 1 257 256
172 1 257 258
173 1 260 259
174 1 260 261
175 1 263 262
176 1 263 264
177 1 266 265
178 1 266 267
179 1 269 268
180 1 269 270
181 1 272 271
182 1 272 273
183 1 275 274
184 1 275 276
185 1 278 277
186 1 278 279
187 1 281 280
188 1 281 282
189 1 284 283
190 1 284 285
191 1 287 286
192 1 287 288
193 1 290 289
194 1 290 291
195 1 293 292
196 1 293 294
197 1 296 295
198 1 296 297
199 1 299 298
200 1 299 300
201 1 302 301
202 1 302 303
203 1 305 304
204 1 305 306
205 1 308 307
206 1 308 309
207 1 311 310
208 1 311 312
209 1 314 313
210 1 314 315
211 1 317 316
212 1 317 318
213 1 320 319
214 1 320 321
215 1 323 322
216 1 323 324
217 1 326 325
218 1 326 327
219 1 329 328
220 1 329 330
221 1 332 331
222 1 332 333
223 1 335 334
224 1 335 336
225 1 338 337
226 1 338 339
227 1 341 340
228 1 341 342
229 1 344 343
230 1 344 345
231 1 347 346
232 1 347 348
233 1 350 349
234 1 350 351
235 1 353 352
236 1 353 354
237 1 356 355
238 1 356 357
239 1 359 358
240 1 359 360
241 1 362 361
242 1 362 363
243 1 365 364
244 1 365 366
245 1 368 367
246 1 368 369
247 1 371 370
248 1 371 372
249 1 374 373
250 1 374 375
251 1 377 376
252 1 377 378
253 1 380 379
254 1 380 381
255 1 383 382
256 1 383 384
257 1 386 385
258 1 386 387
259 1 389 388
260 1 389 390
261 1 392 391
262 1 392 393
263 1 395 394
264 1 395 396
265 1 398 397
266 1 398 399
267 1 401 400
268 1 401 402
269 1 404 403
270 1 404 405
271 1 407 406
272 1 407 408
273 1 410 409
274 1 410 411
275 1 413 412
276 1 413 414
277 1 416 415
278 1 416 417
279 1 419 418
280 1 419 420
281 1 422 421
282 1 422 423
283 1 425 424
284 1 425 426
285 1 428 427
286 1 428 429
287 1 431 430
288 1 431 432
289 1 434 433
290 1 434 435
291 1 437 436
292 1 437 438
293 1 440 439
294 1 440 441
295 1 443 442
296 1 443 444
297 1 446 445
298 1 446 447
299 1 449 448
300 1 449 450
301 1 452 451
302 1 452 453
303 1 455 454
304 1 455 456
305 1 458 457
306 1 458 459
307 1 461 460
308 1 461 462
309 1 464 463
310 1 464 465
311 1 467 466
312 1 467 468
313 1 470 469
314 1 470 471
315 1 473 472
316 1 473 474
317 1 476 475
318 1 476 477
319 1 479 478
320 1 479 480
321 1 482 481
322 1 482 483
323 1 485 484
324 1 485 486
325 1 488 487
326 1 488 489
327 1 491 490
328 1 491 492
329 1 494 493
330 1 494 495
331 1 497 496
332 1 497 498
333 1 500 499
334 1 500 501
335 1 503 502
336 1 503 504
337 1 506 505
338 1 506 507
339 1 509 508
340 1 509 510
341 1 512 511
342 1 512 513
343 1 515 514
344 1 515 516
345 1 518 517
346 1 518 519
347 1 521 520
348 1 521 522
349 1 524 523
350 1 524 525
351 1 527 526
352 1 527 528
353 1 530 529
354 1 530 531
355 1 533 532
356 1 533 534
357 1 536 535
358 1 536 537
359 1 539 538
360 1 539 540
361 1 542 541
362 1 542 543
363 1 545 544
364 1 545 546
365 1 548 547
366 1 548 549
367 1 551 550
368 1 551 552
369 1 554 553
370 1 554 555
371 1 557 556
372 1 557 558
373 1 560 559
374 1 560 561
375 1 563 562
376 1 563 564
377 1 566 565
378 1 566 567
379 1 569 568
380 1 569 570
381 1 572 571
382 1 572 573
383 1 575 574
384 1 575 576
385 1 578 577
386 1 578 579
387 1 581 580
388 1 581 582
389 1 584 583
390 1 584 585
391 1 587 586
392 1 587 588
393 1 590 589
394 1 590 591
395 1 593 592
396 1 593 594
397 1 596 595
398 1 596 597
399 1 599 598
400 1 599 600
401 1 602 601
402 1 602 603
403 1 605 604
404 1 605 606
405 1 608 607
406 1 608 609
407 1 611 610
408 1 611 612
409 1 614 613
410 1 614 615
411 1 617 616
412 1 617 618
413 1 620 619
414 1 620 621
415 1 623 622
416 1 623 624
417 1 626 625
418 1 626 627
419 1 629 628
420 1 629 630
421 1 632 631
422 1 632 633
423 1 635 634
424 1 635 636
425 1 638 637
426 1 638 639
427 1 641 640
428 1 641 642
429 1 644 643
430 1 644 645
431 1 647 646
432 1 647 648
433 1 650 649
434 1 650 651
435 1 653 652
436 1 653 654
437 1 656 655
438 1 656 657
439 1 659 658
440 1 659 660
441 1 662 661
442 1 662 663
443 1 665 664
444 1 665 666
445 1 668 667
446 1 668 669
447 1 671 670
448 1 671 672
449 1 674 673
450 1 674 675
451 1 677 676
452 1 677 678
453 1 680 679
454 1 680 681
455 1 683 682
456 1 683 684
457 1 686 685
458 1 686 687
459 1 689 688
460 1 689 690
461 1 692 691
462 1 692 693
463 1 695 694
464 1 695 696
465 1 698 697
466 1 698 699
467 1 701 700
468 1 701 702
469 1 704 703
470 1 704 705
471 1 707 706
472 1 707 708
473 1 710 709
474 1 710 711
475 1 713 712
476 1 713 714
477 1 716 715
478 1 716 717
479 1 719 718
480 1 719 720
481 1 722 721
482 1 722 723
483 1 725 724
484 1 725 726
485 1 728 727
486 1 728 729
487 1 731 730
488 1 731 732
489 1 734 733
490 1 734 735
491 1 737 736
492 1 737 738
493 1 740 739
494 1 740 741
495 1 743 742
496 1 743 744
497 1 746 745
498 1 746 747
499 1 749 748
500 1 749 750
501 1 752 751
502 1 752 753
503 1 755 754
504 1 755 756
505 1 758 757
506 1 758 759
507 1 761 760
508 1 761 762
509 1 764 763
510 1 764 765
511 1 767 766
512 1 767 768
513 1 770 769
514 1 770 771
515 1 773 772
516 1 773 774
517 1 776 775
518 1 776 777
519 1 779 778
520 1 779 780
521 1 782 781
522 1 782 783
523 1 785 784
524 1 785 786
525 1 788 787
526 1 788 789
527 1 791 790
528 1 791 792
529 1 794 793
530 1 794 795
531 1 797 796
532 1 797 798
533 1 800 799
534 1 800 801
535 1 803 802
536 1 803 804
537 1 806 805
538 1 806 807
539 1 809 808
540 1 809 810
541 1 812 811
542 1 812 813
543 1 815 814
544 1 815 816
545 1 818 817
546 1 818 819
547 1 821 820
548 1 821 822
549 1 824 823
550 1 824 825
551 1 827 826
552 1 827 828
553 1 830 829
554 1 830 831
555 1 833 832
556 1 833 834
557 1 836 835
558 1 836 837
559 1 839 838
560 1 839 840
561 1 842 841
562 1 842 843
563 1 845 844
564 1 845 846
565 1 848 847
566 1 848 849
567 1 851 850
568 1 851 852
569 1 854 853
570 1 854 855
571 1 857 856
572 1 857 858
573 1 860 859
574 1 860 861
575 1 863 862
576 1 863 864
577 1 866 865
578 1 866 867
579 1 869 868
580 1 869 870
581 1 872 871
582 1 872 873
583 1 875 874
584 1 875 876
585 1 878 877
586 1 878 879
587 1 881 880
588 1 881 882
589 1 884 883
590 1 884 885
591 1 887 886
592 1 887 888
593 1 890 889
594 1 890 891
595 1 893 892
596 1 893 894
597 1 896 895
598 1 896 897
599 1 899 898
600 1 899 900
601 1 902 901
602 1 902 903
603 1 905 904
604 1 905 906
605 1 908 907
606 1 908 909
607 1 911 910
608 1 911 912
609 1 914 913
610 1 914 915
611 1 917 916
612 1 917 918
613 1 920 919
614 1 920 921
615 1 923 922
616 1 923 924
617 1 926 925
618 1 926 927
619 1 929 928
620 1 929 930
621 1 932 931
622 1 932 933
623 1 935 934
624 1 935 936
625 1 938 937
626 1 938 939
627 1 941 940
628 1 941 942
629 1 944 943
630 1 944 945
631 1 947 946
632 1 947 948
633 1 950 949
634 1 950 951
635 1 953 952
636 1 953 954
637 1 956 955
638 1 956 957
639 1 959 958
640 1 959 960
641 1 962 961
642 1 962 963
643 1 965 964
644 1 965 966
645 1 968 967
646 1 968 969
647 1 971 970
648 1 971 972
649 1 974 973
650 1 974 975
651 1 977 976
652 1 977 978
653 1 980 979
654 1 980 981
655 1 983 982
656 1 983 984
657 1 986 985
658 1 986 987
659 1 989 988
660 1 989 990
661 1 992 991
662 1 992 993
663 1 995 994
664 1 995 996
665 1 998 997
666 1 998 999
667 1 1001 1000
668 1 1001 1002
669 1 1004 1003
670 1 1004 1005
671 1 1007 1006
672 1 1007 1008
673 1 1010 1009
674 1 1010 1011
675 1 1013 1012
676 1 1013 1014
677 1 1016 1015
678 1 1016 1017
679 1 1019 1018
680 1 1019 1020
681 1 1022 1021
682 1 1022 1023
683 1 1025 1024
684 1 1025 1026
685 1 1028 1027
686 1 1028 1029
687 1 1031 1030
688 1 1031 1032
689 1 1034 1033
690 1 1034 1035
691 1 1037 1036
692 1 1037 1038
693 1 1040 1039
694 1 1040 1041
695 1 1043 1042
696 1 1043 1044
697 1 1046 1045
698 1 1046 1047
699 1 1049 1048
700 1 1049 1050
701 1 1052 1051
702 1 1052 1053
703 1 1055 1054
704 1 1055 1056
705 1 1058 1057
706 1 1058 1059
707 1 1061 1060
708 1 1061 1062
709 1 1064 1063
710 1 1064 1065
711 1 1067 1066
712 1 1067 1068
713 1 1070 1069
714 1 1070 1071
715 1 1073 1072
716 1 1073 1074
717 1 1076 1075
718 1 1076 1077
719 1 1079 1078
720 1 1079 1080
721 1 1082 1081
722 1 1082 1083
723 1 1085 1084
724 1 1085 1086
725 1 1088 1087
726 1 1088 1089
727 1 1091 1090
728 1 1091 1092
729 1 1094 1093
730 1 1094 1095
731 1 1097 1096
732 1 1097 1098
733 1 1100 1099
734 1 1100 1101
735 1 1103 1102
736 1 1103 1104
737 1 1106 1105
738 1 1106 1107
739 1 1109 1108
740 1 1109 1110
741 1 1112 1111
742 1 1112 1113
743 1 1115 1114
744 1 1115 1116
745 1 1118 1117
746 1 1118 1119
747 1 1121 1120
748 1 1121 1122
749 1 1124 1123
750 1 1124 1125
751 1 1127 1126
752 1 1127 1128
753 1 1130 1129
754 1 1130 1131
755 1 1133 1132
756 1 1133 1134
757 1 1136 1135
758 1 1136 1137
759 1 1139 1138
760 1 1139 1140
761 1 1142 1141
762 1 1142 1143
763 1 1145 1144
764 1 1145 1146
765 1 1148 1147
766 1 1148 1149
767 1 1151 1150
768 1 1151 1152
769 1 1154 1153
770 1 1154 1155
771 1 1157 1156
772 1 1157 1158
773 1 1160 1159
774 1 1160 1161
775 1 1163 1162
776 1 1163 1164
777 1 1166 1165
778 1 1166 1167
779 1 1169 1168
780 1 1169 1170
781 1 1172 1171
782 1 1172 1173
783 1 1175 1174
784 1 1175 1176
785 1 1178 1177
786 1 1178 1179
787 1 1181 1180
788 1 1181 1182
789 1 1184 1183
790 1 1184 1185
791 1 1187 1186
792 1 1187 1188
793 1 1190 1189
794 1 1190 1191
795 1 1193 1192
796 1 1193 1194
797 1 1196 1195
798 1 1196 1197
799 1 1199 1198
800 1 1199 1200
801 1 1202 1201
802 1 1202 1203
803 1 1205 1204
804 1 1205 1206
805 1 1208 1207
806 1 1208 1209
807 1 1211 1210
808 1 1211 1212
809 1 1214 1213
810 1 1214 1215
811 1 1217 1216
812 1 1217 1218
813 1 1220 1219
814 1 1220 1221
815 1 1223 1222
816 1 1223 1224
817 1 1226 1225
818 1 1226 1227
819 1 1229 1228
820 1 1229 1230
821 1 1232 1231
822 1 1232 1233
823 1 1235 1234
824 1 1235 1236
825 1 1238 1237
826 1 1238 1239
827 1 1241 1240
828 1 1241 1242
829 1 1244 1243
830 1 1244 1245
831 1 1247 1246
832 1 1247 1248
833 1 1250 1249
834 1 1250 1251
835 1 1253 1252
836 1 1253 1254
837 1 1256 1255
838 1 1256 1257
839 1 1259 1258
840 1 1259 1260
841 1 1262 1261
842 1 1262 1263
843 1 1265 1264
844 1 1265 1266
845 1 1268 1267
846 1 1268 1269
847 1 1271 1270
848 1 1271 1272
849 1 1274 1273
850 1 1274 1275
851 1 1277 1276
852 1 1277 1278
853 1 1280 1279
854 1 1280 1281
855 1 1283 1282
856 1 1283 1284
857 1 1286 1285
858 1 1286 1287
859 1 1289 1288
860 1 1289 1290
861 1 1292 1291
862 1 1292 1293
863 1 1295 1294
864 1 1295 1296
865 1 1298 1297
866 1 1298 1299
867 1 1301 1300
868 1 1301 1302
869 1 1304 1303
870 1 1304 1305
871 1 1307 1306
872 1 1307 1308
873 1 1310 1309
874 1 1310 1311
875 1 1313 1312
876 1 1313 1314
877 1 1316 1315
878 1 1316 1317
879 1 1319 1318
880 1 1319 1320
881 1 1322 1321
882 1 1322 1323
883 1 1325 1324
884 1 1325 1326
885 1 1328 1327
886 1 1328 1329
887 1 1331 1330
888 1 1331 1332
889 1 1334 1333
890 1 1334 1335
891 1 1337 1336
892 1 1337 1338
893 1 1340 1339
894 1 1340 1341
895 1 1343 1342
896 1 1343 1344
897 1 1346 1345
898 1 1346 1347
899 1 1349 1348
900 1 1349 1350
901 1 1352 1351
902 1 1352 1353
903 1 1355 1354
904 1 1355 1356
905 1 1358 1357
906 1 1358 1359
907 1 1361 1360
908 1 1361 1362
909 1 1364 1363
910 1 1364 1365
911 1 1367 1366
912 1 1367 1368
913 1 1370 1369
914 1 1370 1371
915 1 1373 1372
916 1 1373 1374
917 1 1376 1375
918 1 1376 1377
919 1 1379 1378
920 1 1379 1380
921 1 1382 1381
922 1 1382 1383
923 1 1385 1384
924 1 1385 1386
925 1 1388 1387
926 1 1388 1389
927 1 1391 1390
928 1 1391 1392
929 1 1394 1393
930 1 1394 1395
931 1 1397 1396
932 1 1397 1398
933 1 1400 1399
934 1 1400 1401
935 1 1403 1402
936 1 1403 1404
937 1 1406 1405
938 1 1406 1407
939 1 1409 1408
940 1 1409 1410
941 1 1412 1411
942 1 1412 1413
943 1 1415 1414
944 1 1415 1416
945 1 1418 1417
946 1 1418 1419
947 1 1421 1420
948 1 1421 1422
949 1 1424 1423
950 1 1424 1425
951 1 1427 1426
952 1 1427 1428
953 1 1430 1429
954 1 1430 1431
955 1 1433 1432
956 1 1433 1434
957 1 1436 1435
958 1 1436 1437
959 1 1439 1438
960 1 1439 1440
961 1 1442 1441
962 1 1442 1443
963 1 1445 1444
964 1 1445 1446
965 1 1448 1447
966 1 1448 1449
967 1 1451 1450
968 1 1451 1452
969 1 1454 1453
970 1 1454 1455
971 1 1457 1456
972 1 1457 1458
973 1 1460 1459
974 1 1460 1461
975 1 1463 1462
976 1 1463 1464
977 1 1466 1465
978 1 1466 1467
979 1 1469 1468
980 1 1469 1470
981 1 1472 1471
982 1 1472 1473
983 1 1475 1474
984 1 1475 1476
985 1 1478 1477
986 1 1478 1479
987 1 1481 1480
988 1 1481 1482
989 1 1484 1483
990 1 1484 1485
991 1 1487 1486
992 1 1487 1488
993 1 1490 1489
994 1 1490 1491
995 1 1493 1492
996 1 1493 1494
997 1 1496 1495
998 1 1496 1497
999 1 1499 1498
1000 1 1499 1500
1001 1 1502 1501
1002 1 1502 1503
1003 1 1505 1504
1004 1 1505 1506
1005 1 1508 1507
1006 1 1508 1509
1007 1 1511 1510
1008 1 1511 1512
1009 1 1514 1513
1010 1 1514 1515
1011 1 1517 1516
1012 1 1517 1518
1013 1 1520 1519
1014 1 1520 1521
1015 1 1523 1522
1016 1 1523 1524
1017 1 1526 1525
1018 1 1526 1527
1019 1 1529 1528
1020 1 1529 1530
1021 1 1532 1531
1022 1 1532 1533
1023 1 1535 1534
1024 1 1535 1536
1025 1 1538 1537
1026 1 1538 1539
1027 1 1541 1540
1028 1 1541 1542
1029 1 1544 1543
1030 1 1544 1545
1031 1 1547 1546
1032 1 1547 1548
1033 1 1550 1549
1034 1 1550 1551
1035 1 1553 1552
1036 1 1553 1554
1037 1 1556 1555
1038 1 1556 1557
1039 1 1559 1558
1040 1 1559 1560
1041 1 1562 1561
1042 1 1562 1563
1043 1 1565 1564
1044 1 1565 1566
1045 1 1568 1567
1046 1 1568 1569
1047 1 1571 1570
1048 1 1571 1572
1049 1 1574 1573
1050 1 1574 1575
1051 1 1577 1576
1052 1 1577 1578
1053 1 1580 1579
1054 1 1580 1581
1055 1 1583 1582
1056 1 1583 1584
1057 1 1586 1585
1058 1 1586 1587
1059 1 1589 1588
1060 1 1589 1590
1061 1 1592 1591
1062 1 1592 1593
1063 1 1595 1594
1064 1 1595 1596
1065 1 1598 1597
1066 1 1598 1599
1067 1 1601 1600
1068 1 1601 1602
1069 1 1604 1603
1070 1 1604 1605
1071 1 1607 1606
1072 1 1607 1608
1073 1 1610 1609
1074 1 1610 1611
1075 1 1613 1612
1076 1 1613 1614
1077 1 1616 1615
1078 1 1616 1617
1079 1 1619 1618
1080 1 1619 1620
1081 1 1622 1621
1082 1 1622 1623
1083 1 1625 1624
1084 1 1625 1626
1085 1 1628 1627
1086 1 1628 1629
1087 1 1631 1630
1088 1 1631 1632
1089 1 1634 1633
1090 1 1634 1635
1091 1 1637 1636
1092 1 1637 1638
1093 1 1640 1639
1094 1 1640 1641
1095 1 1643 1642
1096 1 1643 1644
1097 1 1646 1645
1098 1 1646 1647
1099 1 1649 1648
1100 1 1649 1650
1101 1 1652 1651
1102 1 1652 1653
1103 1 1655 1654
1104 1 1655 1656
1105 1 1658 1657
1106 1 1658 1659
1107 1 1661 1660
1108 1 1661 1662
1109 1 1664 1663
1110 1 1664 1665
1111 1 1667 1666
1112 1 1667 1668
1113 1 1670 1669
1114 1 1670 1671
1115 1 1673 1672
1116 1 1673 1674
1117 1 1676 1675
1118 1 1676 1677
1119 1 1679 1678
1120 1 1679 1680
1121 1 1682 1681
1122 1 1682 1683
1123 1 1685 1684
1124 1 1685 1686
1125 1 1688 1687
1126 1 1688 1689
1127 1 1691 1690
1128 1 1691 1692
1129 1 1694 1693
1130 1 1694 1695
1131 1 1697 1696
1132 1 1697 1698
1133 1 1700 1699
1134 1 1700 1701
1135 1 1703 1702
1136 1 1703 1704
1137 1 1706 1705
1138 1 1706 1707
1139 1 1709 1708
1140 1 1709 1710
1141 1 1712 1711
1142 1 1712 1713
1143 1 1715 1714
1144 1 1715 1716
1145 1 1718 1717
1146 1 1718 1719
1147 1 1721 1720
1148 1 1721 1722
1149 1 1724 1723
1150 1 1724 1725
1151 1 1727 1726
1152 1 1727 1728
1153 1 1730 1729
1154 1 1730 1731
1155 1 1733 1732
1156 1 1733 1734
1157 1 1736 1735
1158 1 1736 1737
1159 1 1739 1738
1160 1 1739 1740
1161 1 1742 1741
1162 1 1742 1743
1163 1 1745 1744
1164 1 1745 1746
1165 1 1748 1747
1166 1 1748 1749
1167 1 1751 1750
1168 1 1751 1752
1169 1 1754 1753
1170 1 1754 1755
1171 1 1757 1756
1172 1 1757 1758
1173 1 1760 1759
1174 1 1760 1761
1175 1 1763 1762
1176 1 1763 1764
1177 1 1766 1765
1178 1 1766 1767
1179 1 1769 1768
1180 1 1769 1770
1181 1 1772 1771
1182 1 1772 1773
1183 1 1775 1774
1184 1 1775 1776
1185 1 1778 1777
1186 1 1778 1779
1187 1 1781 1780
1188 1 1781 1782
1189 1 1784 1783
1190 1 1784 1785
1191 1 1787 1786
1192 1 1787 1788
1193 1 1790 1789
1194 1 1790 1791
1195 1 1793 1792
1196 1 1793 1794
1197 1 1796 1795
1198 1 1796 1797
1199 1 1799 1798
1200 1 1799 1800
1201 1 1802 1801
1202 1 1802 1803
1203 1 1805 1804
1204 1 1805 1806
1205 1 1808 1807
1206 1 1808 1809
1207 1 1811 1810
1208 1 1811 1812
1209 1 1814 1813
1210 1 1814 1815
1211 1 1817 1816
1212 1 1817 1818
1213 1 1820 1819
1214 1 1820 1821
1215 1 1823 1822
1216 1 1823 1824
1217 1 1826 1825
1218 1 1826 1827
1219 1 1829 1828
1220 1 1829 1830
1221 1 1832 1831
1222 1 1832 1833
1223 1 1835 1834
1224 1 1835 1836
1225 1 1838 1837
1226 1 1838 1839
1227 1 1841 1840
1228 1 1841 1842
1229 1 1844 1843
1230 1 1844 1845
1231 1 1847 1846
1232 1 1847 1848
1233 1 1850 1849
1234 1 1850 1851
1235 1 1853 1852
1236 1 1853 1854
1237 1 1856 1855
1238 1 1856 1857
1239 1 1859 1858
1240 1 1859 1860
1241 1 1862 1861
1242 1 1862 1863
1243 1 1865 1864
1244 1 1865 1866
1245 1 1868 1867
1246 1 1868 1869
1247 1 1871 1870
1248 1 1871 1872
1249 1 1874 1873
1250 1 1874 1875
1251 1 1877 1876
1252 1 1877 1878
1253 1 1880 1879
1254 1 1880 1881
1255 1 1883 1882
1256 1 1883 1884
1257 1 1886 1885
1258 1 1886 1887
1259 1 1889 1888
1260 1 1889 1890
1261 1 1892 1891
1262 1 1892 1893
1263 1 1895 1894
1264 1 1895 1896
1265 1 1898 1897
1266 1 1898 1899
1267 1 1901 1900
1268 1 1901 1902
1269 1 1904 1903
1270 1 1904 1905
1271 1 1907 1906
1272 1 1907 1908
1273 1 1910 1909
1274 1 1910 1911
1275 1 1913 1912
1276 1 1913 1914
1277 1 1916 1915
1278 1 1916 1917
1279 1 1919 1918
1280 1 1919 1920
1281 1 1922 1921
1282 1 1922 1923
1283 1 1925 1924
1284 1 1925 1926
1285 1 1928 1927
1286 1 1928 1929
1287 1 1931 1930
1288 1 1931 1932
1289 1 1934 1933
1290 1 1934 1935
1291 1 1937 1936
1292 1 1937 1938
1293 1 1940 1939
1294 1 1940 1941
1295 1 1943 1942
1296 1 1943 1944
1297 1 1946 1945
1298 1 1946 1947
1299 1 1949 1948
1300 1 1949 1950
1301 1 1952 1951
1302 1 1952 1953
1303 1 1955 1954
1304 1 1955 1956
1305 1 1958 1957
1306 1 1958 1959
1307 1 1961 1960
1308 1 1961 1962
1309 1 1964 1963
1310 1 1964 1965
1311 1 1967 1966
1312 1 1967 1968
1313 1 1970 1969
1314 1 1970 1971
1315 1 1973 1972
1316 1 1973 1974
1317 1 1976 1975
1318 1 1976 1977
1319 1 1979 1978
1320 1 1979 1980
1321 1 1982 1981
1322 1 1982 1983
1323 1 1985 1984
1324 1 1985 1986
1325 1 1988 1987
1326 1 1988 1989
1327 1 1991 1990
1328 1 1991 1992
1329 1 1994 1993
1330 1 1994 1995
1331 1 1997 1996
1332 1 1997 1998
1333 1 2000 1999
1334 1 2000 2001
1335 1 2003 2002
1336 1 2003 2004
1337 1 2006 2005
1338 1 2006 2007
1339 1 2009 2008
1340 1 2009 2010
1341 1 2012 2011
1342 1 2012 2013
1343 1 2015 2014
1344 1 2015 2016
1345 1 2018 2017
1346 1 2018 2019
1347 1 2021 2020
1348 1 2021 2022
1349 1 2024 2023
1350 1 2024 2025
1351 1 2027 2026
1352 1 2027 2028
1353 1 2030 2029
1354 1 2030 2031
1355 1 2033 2032
1356 1 2033 2034
1357 1 2036 2035
1358 1 2036 2037
1359 1 2039 2038
1360 1 2039 2040
1361 1 2042 2041
1362 1 2042 2043
1363 1 2045 2044
1364 1 2045 2046
1365 1 2048 2047
1366 1 2048 2049
1367 1 2051 2050
1368 1 2051 2052
1369 1 2054 2053
1370 1 2054 2055
1371 1 2057 2056
1372 1 2057 2058
1373 1 2060 2059
1374 1 2060 2061
1375 1 2063 2062
1376 1 2063 2064
1377 1 2066 2065
1378 1 2066 2067
1379 1 2069 2068
1380 1 2069 2070
1381 1 2072 2071
1382 1 2072 2073
1383 1 2075 2074
1384 1 2075 2076
1385 1 2078 2077
1386 1 2078 2079
1387 1 2081 2080
1388 1 2081 2082
1389 1 2084 2083
1390 1 2084 2085
1391 1 2087 2086
1392 1 2087 2088
1393 1 2090 2089
1394 1 2090 2091
1395 1 2093 2092
1396 1 2093 2094
1397 1 2096 2095
1398 1 2096 2097
1399 1 2099 2098
1400 1 2099 2100
1401 1 2102 2101
1402 1 2102 2103
1403 1 2105 2104
1404 1 2105 2106
1405 1 2108 2107
1406 1 2108 2109
1407 1 2111 2110
1408 1 2111 2112
1409 1 2114 2113
1410 1 2114 2115
1411 1 2117 2116
1412 1 2117 2118
1413 1 2120 2119
1414 1 2120 2121
1415 1 2123 2122
1416 1 2123 2124
1417 1 2126 2125
1418 1 2126 2127
1419 1 2129 2128
1420 1 2129 2130
1421 1 2132 2131
1422 1 2132 2133
1423 1 2135 2134
1424 1 2135 2136
1425 1 2138 2137
1426 1 2138 2139
1427 1 2141 2140
1428 1 2141 2142
1429 1 2144 2143
1430 1 2144 2145
1431 1 2147 2146
1432 1 2147 2148
1433 1 2150 2149
1434 1 2150 2151
1435 1 2153 2152
1436 1 2153 2154
1437 1 2156 2155
1438 1 2156 2157
1439 1 2159 2158
1440 1 2159 2160
1441 1 2162 2161
1442 1 2162 2163
1443 1 2165 2164
1444 1 2165 2166
1445 1 2168 2167
1446 1 2168 2169
1447 1 2171 2170
1448 1 2171 2172
1449 1 2174 2173
1450 1 2174 2175
1451 1 2177 2176
1452 1 2177 2178
1453 1 2180 2179
1454 1 2180 2181
1455 1 2183 2182
1456 1 2183 2184
1457 1 2186 2185
1458 1 2186 2187
1459 1 2189 2188
1460 1 2189 2190
1461 1 2192 2191
1462 1 2192 2193
1463 1 2195 2194
1464 1 2195 2196
1465 1 2198 2197
1466 1 2198 2199
1467 1 2201 2200
1468 1 2201 2202
1469 1 2204 2203
1470 1 2204 2205
1471 1 2207 2206
1472 1 2207 2208
1473 1 2210 2209
1474 1 2210 2211
1475 1 2213 2212
1476 1 2213 2214
1477 1 2216 2215
1478 1 2216 2217
1479 1 2219 2218
1480 1 2219 2220
1481 1 2222 2221
1482 1 2222 2223
1483 1 2225 2224
1484 1 2225 2226
1485 1 2228 2227
1486 1 2228 2229
1487 1 2231 2230
1488 1 2231 2232
1489 1 2234 2233
1490 1 2234 2235
1491 1 2237 2236
1492 1 2237 2238
1493 1 2240 2239
1494 1 2240 2241
1495 1 2243 2242
1496 1 2243 2244
1497 1 2246 2245
1498 1 2246 2247
1499 1 2249 2248
1500 1 2249 2250
1501 1 2252 2251
1502 1 2252 2253
1503 1 2255 2254
1504 1 2255 2256
1505 1 2258 2257
1506 1 2258 2259
1507 1 2261 2260
1508 1 2261 2262
1509 1 2264 2263
1510 1 2264 2265
1511 1 2267 2266
1512 1 2267 2268
1513 1 2270 2269
1514 1 2270 2271
1515 1 2273 2272
1516 1 2273 2274
1517 1 2276 2275
1518 1 2276 2277
1519 1 2279 2278
1520 1 2279 2280
1521 1 2282 2281
1522 1 2282 2283
1523 1 2285 2284
1524 1 2285 2286
1525 1 2288 2287
1526 1 2288 2289
1527 1 2291 2290
1528 1 2291 2292
1529 1 2294 2293
1530 1 2294 2295
1531 1 2297 2296
1532 1 2297 2298
1533 1 2300 2299
1534 1 2300 2301
1535 1 2303 2302
1536 1 2303 2304
1537 1 2306 2305
1538 1 2306 2307
1539 1 2309 2308
1540 1 2309 2310
1541 1 2312 2311
1542 1 2312 2313
1543 1 2315 2314
1544 1 2315 2316
1545 1 2318 2317
1546 1 2318 2319
1547 1 2321 2320
1548 1 2321 2322
1549 1 2324 2323
1550 1 2324 2325
1551 1 2327 2326
1552 1 2327 2328
1553 1 2330 2329
1554 1 2330 2331
1555 1 2333 2332
1556 1 2333 2334
1557 1 2336 2335
1558 1 2336 2337
1559 1 2339 2338
1560 1 2339 2340
1561 1 2342 2341
1562 1 2342 2343
1563 1 2345 2344
1564 1 2345 2346
1565 1 2348 2347
1566 1 2348 2349
1567 1 2351 2350
1568 1 2351 2352
1569 1 2354 2353
1570 1 2354 2355
1571 1 2357 2356
1572 1 2357 2358
1573 1 2360 2359
1574 1 2360 2361
1575 1 2363 2362
1576 1 2363 2364
1577 1 2366 2365
1578 1 2366 2367
1579 1 2369 2368
1580 1 2369 2370
1581 1 2372 2371
1582 1 2372 2373
1583 1 2375 2374
1584 1 2375 2376
1585 1 2378 2377
1586 1 2378 2379
1587 1 2381 2380
1588 1 2381 2382
1589 1 2384 2383
1590 1 2384 2385
1591 1 2387 2386
1592 1 2387 2388
1593 1 2390 2389
1594 1 2390 2391
1595 1 2393 2392
1596 1 2393 2394
1597 1 2396 2395
1598 1 2396 2397
1599 1 2399 2398
1600 1 2399 2400
1601 1 2402 2401
1602 1 2402 2403
1603 1 2405 2404
1604 1 2405 2406
1605 1 2408 2407
1606 1 2408 2409
1607 1 2411 2410
1608 1 2411 2412
1609 1 2414 2413
1610 1 2414 2415
1611 1 2417 2416
1612 1 2417 2418
1613 1 2420 2419
1614 1 2420 2421
1615 1 2423 2422
1616 1 2423 2424
1617 1 2426 2425
1618 1 2426 2427
1619 1 2429 2428
1620 1 2429 2430
1621 1 2432 2431
1622 1 2432 2433
1623 1 2435 2434
1624 1 2435 2436
1625 1 2438 2437
1626 1 2438 2439
1627 1 2441 2440
1628 1 2441 2442
1629 1 2444 2443
1630 1 2444 2445
1631 1 2447 2446
1632 1 2447 2448
1633 1 2450 2449
1634 1 2450 2451
1635 1 2453 2452
1636 1 2453 2454
1637 1 2456 2455
1638 1 2456 2457
1639 1 2459 2458
1640 1 2459 2460
1641 1 2462 2461
1642 1 2462 2463
1643 1 2465 2464
1644 1 2465 2466
1645 1 2468 2467
1646 1 2468 2469
1647 1 2471 2470
1648 1 2471 2472
1649 1 2474 2473
1650 1 2474 2475
1651 1 2477 2476
1652 1 2477 2478
1653 1 2480 2479
1654 1 2480 2481
1655 1 2483 2482
1656 1 2483 2484
1657 1 2486 2485
1658 1 2486 2487
1659 1 2489 2488
1660 1 2489 2490
1661 1 2492 2491
1662 1 2492 2493
1663 1 2495 2494
1664 1 2495 2496
1665 1 2498 2497
1666 1 2498 2499
1667 1 2501 2500
1668 1 2501 2502
1669 1 2504 2503
1670 1 2504 2505
1671 1 2507 2506
1672 1 2507 2508
1673 1 2510 2509
1674 1 2510 2511
1675 1 2513 2512
1676 1 2513 2514
1677 1 2516 2515
1678 1 2516 2517
1679 1 2519 2518
1680 1 2519 2520
1681 1 2522 2521
1682 1 2522 2523
1683 1 2525 2524
1684 1 2525 2526
1685 1 2528 2527
1686 1 2528 2529
1687 1 2531 2530
1688 1 2531 2532
1689 1 2534 2533
1690 1 2534 2535
1691 1 2537 2536
1692 1 2537 2538
1693 1 2540 2539
1694 1 2540 2541
1695 1 2543 2542
1696 1 2543 2544
1697 1 2546 2545
1698 1 2546 2547
1699 1 2549 2548
1700 1 2549 2550
1701 1 2552 2551
1702 1 2552 2553
1703 1 2555 2554
1704 1 2555 2556
1705 1 2558 2557
1706 1 2558 2559
1707 1 2561 2560
1708 1 2561 2562
1709 1 2564 2563
1710 1 2564 2565
1711 1 2567 2566
1712 1 2567 2568
1713 1 2570 2569
1714 1 2570 2571
1715 1 2573 2572
1716 1 2573 2574
1717 1 2576 2575
1718 1 2576 2577
1719 1 2579 2578
1720 1 2579 2580
1721 1 2582 2581
1722 1 2582 2583
1723 1 2585 2584
1724 1 2585 2586
1725 1 2588 2587
1726 1 2588 2589
1727 1 2591 2590
1728 1 2591 2592
1729 1 2594 2593
1730 1 2594 2595
1731 1 2597 2596
1732 1 2597 2598
1733 1 2600 2599
1734 1 2600 2601
1735 1 2603 2602
1736 1 2603 2604
1737 1 2606 2605
1738 1 2606 2607
1739 1 2609 2608
1740 1 2609 2610
1741 1 2612 2611
1742 1 2612 2613
1743 1 2615 2614
1744 1 2615 2616
1745 1 2618 2617
1746 1 2618 2619
1747 1 2621 2620
1748 1 2621 2622
1749 1 2624 2623
1750 1 2624 2625
1751 1 2627 2626
1752 1 2627 2628
1753 1 2630 2629
1754 1 2630 2631
1755 1 2633 2632
1756 1 2633 2634
1757 1 2636 2635
1758 1 2636 2637
1759 1 2639 2638
1760 1 2639 2640
1761 1 2642 2641
1762 1 2642 2643
1763 1 2645 2644
1764 1 2645 2646
1765 1 2648 2647
1766 1 2648 2649
1767 1 2651 2650
1768 1 2651 2652
1769 1 2654 2653
1770 1 2654 2655
1771 1 2657 2656
1772 1 2657 2658
1773 1 2660 2659
1774 1 2660 2661
1775 1 2663 2662
1776 1 2663 2664
1777 1 2666 2665
1778 1 2666 2667
1779 1 2669 2668
1780 1 2669 2670
1781 1 2672 2671
1782 1 2672 2673
1783 1 2675 2674
1784 1 2675 2676
1785 1 2678 2677
1786 1 2678 2679
1787 1 2681 2680
1788 1 2681 2682
1789 1 2684 2683
1790 1 2684 2685
1791 1 2687 2686
1792 1 2687 2688
1793 1 2690 2689
1794 1 2690 2691
1795 1 2693 2692
1796 1 2693 2694
1797 1 2696 2695
1798 1 2696 2697
1799 1 2699 2698
1800 1 2699 2700
1801 1 2702 2701
1802 1 2702 2703
1803 1 2705 2704
1804 1 2705 2706
1805 1 2708 2707
1806 1 2708 2709
1807 1 2711 2710
1808 1 2711 2712
1809 1 2714 2713
1810 1 2714 2715
1811 1 2717 2716
1812 1 2717 2718
1813 1 2720 2719
1814 1 2720 2721
1815 1 2723 2722
1816 1 2723 2724
1817 1 2726 2725
1818 1 2726 2727
1819 1 2729 2728
1820 1 2729 2730
1821 1 2732 2731
1822 1 2732 2733
1823 1 2735 2734
1824 1 2735 2736
1825 1 2738 2737
1826 1 2738 2739
1827 1 2741 2740
1828 1 2741 2742
1829 1 2744 2743
1830 1 2744 2745
1831 1 2747 2746
1832 1 2747 2748
1833 1 2750 2749
1834 1 2750 2751
1835 1 2753 2752
1836 1 2753 2754
1837 1 2756 2755
1838 1 2756 2757
1839 1 2759 2758
1840 1 2759 2760
1841 1 2762 2761
1842 1 2762 2763
1843 1 2765 2764
1844 1 2765 2766
1845 1 2768 2767
1846 1 2768 2769
1847 1 2771 2770
1848 1 2771 2772
1849 1 2774 2773
1850 1 2774 2775
1851 1 2777 2776
1852 1 2777 2778
1853 1 2780 2779
1854 1 2780 2781
1855 1 2783 2782
1856 1 2783 2784
1857 1 2786 2785
1858 1 2786 2787
1859 1 2789 2788
1860 1 2789 2790
1861 1 2792 2791
1862 1 2792 2793
1863 1 2795 2794
1864 1 2795 2796
1865 1 2798 2797
1866 1 2798 2799
1867 1 2801 2800
1868 1 2801 2802
1869 1 2804 2803
1870 1 2804 2805
1871 1 2807 2806
1872 1 2807 2808
1873 1 2810 2809
1874 1 2810 2811
1875 1 2813 2812
1876 1 2813 2814
1877 1 2816 2815
1878 1 2816 2817
1879 1 2819 2818
1880 1 2819 2820
1881 1 2822 2821
1882 1 2822 2823
1883 1 2825 2824
1884 1 2825 2826
1885 1 2828 2827
1886 1 2828 2829
1887 1 2831 2830
1888 1 2831 2832
1889 1 2834 2833
1890 1 2834 2835
1891 1 2837 2836
1892 1 2837 2838
1893 1 2840 2839
1894 1 2840 2841
1895 1 2843 2842
1896 1 2843 2844
1897 1 2846 2845
1898 1 2846 2847
1899 1 2849 2848
1900 1 2849 2850
1901 1 2852 2851
1902 1 2852 2853
1903 1 2855 2854
1904 1 2855 2856
1905 1 2858 2857
1906 1 2858 2859
1907 1 2861 2860
1908 1 2861 2862
1909 1 2864 2863
1910 1 2864 2865
1911 1 2867 2866
1912 1 2867 2868
1913 1 2870 2869
1914 1 2870 2871
1915 1 2873 2872
1916 1 2873 2874
1917 1 2876 2875
1918 1 2876 2877
1919 1 2879 2878
1920 1 2879 2880
1921 1 2882 2881
1922 1 2882 2883
1923 1 2885 2884
1924 1 2885 2886
1925 1 2888 2887
1926 1 2888 2889
1927 1 2891 2890
1928 1 2891 2892
1929 1 2894 2893
1930 1 2894 2895
1931 1 2897 2896
1932 1 2897 2898
1933 1 2900 2899
1934 1 2900 2901
1935 1 2903 2902
1936 1 2903 2904
1937 1 2906 2905
1938 1 2906 2907
1939 1 2909 2908
1940 1 2909 2910
1941 1 2912 2911
1942 1 2912 2913
1943 1 2915 2914
1944 1 2915 2916
1945 1 2918 2917
1946 1 2918 2919
1947 1 2921 2920
1948 1 2921 2922
1949 1 2924 2923
1950 1 2924 2925
1951 1 2927 2926
1952 1 2927 2928
1953 1 2930 2929
1954 1 2930 2931
1955 1 2933 2932
1956 1 2933 2934
1957 1 2936 2935
1958 1 2936 2937
1959 1 2939 2938
1960 1 2939 2940
1961 1 2942 2941
1962 1 2942 2943
1963 1 2945 2944
1964 1 2945 2946
1965 1 2948 2947
1966 1 2948 2949
1967 1 2951 2950
1968 1 2951 2952
1969 1 2954 2953
1970 1 2954 2955
1971 1 2957 2956
1972 1 2957 2958
1973 1 2960 2959
1974 1 2960 2961
1975 1 2963 2962
1976 1 2963 2964
1977 1 2966 2965
1978 1 2966 2967
1979 1 2969 2968
1980 1 2969 2970
1981 1 2972 2971
1982 1 2972 2973
1983 1 2975 2974
1984 1 2975 2976
1985 1 2978 2977
1986 1 2978 2979
1987 1 2981 2980
1988 1 2981 2982
1989 1 2984 2983
1990 1 2984 2985
1991 1 2987 2986
1992 1 2987 2988
1993 1 2990 2989
1994 1 2990 2991
1995 1 2993 2992
1996 1 2993 2994
1997 1 2996 2995
1998 1 2996 2997
1999 1 2999 2998
2000 1 2999 3000
2001 1 3002 3001
2002 1 3002 3003
2003 1 3005 3004
2004 1 3005 3006
2005 1 3008 3007
2006 1 3008 3009
2007 1 3011 3010
2008 1 3011 3012
2009 1 3014 3013
2010 1 3014 3015
2011 1 3017 3016
2012 1 3017 3018
2013 1 3020 3019
2014 1 3020 3021
2015 1 3023 3022
2016 1 3023 3024
2017 1 3026 3025
2018 1 3026 3027
2019 1 3029 3028
2020 1 3029 3030
2021 1 3032 3031
2022 1 3032 3033
2023 1 3035 3034
2024 1 3035 3036
2025 1 3038 3037
2026 1 3038 3039
2027 1 3041 3040
2028 1 3041 3042
2029 1 3044 3043
2030 1 3044 3045
2031 1 3047 3046
2032 1 3047 3048
2033 1 3050 3049
2034 1 3050 3051
2035 1 3053 3052
2036 1 3053 3054
2037 1 3056 3055
2038 1 3056 3057
2039 1 3059 3058
2040 1 3059 3060
2041 1 3062 3061
2042 1 3062 3063
2043 1 3065 3064
2044 1 3065 3066
2045 1 3068 3067
2046 1 3068 3069
2047 1 3071 3070
2048 1 3071 3072
2049 1 3074 3073
2050 1 3074 3075
2051 1 3077 3076
2052 1 3077 3078
2053 1 3080 3079
2054 1 3080 3081
2055 1 3083 3082
2056 1 3083 3084
2057 1 3086 3085
2058 1 3086 3087
2059 1 3089 3088
2060 1 3089 3090
2061 1 3092 3091
2062 1 3092 3093
2063 1 3095 3094
2064 1 3095 3096
2065 1 3098 3097
2066 1 3098 3099
2067 1 3101 3100
2068 1 3101 3102
2069 1 3104 3103
2070 1 3104 3105
2071 1 3107 3106
2072 1 3107 3108
2073 1 3110 3109
2074 1 3110 3111
2075 1 3113 3112
2076 1 3113 3114
2077 1 3116 3115
2078 1 3116 3117
2079 1 3119 3118
2080 1 3119 3120
2081 1 3122 3121
2082 1 3122 3123
2083 1 3125 3124
2084 1 3125 3126
2085 1 3128 3127
2086 1 3128 3129
2087 1 3131 3130
2088 1 3131 3132
2089 1 3134 3133
2090 1 3134 3135
2091 1 3137 3136
2092 1 3137 3138
2093 1 3140 3139
2094 1 3140 3141
2095 1 3143 3142
2096 1 3143 3144
2097 1 3146 3145
2098 1 3146 3147
2099 1 3149 3148
2100 1 3149 3150
2101 1 3152 3151
2102 1 3152 3153
2103 1 3155 3154
2104 1 3155 3156
2105 1 3158 3157
2106 1 3158 3159
2107 1 3161 3160
2108 1 3161 3162
2109 1 3164 3163
2110 1 3164 3165
2111 1 3167 3166
2112 1 3167 3168
2113 1 3170 3169
2114 1 3170 3171
2115 1 3173 3172
2116 1 3173 3174
2117 1 3176 3175
2118 1 3176 3177
2119 1 3179 3178
2120 1 3179 3180
2121 1 3182 3181
2122 1 3182 3183
2123 1 3185 3184
2124 1 3185 3186
2125 1 3188 3187
2126 1 3188 3189
2127 1 3191 3190
2128 1 3191 3192
2129 1 3194 3193
2130 1 3194 3195
2131 1 3197 3196
2132 1 3197 3198
2133 1 3200 3199
2134 1 3200 3201
2135 1 3203 3202
2136 1 3203 3204
2137 1 3206 3205
2138 1 3206 3207
2139 1 3209 3208
2140 1 3209 3210
2141 1 3212 3211
2142 1 3212 3213
2143 1 3215 3214
2144 1 3215 3216
2145 1 3218 3217
2146 1 3218 3219
2147 1 3221 3220
2148 1 3221 3222
2149 1 3224 3223
2150 1 3224 3225
2151 1 3227 3226
2152 1 3227 3228
2153 1 3230 3229
2154 1 3230 3231
2155 1 3233 3232
2156 1 3233 3234
2157 1 3236 3235
2158 1 3236 3237
2159 1 3239 3238
2160 1 3239 3240
2161 1 3242 3241
2162 1 3242 3243
2163 1 3245 3244
2164 1 3245 3246
2165 1 3248 3247
2166 1 3248 3249
2167 1 3251 3250
2168 1 3251 3252
2169 1 3254 3253
2170 1 3254 3255
2171 1 3257 3256
2172 1 3257 3258
2173 1 3260 3259
2174 1 3260 3261
2175 1 3263 3262
2176 1 3263 3264
2177 1 3266 3265
2178 1 3266 3267
2179 1 3269 3268
2180 1 3269 3270
2181 1 3272 3271
2182 1 3272 3273
2183 1 3275 3274
2184 1 3275 3276
2185 1 3278 3277
2186 1 3278 3279
2187 1 3281 3280
2188 1 3281 3282
2189 1 3284 3283
2190 1 3284 3285
2191 1 3287 3286
2192 1 3287 3288
2193 1 3290 3289
2194 1 3290 3291
2195 1 3293 3292
2196 1 3293 3294
2197 1 3296 3295
2198 1 3296 3297
2199 1 3299 3298
2200 1 3299 3300
2201 1 3302 3301
2202 1 3302 3303
2203 1 3305 3304
2204 1 3305 3306
2205 1 3308 3307
2206 1 3308 3309
2207 1 3311 3310
2208 1 3311 3312
2209 1 3314 3313
2210 1 3314 3315
2211 1 3317 3316
2212 1 3317 3318
2213 1 3320 3319
2214 1 3320 3321
2215 1 3323 3322
2216 1 3323 3324
2217 1 3326 3325
2218 1 3326 3327
2219 1 3329 3328
2220 1 3329 3330
2221 1 3332 3331
2222 1 3332 3333
2223 1 3335 3334
2224 1 3335 3336
2225 1 3338 3337
2226 1 3338 3339
2227 1 3341 3340
2228 1 3341 3342
2229 1 3344 3343
2230 1 3344 3345
2231 1 3347 3346
2232 1 3347 3348
2233 1 3350 3349
2234 1 3350 3351
2235 1 3353 3352
2236 1 3353 3354
2237 1 3356 3355
2238 1 3356 3357
2239 1 3359 3358
2240 1 3359 3360
2241 1 3362 3361
2242 1 3362 3363
2243 1 3365 3364
2244 1 3365 3366
2245 1 3368 3367
2246 1 3368 3369
2247 1 3371 3370
2248 1 3371 3372
2249 1 3374 3373
2250 1 3374 3375
2251 1 3377 3376
2252 1 3377 3378
2253 1 3380 3379
2254 1 3380 3381
2255 1 3383 3382
2256 1 3383 3384
2257 1 3386 3385
2258 1 3386 3387
2259 1 3389 3388
2260 1 3389 3390
2261 1 3392 3391
2262 1 3392 3393
2263 1 3395 3394
2264 1 3395 3396
2265 1 3398 3397
2266 1 3398 3399
2267 1 3401 3400
2268 1 3401 3402
2269 1 3404 3403
2270 1 3404 3405
2271 1 3407 3406
2272 1 3407 3408
2273 1 3410 3409
2274 1 3410 3411
2275 1 3413 3412
2276 1 3413 3414
2277 1 3416 3415
2278 1 3416 3417
2279 1 3419 3418
2280 1 3419 3420
2281 1 3422 3421
2282 1 3422 3423
2283 1 3425 3424
2284 1 3425 3426
2285 1 3428 3427
2286 1 3428 3429
2287 1 3431 3430
2288 1 3431 3432
2289 1 3434 3433
2290 1 3434 3435
2291 1 3437 3436
2292 1 3437 3438
2293 1 3440 3439
2294 1 3440 3441
2295 1 3443 3442
2296 1 3443 3444
2297 1 3446 3445
2298 1 3446 3447
2299 1 3449 3448
2300 1 3449 3450
2301 1 3452 3451
2302 1 3452 3453
2303 1 3455 3454
2304 1 3455 3456
2305 1 3458 3457
2306 1 3458 3459
2307 1 3461 3460
2308 1 3461 3462
2309 1 3464 3463
2310 1 3464 3465
2311 1 3467 3466
2312 1 3467 3468
2313 1 3470 3469
2314 1 3470 3471
2315 1 3473 3472
2316 1 3473 3474
2317 1 3476 3475
2318 1 3476 3477
2319 1 3479 3478
2320 1 3479 3480
2321 1 3482 3481
2322 1 3482 3483
2323 1 3485 3484
2324 1 3485 3486
2325 1 3488 3487
2326 1 3488 3489
2327 1 3491 3490
2328 1 3491 3492
2329 1 3494 3493
2330 1 3494 3495
2331 1 3497 3496
2332 1 3497 3498
2333 1 3500 3499
2334 1 3500 3501
2335 1 3503 3502
2336 1 3503 3504
2337 1 3506 3505
2338 1 3506 3507
2339 1 3509 3508
2340 1 3509 3510
2341 1 3512 3511
2342 1 3512 3513
2343 1 3515 3514
2344 1 3515 3516
2345 1 3518 3517
2346 1 3518 3519
2347 1 3521 3520
2348 1 3521 3522
2349 1 3524 3523
2350 1 3524 3525
2351 1 3527 3526
2352 1 3527 3528
2353 1 3530 3529
2354 1 3530 3531
2355 1 3533 3532
2356 1 3533 3534
2357 1 3536 3535
2358 1 3536 3537
2359 1 3539 3538
2360 1 3539 3540
2361 1 3542 3541
2362 1 3542 3543
2363 1 3545 3544
2364 1 3545 3546
2365 1 3548 3547
2366 1 3548 3549
2367 1 3551 3550
2368 1 3551 3552
2369 1 3554 3553
2370 1 3554 3555
2371 1 3557 3556
2372 1 3557 3558
2373 1 3560 3559
2374 1 3560 3561
2375 1 3563 3562
2376 1 3563 3564
2377 1 3566 3565
2378 1 3566 3567
2379 1 3569 3568
2380 1 3569 3570
2381 1 3572 3571
2382 1 3572 3573
2383 1 3575 3574
2384 1 3575 3576
2385 1 3578 3577
2386 1 3578 3579
2387 1 3581 3580
2388 1 3581 3582
2389 1 3584 3583
2390 1 3584 3585
2391 1 3587 3586
2392 1 3587 3588
2393 1 3590 3589
2394 1 3590 3591
2395 1 3593 3592
2396 1 3593 3594
2397 1 3596 3595
2398 1 3596 3597
2399 1 3599 3598
2400 1 3599 3600
2401 1 3602 3601
2402 1 3602 3603
2403 1 3605 3604
2404 1 3605 3606
2405 1 3608 3607
2406 1 3608 3609
2407 1 3611 3610
2408 1 3611 3612
2409 1 3614 3613
2410 1 3614 3615
2411 1 3617 3616
2412 1 3617 3618
2413 1 3620 3619
2414 1 3620 3621
2415 1 3623 3622
2416 1 3623 3624
2417 1 3626 3625
2418 1 3626 3627
2419 1 3629 3628
2420 1 3629 3630
2421 1 3632 3631
2422 1 3632 3633
2423 1 3635 3634
2424 1 3635 3636
2425 1 3638 3637
2426 1 3638 3639
2427 1 3641 3640
2428 1 3641 3642
2429 1 3644 3643
2430 1 3644 3645
2431 1 3647 3646
2432 1 3647 3648
2433 1 3650 3649
2434 1 3650 3651
2435 1 3653 3652
2436 1 3653 3654
2437 1 3656 3655
2438 1 3656 3657
2439 1 3659 3658
2440 1 3659 3660
2441 1 3662 3661
2442 1 3662 3663
2443 1 3665 3664
2444 1 3665 3666
2445 1 3668 3667
2446 1 3668 3669
2447 1 3671 3670
2448 1 3671 3672
2449 1 3674 3673
2450 1 3674 3675
2451 1 3677 3676
2452 1 3677 3678
2453 1 3680 3679
2454 1 3680 3681
2455 1 3683 3682
2456 1 3683 3684
2457 1 3686 3685
2458 1 3686 3687
2459 1 3689 3688
2460 1 3689 3690
2461 1 3692 3691
2462 1 3692 3693
2463 1 3695 3694
2464 1 3695 3696
2465 1 3698 3697
2466 1 3698 3699
2467 1 3701 3700
2468 1 3701 3702
2469 1 3704 3703
2470 1 3704 3705
2471 1 3707 3706
2472 1 3707 3708
2473 1 3710 3709
2474 1 3710 3711
2475 1 3713 3712
2476 1 3713 3714
2477 1 3716 3715
2478 1 3716 3717
2479 1 3719 3718
2480 1 3719 3720
2481 1 3722 3721
2482 1 3722 3723
2483 1 3725 3724
2484 1 3725 3726
2485 1 3728 3727
2486 1 3728 3729
2487 1 3731 3730
2488 1 3731 3732
2489 1 3734 3733
2490 1 3734 3735
2491 1 3737 3736
2492 1 3737 3738
2493 1 3740 3739
2494 1 3740 3741
2495 1 3743 3742
2496 1 3743 3744
2497 1 3746 3745
2498 1 3746 3747
2499 1 3749 3748
2500 1 3749 3750
2501 1 3752 3751
2502 1 3752 3753
2503 1 3755 3754
2504 1 3755 3756
2505 1 3758 3757
2506 1 3758 3759
2507 1 3761 3760
2508 1 3761 3762
2509 1 3764 3763
2510 1 3764 3765
2511 1 3767 3766
2512 1 3767 3768
2513 1 3770 3769
2514 1 3770 3771
2515 1 3773 3772
2516 1 3773 3774
2517 1 3776 3775
2518 1 3776 3777
2519 1 3779 3778
2520 1 3779 3780
2521 1 3782 3781
2522 1 3782 3783
2523 1 3785 3784
2524 1 3785 3786
2525 1 3788 3787
2526 1 3788 3789
2527 1 3791 3790
2528 1 3791 3792
2529 1 3794 3793
2530 1 3794 3795
2531 1 3797 3796
2532 1 3797 3798
2533 1 3800 3799
2534 1 3800 3801
2535 1 3803 3802
2536 1 3803 3804
2537 1 3806 3805
2538 1 3806 3807
2539 1 3809 3808
2540 1 3809 3810
2541 1 3812 3811
2542 1 3812 3813
2543 1 3815 3814
2544 1 3815 3816
2545 1 3818 3817
2546 1 3818 3819
2547 1 3821 3820
2548 1 3821 3822
2549 1 3824 3823
2550 1 3824 3825
2551 1 3827 3826
2552 1 3827 3828
2553 1 3830 3829
2554 1 3830 3831
2555 1 3833 3832
2556 1 3833 3834
2557 1 3836 3835
2558 1 3836 3837
2559 1 3839 3838
2560 1 3839 3840
2561 1 3842 3841
2562 1 3842 3843
2563 1 3845 3844
2564 1 3845 3846
2565 1 3848 3847
2566 1 3848 3849
2567 1 3851 3850
2568 1 3851 3852
2569 1 3854 3853
2570 1 3854 3855
2571 1 3857 3856
2572 1 3857 3858
2573 1 3860 3859
2574 1 3860 3861
2575 1 3863 3862
2576 1 3863 3864
2577 1 3866 3865
2578 1 3866 3867
2579 1 3869 3868
2580 1 3869 3870
2581 1 3872 3871
2582 1 3872 3873
2583 1 3875 3874
2584 1 3875 3876
2585 1 3878 3877
2586 1 3878 3879
2587 1 3881 3880
2588 1 3881 3882
2589 1 3884 3883
2590 1 3884 3885
2591 1 3887 3886
2592 1 3887 3888
2593 1 3890 3889
2594 1 3890 3891
2595 1 3893 3892
2596 1 3893 3894
2597 1 3896 3895
2598 1 3896 3897
2599 1 3899 3898
2600 1 3899 3900
2601 1 3902 3901
2602 1 3902 3903
2603 1 3905 3904
2604 1 3905 3906
2605 1 3908 3907
2606 1 3908 3909
2607 1 3911 3910
2608 1 3911 3912
2609 1 3914 3913
2610 1 3914 3915
2611 1 3917 3916
2612 1 3917 3918
2613 1 3920 3919
2614 1 3920 3921
2615 1 3923 3922
2616 1 3923 3924
2617 1 3926 3925
2618 1 3926 3927
2619 1 3929 3928
2620 1 3929 3930
2621 1 3932 3931
2622 1 3932 3933
2623 1 3935 3934
2624 1 3935 3936
2625 1 3938 3937
2626 1 3938 3939
2627 1 3941 3940
2628 1 3941 3942
2629 1 3944 3943
2630 1 3944 3945
2631 1 3947 3946
2632 1 3947 3948
2633 1 3950 3949
2634 1 3950 3951
2635 1 3953 3952
2636 1 3953 3954
2637 1 3956 3955
2638 1 3956 3957
2639 1 3959 3958
2640 1 3959 3960
2641 1 3962 3961
2642 1 3962 3963
2643 1 3965 3964
2644 1 3965 3966
2645 1 3968 3967
2646 1 3968 3969
2647 1 3971 3970
2648 1 3971 3972
2649 1 3974 3973
2650 1 3974 3975
2651 1 3977 3976
2652 1 3977 3978
2653 1 3980 3979
2654 1 3980 3981
2655 1 3983 3982
2656 1 3983 3984
2657 1 3986 3985
2658 1 3986 3987
2659 1 3989 3988
2660 1 3989 3990
2661 1 3992 3991
2662 1 3992 3993
2663 1 3995 3994
2664 1 3995 3996
2665 1 3998 3997
2666 1 3998 3999
2667 1 4001 4000
2668 1 4001 4002
2669 1 4004 4003
2670 1 4004 4005
2671 1 4007 4006
2672 1 4007 4008
2673 1 4010 4009
2674 1 4010 4011
2675 1 4013 4012
2676 1 4013 4014
2677 1 4016 4015
2678 1 4016 4017
2679 1 4019 4018
2680 1 4019 4020
2681 1 4022 4021
2682 1 4022 4023
2683 1 4025 4024
2684 1 4025 4026
2685 1 4028 4027
2686 1 4028 4029
2687 1 4031 4030
2688 1 4031 4032
2689 1 4034 4033
2690 1 4034 4035
2691 1 4037 4036
2692 1 4037 4038
2693 1 4040 4039
2694 1 4040 4041
2695 1 4043 4042
2696 1 4043 4044
2697 1 4046 4045
2698 1 4046 4047
2699 1 4049 4048
2700 1 4049 4050
2701 1 4052 4051
2702 1 4052 4053
2703 1 4055 4054
2704 1 4055 4056
2705 1 4058 4057
2706 1 4058 4059
2707 1 4061 4060
2708 1 4061 4062
2709 1 4064 4063
2710 1 4064 4065
2711 1 4067 4066
2712 1 4067 4068
2713 1 4070 4069
2714 1 4070 4071
2715 1 4073 4072
2716 1 4073 4074
2717 1 4076 4075
2718 1 4076 4077
2719 1 4079 4078
2720 1 4079 4080
2721 1 4082 4081
2722 1 4082 4083
2723 1 4085 4084
2724 1 4085 4086
2725 1 4088 4087
2726 1 4088 4089
2727 1 4091 4090
2728 1 4091 4092
2729 1 4094 4093
2730 1 4094 4095
2731 1 4097 4096
2732 1 4097 4098
2733 1 4100 4099
2734 1 4100 4101
2735 1 4103 4102
2736 1 4103 4104
2737 1 4106 4105
2738 1 4106 4107
2739 1 4109 4108
2740 1 4109 4110
2741 1 4112 4111
2742 1 4112 4113
2743 1 4115 4114
2744 1 4115 4116
2745 1 4118 4117
2746 1 4118 4119
2747 1 4121 4120
2748 1 4121 4122
2749 1 4124 4123
2750 1 4124 4125
2751 1 4127 4126
2752 1 4127 4128
2753 1 4130 4129
2754 1 4130 4131
2755 1 4133 4132
2756 1 4133 4134
2757 1 4136 4135
2758 1 4136 4137
2759 1 4139 4138
2760 1 4139 4140
2761 1 4142 4141
2762 1 4142 4143
2763 1 4145 4144
2764 1 4145 4146
2765 1 4148 4147
2766 1 4148 4149
2767 1 4151 4150
2768 1 4151 4152
2769 1 4154 4153
2770 1 4154 4155
2771 1 4157 4156
2772 1 4157 4158
2773 1 4160 4159
2774 1 4160 4161
2775 1 4163 4162
2776 1 4163 4164
2777 1 4166 4165
2778 1 4166 4167
2779 1 4169 4168
2780 1 4169 4170
2781 1 4172 4171
2782 1 4172 4173
2783 1 4175 4174
2784 1 4175 4176
2785 1 4178 4177
2786 1 4178 4179
2787 1 4181 4180
2788 1 4181 4182
2789 1 4184 4183
2790 1 4184 4185
2791 1 4187 4186
2792 1 4187 4188
2793 1 4190 4189
2794 1 4190 4191
2795 1 4193 4192
2796 1 4193 4194
2797 1 4196 4195
2798 1 4196 4197
2799 1 4199 4198
2800 1 4199 4200
2801 1 4202 4201
2802 1 4202 4203
2803 1 4205 4204
2804 1 4205 4206
2805 1 4208 4207
2806 1 4208 4209
2807 1 4211 4210
2808 1 4211 4212
2809 1 4214 4213
2810 1 4214 4215
2811 1 4217 4216
2812 1 4217 4218
2813 1 4220 4219
2814 1 4220 4221
2815 1 4223 4222
2816 1 4223 4224
2817 1 4226 4225
2818 1 4226 4227
2819 1 4229 4228
2820 1 4229 4230
2821 1 4232 4231
2822 1 4232 4233
2823 1 4235 4234
2824 1 4235 4236
2825 1 4238 4237
2826 1 4238 4239
2827 1 4241 4240
2828 1 4241 4242
2829 1 4244 4243
2830 1 4244 4245
2831 1 4247 4246
2832 1 4247 4248
2833 1 4250 4249
2834 1 4250 4251
2835 1 4253 4252
2836 1 4253 4254
2837 1 4256 4255
2838 1 4256 4257
2839 1 4259 4258
2840 1 4259 4260
2841 1 4262 4261
2842 1 4262 4263
2843 1 4265 4264
2844 1 4265 4266
2845 1 4268 4267
2846 1 4268 4269
2847 1 4271 4270
2848 1 4271 4272
2849 1 4274 4273
2850 1 4274 4275
2851 1 4277 4276
2852 1 4277 4278
2853 1 4280 4279
2854 1 4280 4281
2855 1 4283 4282
2856 1 4283 4284
2857 1 4286 4285
2858 1 4286 4287
2859 1 4289 4288
2860 1 4289 4290
2861 1 4292 4291
2862 1 4292 4293
2863 1 4295 4294
2864 1 4295 4296
2865 1 4298 4297
2866 1 4298 4299
2867 1 4301 4300
2868 1 4301 4302
2869 1 4304 4303
2870 1 4304 4305
2871 1 4307 4306
2872 1 4307 4308
2873 1 4310 4309
2874 1 4310 4311
2875 1 4313 4312
2876 1 4313 4314
2877 1 4316 4315
2878 1 4316 4317
2879 1 4319 4318
2880 1 4319 4320
2881 1 4322 4321
2882 1 4322 4323
2883 1 4325 4324
2884 1 4325 4326
2885 1 4328 4327
2886 1 4328 4329
2887 1 4331 4330
2888 1 4331 4332
2889 1 4334 4333
2890 1 4334 4335
2891 1 4337 4336
2892 1 4337 4338
2893 1 4340 4339
2894 1 4340 4341
2895 1 4343 4342
2896 1 4343 4344
2897 1 4346 4345
2898 1 4346 4347
2899 1 4349 4348
2900 1 4349 4350
2901 1 4352 4351
2902 1 4352 4353
2903 1 4355 4354
2904 1 4355 4356
2905 1 4358 4357
2906 1 4358 4359
2907 1 4361 4360
2908 1 4361 4362
2909 1 4364 4363
2910 1 4364 4365
2911 1 4367 4366
2912 1 4367 4368
2913 1 4370 4369
2914 1 4370 4371
2915 1 4373 4372
2916 1 4373 4374
2917 1 4376 4375
2918 1 4376 4377
2919 1 4379 4378
2920 1 4379 4380
2921 1 4382 4381
2922 1 4382 4383
2923 1 4385 4384
2924 1 4385 4386
2925 1 4388 4387
2926 1 4388 4389
2927 1 4391 4390
2928 1 4391 4392
2929 1 4394 4393
2930 1 4394 4395
2931 1 4397 4396
2932 1 4397 4398
2933 1 4400 4399
2934 1 4400 4401
2935 1 4403 4402
2936 1 4403 4404
2937 1 4406 4405
2938 1 4406 4407
2939 1 4409 4408
2940 1 4409 4410
2941 1 4412 4411
2942 1 4412 4413
2943 1 4415 4414
2944 1 4415 4416
2945 1 4418 4417
2946 1 4418 4419
2947 1 4421 4420
2948 1 4421 4422
2949 1 4424 4423
2950 1 4424 4425
2951 1 4427 4426
2952 1 4427 4428
2953 1 4430 4429
2954 1 4430 4431
2955 1 4433 4432
2956 1 4433 4434
2957 1 4436 4435
2958 1 4436 4437
2959 1 4439 4438
2960 1 4439 4440
2961 1 4442 4441
2962 1 4442 4443
2963 1 4445 4444
2964 1 4445 4446
2965 1 4448 4447
2966 1 4448 4449
2967 1 4451 4450
2968 1 4451 4452
2969 1 4454 4453
2970 1 4454 4455
2971 1 4457 4456
2972 1 4457 4458
2973 1 4460 4459
2974 1 4460 4461
2975 1 4463 4462
2976 1 4463 4464
2977 1 4466 4465
2978 1 4466 4467
2979 1 4469 4468
2980 1 4469 4470
2981 1 4472 4471
2982 1 4472 4473
2983 1 4475 4474
2984 1 4475 4476
2985 1 4478 4477
2986 1 4478 4479
2987 1 4481 4480
2988 1 4481 4482
2989 1 4484 4483
2990 1 4484 4485
2991 1 4487 4486
2992 1 4487 4488
2993 1 4490 4489
2994 1 4490 4491
2995 1 4493 4492
2996 1 4493 4494
2997 1 4496 4495
2998 1 4496 4497
2999 1 4499 4498
3000 1 4499 4500
3001 1 4502 4501
3002 1 4502 4503
3003 1 4505 4504
3004 1 4505 4506
3005 1 4508 4507
3006 1 4508 4509
3007 1 4511 4510
3008 1 4511 4512
3009 1 4514 4513
3010 1 4514 4515
3011 1 4517 4516
3012 1 4517 4518
3013 1 4520 4519
3014 1 4520 4521
3015 1 4523 4522
3016 1 4523 4524
3017 1 4526 4525
3018 1 4526 4527
3019 1 4529 4528
3020 1 4529 4530
3021 1 4532 4531
3022 1 4532 4533
3023 1 4535 4534
3024 1 4535 4536
3025 1 4538 4537
3026 1 4538 4539
3027 1 4541 4540
3028 1 4541 4542
3029 1 4544 4543
3030 1 4544 4545
3031 1 4547 4546
3032 1 4547 4548
3033 1 4550 4549
3034 1 4550 4551
3035 1 4553 4552
3036 1 4553 4554
3037 1 4556 4555
3038 1 4556 4557
3039 1 4559 4558
3040 1 4559 4560
3041 1 4562 4561
3042 1 4562 4563
3043 1 4565 4564
3044 1 4565 4566
3045 1 4568 4567
3046 1 4568 4569
3047 1 4571 4570
3048 1 4571 4572
3049 1 4574 4573
3050 1 4574 4575
3051 1 4577 4576
3052 1 4577 4578
3053 1 4580 4579
3054 1 4580 4581
3055 1 4583 4582
3056 1 4583 4584
3057 1 4586 4585
3058 1 4586 4587
3059 1 4589 4588
3060 1 4589 4590
3061 1 4592 4591
3062 1 4592 4593
3063 1 4595 4594
3064 1 4595 4596
3065 1 4598 4597
3066 1 4598 4599
3067 1 4601 4600
3068 1 4601 4602
3069 1 4604 4603
3070 1 4604 4605
3071 1 4607 4606
3072 1 4607 4608
3073 1 4610 4609
3074 1 4610 4611
3075 1 4613 4612
3076 1 4613 4614
3077 1 4616 4615
3078 1 4616 4617
3079 1 4619 4618
3080 1 4619 4620
3081 1 4622 4621
3082 1 4622 4623
3083 1 4625 4624
3084 1 4625 4626
3085 1 4628 4627
3086 1 4628 4629
3087 1 4631 4630
3088 1 4631 4632
3089 1 4634 4633
3090 1 4634 4635
3091 1 4637 4636
3092 1 4637 4638
3093 1 4640 4639
3094 1 4640 4641
3095 1 4643 4642
3096 1 4643 4644
3097 1 4646 4645
3098 1 4646 4647
3099 1 4649 4648
3100 1 4649 4650
3101 1 4652 4651
3102 1 4652 4653
3103 1 4655 4654
3104 1 4655 4656
3105 1 4658 4657
3106 1 4658 4659
3107 1 4661 4660
3108 1 4661 4662
3109 1 4664 4663
3110 1 4664 4665
3111 1 4667 4666
3112 1 4667 4668
3113 1 4670 4669
3114 1 4670 4671
3115 1 4673 4672
3116 1 4673 4674
3117 1 4676 4675
3118 1 4676 4677
3119 1 4679 4678
3120 1 4679 4680
3121 1 4682 4681
3122 1 4682 4683
3123 1 4685 4684
3124 1 4685 4686
3125 1 4688 4687
3126 1 4688 4689
3127 1 4691 4690
3128 1 4691 4692
3129 1 4694 4693
3130 1 4694 4695
3131 1 4697 4696
3132 1 4697 4698
3133 1 4700 4699
3134 1 4700 4701
3135 1 4703 4702
3136 1 4703 4704
3137 1 4706 4705
3138 1 4706 4707
3139 1 4709 4708
3140 1 4709 4710
3141 1 4712 4711
3142 1 4712 4713
3143 1 4715 4714
3144 1 4715 4716
3145 1 4718 4717
3146 1 4718 4719
3147 1 4721 4720
3148 1 4721 4722
3149 1 4724 4723
3150 1 4724 4725
3151 1 4727 4726
3152 1 4727 4728
3153 1 4730 4729
3154 1 4730 4731
3155 1 4733 4732
3156 1 4733 4734
3157 1 4736 4735
3158 1 4736 4737
3159 1 4739 4738
3160 1 4739 4740
3161 1 4742 4741
3162 1 4742 4743
3163 1 4745 4744
3164 1 4745 4746
3165 1 4748 4747
3166 1 4748 4749
3167 1 4751 4750
3168 1 4751 4752
3169 1 4754 4753
3170 1 4754 4755
3171 1 4757 4756
3172 1 4757 4758
3173 1 4760 4759
3174 1 4760 4761
3175 1 4763 4762
3176 1 4763 4764
3177 1 4766 4765
3178 1 4766 4767
3179 1 4769 4768
3180 1 4769 4770
3181 1 4772 4771
3182 1 4772 4773
3183 1 4775 4774
3184 1 4775 4776
3185 1 4778 4777
3186 1 4778 4779
3187 1 4781 4780
3188 1 4781 4782
3189 1 4784 4783
3190 1 4784 4785
3191 1 4787 4786
3192 1 4787 4788
3193 1 4790 4789
3194 1 4790 4791
3195 1 4793 4792
3196 1 4793 4794
3197 1 4796 4795
3198 1 4796 4797
3199 1 4799 4798
3200 1 4799 4800
3201 1 4802 4801
3202 1 4802 4803
3203 1 4805 4804
3204 1 4805 4806
3205 1 4808 4807
3206 1 4808 4809
3207 1 4811 4810
3208 1 4811 4812
3209 1 4814 4813
3210 1 4814 4815
3211 1 4817 4816
3212 1 4817 4818
3213 1 4820 4819
3214 1 4820 4821
3215 1 4823 4822
3216 1 4823 4824
3217 1 4826 4825
3218 1 4826 4827
3219 1 4829 4828
3220 1 4829 4830
3221 1 4832 4831
3222 1 4832 4833
3223 1 4835 4834
3224 1 4835 4836
3225 1 4838 4837
3226 1 4838 4839
3227 1 4841 4840
3228 1 4841 4842
3229 1 4844 4843
3230 1 4844 4845
3231 1 4847 4846
3232 1 4847 4848
3233 1 4850 4849
3234 1 4850 4851
3235 1 4853 4852
3236 1 4853 4854
3237 1 4856 4855
3238 1 4856 4857
3239 1 4859 4858
3240 1 4859 4860
3241 1 4862 4861
3242 1 4862 4863
3243 1 4865 4864
3244 1 4865 4866
3245 1 4868 4867
3246 1 4868 4869
3247 1 4871 4870
3248 1 4871 4872
3249 1 4874 4873
3250 1 4874 4875
3251 1 4877 4876
3252 1 4877 4878
3253 1 4880 4879
3254 1 4880 4881
3255 1 4883 4882
3256 1 4883 4884
3257 1 4886 4885
3258 1 4886 4887
3259 1 4889 4888
3260 1 4889 4890
3261 1 4892 4891
3262 1 4892 4893
3263 1 4895 4894
3264 1 4895 4896
3265 1 4898 4897
3266 1 4898 4899
3267 1 4901 4900
3268 1 4901 4902
3269 1 4904 4903
3270 1 4904 4905
3271 1 4907 4906
3272 1 4907 4908
3273 1 4910 4909
3274 1 4910 4911
3275 1 4913 4912
3276 1 4913 4914
3277 1 4916 4915
3278 1 4916 4917
3279 1 4919 4918
3280 1 4919 4920
3281 1 4922 4921
3282 1 4922 4923
3283 1 4925 4924
3284 1 4925 4926
3285 1 4928 4927
3286 1 4928 4929
3287 1 4931 4930
3288 1 4931 4932
3289 1 4934 4933
3290 1 4934 4935
3291 1 4937 4936
3292 1 4937 4938
3293 1 4940 4939
3294 1 4940 4941
3295 1 4943 4942
3296 1 4943 4944
3297 1 4946 4945
3298 1 4946 4947
3299 1 4949 4948
3300 1 4949 4950
3301 1 4952 4951
3302 1 4952 4953
3303 1 4955 4954
3304 1 4955 4956
3305 1 4958 4957
3306 1 4958 4959
3307 1 4961 4960
3308 1 4961 4962
3309 1 4964 4963
3310 1 4964 4965
3311 1 4967 4966
3312 1 4967 4968
3313 1 4970 4969
3314 1 4970 4971
3315 1 4973 4972
3316 1 4973 4974
3317 1 4976 4975
3318 1 4976 4977
3319 1 4979 4978
3320 1 4979 4980
3321 1 4982 4981
3322 1 4982 4983
3323 1 4985 4984
3324 1 4985 4986
3325 1 4988 4987
3326 1 4988 4989
3327 1 4991 4990
3328 1 4991 4992
3329 1 4994 4993
3330 1 4994 4995
3331 1 4997 4996
3332 1 4997 4998
3333 1 5000 4999
3334 1 5000 5001
3335 1 5003 5002
3336 1 5003 5004
3337 1 5006 5005
3338 1 5006 5007
3339 1 5009 5008
3340 1 5009 5010
3341 1 5012 5011
3342 1 5012 5013
3343 1 5015 5014
3344 1 5015 5016
3345 1 5018 5017
3346 1 5018 5019
3347 1 5021 5020
3348 1 5021 5022
3349 1 5024 5023
3350 1 5024 5025
3351 1 5027 5026
3352 1 5027 5028
3353 1 5030 5029
3354 1 5030 5031
3355 1 5033 5032
3356 1 5033 5034
3357 1 5036 5035
3358 1 5036 5037
3359 1 5039 5038
3360 1 5039 5040
3361 1 5042 5041
3362 1 5042 5043
3363 1 5045 5044
3364 1 5045 5046
3365 1 5048 5047
3366 1 5048 5049
3367 1 5051 5050
3368 1 5051 5052
3369 1 5054 5053
3370 1 5054 5055
3371 1 5057 5056
3372 1 5057 5058
3373 1 5060 5059
3374 1 5060 5061
3375 1 5063 5062
3376 1 5063 5064
3377 1 5066 5065
3378 1 5066 5067
3379 1 5069 5068
3380 1 5069 5070
3381 1 5072 5071
3382 1 5072 5073
3383 1 5075 5074
3384 1 5075 5076
3385 1 5078 5077
3386 1 5078 5079
3387 1 5081 5080
3388 1 5081 5082
3389 1 5084 5083
3390 1 5084 5085
3391 1 5087 5086
3392 1 5087 5088
3393 1 5090 5089
3394 1 5090 5091
3395 1 5093 5092
3396 1 5093 5094
3397 1 5096 5095
3398 1 5096 5097
3399 1 5099 5098
3400 1 5099 5100
3401 1 5102 5101
3402 1 5102 5103
3403 1 5105 5104
3404 1 5105 5106
3405 1 5108 5107
3406 1 5108 5109
3407 1 5111 5110
3408 1 5111 5112
3409 1 5114 5113
3410 1 5114 5115
3411 1 5117 5116
3412 1 5117 5118
3413 1 5120 5119
3414 1 5120 5121
3415 1 5123 5122
3416 1 5123 5124
3417 1 5126 5125
3418 1 5126 5127
3419 1 5129 5128
3420 1 5129 5130
3421 1 5132 5131
3422 1 5132 5133
3423 1 5135 5134
3424 1 5135 5136
3425 1 5138 5137
3426 1 5138 5139
3427 1 5141 5140
3428 1 5141 5142
3429 1 5144 5143
3430 1 5144 5145
3431 1 5147 5146
3432 1 5147 5148
3433 1 5150 5149
3434 1 5150 5151
3435 1 5153 5152
3436 1 5153 5154
3437 1 5156 5155
3438 1 5156 5157
3439 1 5159 5158
3440 1 5159 5160
3441 1 5162 5161
3442 1 5162 5163
3443 1 5165 5164
3444 1 5165 5166
3445 1 5168 5167
3446 1 5168 5169
3447 1 5171 5170
3448 1 5171 5172
3449 1 5174 5173
3450 1 5174 5175
3451 1 5177 5176
3452 1 5177 5178
3453 1 5180 5179
3454 1 5180 5181
3455 1 5183 5182
3456 1 5183 5184
3457 1 5186 5185
3458 1 5186 5187
3459 1 5189 5188
3460 1 5189 5190
3461 1 5192 5191
3462 1 5192 5193
3463 1 5195 5194
3464 1 5195 5196
3465 1 5198 5197
3466 1 5198 5199
3467 1 5201 5200
3468 1 5201 5202
3469 1 5204 5203
3470 1 5204 5205
3471 1 5207 5206
3472 1 5207 5208
3473 1 5210 5209
3474 1 5210 5211
3475 1 5213 5212
3476 1 5213 5214
3477 1 5216 5215
3478 1 5216 5217
3479 1 5219 5218
3480 1 5219 5220
3481 1 5222 5221
3482 1 5222 5223
3483 1 5225 5224
3484 1 5225 5226
3485 1 5228 5227
3486 1 5228 5229
3487 1 5231 5230
3488 1 5231 5232
3489 1 5234 5233
3490 1 5234 5235
3491 1 5237 5236
3492 1 5237 5238
3493 1 5240 5239
3494 1 5240 5241
3495 1 5243 5242
3496 1 5243 5244
3497 1 5246 5245
3498 1 5246 5247
3499 1 5249 5248
3500 1 5249 5250
3501 1 5252 5251
3502 1 5252 5253
3503 1 5255 5254
3504 1 5255 5256
3505 1 5258 5257
3506 1 5258 5259
3507 1 5261 5260
3508 1 5261 5262
3509 1 5264 5263
3510 1 5264 5265
3511 1 5267 5266
3512 1 5267 5268
3513 1 5270 5269
3514 1 5270 5271
3515 1 5273 5272
3516 1 5273 5274
3517 1 5276 5275
3518 1 5276 5277
3519 1 5279 5278
3520 1 5279 5280
3521 1 5282 5281
3522 1 5282 5283
3523 1 5285 5284
3524 1 5285 5286
3525 1 5288 5287
3526 1 5288 5289
3527 1 5291 5290
3528 1 5291 5292
3529 1 5294 5293
3530 1 5294 5295
3531 1 5297 5296
3532 1 5297 5298
3533 1 5300 5299
3534 1 5300 5301
3535 1 5303 5302
3536 1 5303 5304
3537 1 5306 5305
3538 1 5306 5307
3539 1 5309 5308
3540 1 5309 5310
3541 1 5312 5311
3542 1 5312 5313
3543 1 5315 5314
3544 1 5315 5316
3545 1 5318 5317
3546 1 5318 5319
3547 1 5321 5320
3548 1 5321 5322
3549 1 5324 5323
3550 1 5324 5325
3551 1 5327 5326
3552 1 5327 5328
3553 1 5330 5329
3554 1 5330 5331
3555 1 5333 5332
3556 1 5333 5334
3557 1 5336 5335
3558 1 5336 5337
3559 1 5339 5338
3560 1 5339 5340
3561 1 5342 5341
3562 1 5342 5343
3563 1 5345 5344
3564 1 5345 5346
3565 1 5348 5347
3566 1 5348 5349
3567 1 5351 5350
3568 1 5351 5352
3569 1 5354 5353
3570 1 5354 5355
3571 1 5357 5356
3572 1 5357 5358
3573 1 5360 5359
3574 1 5360 5361
3575 1 5363 5362
3576 1 5363 5364
3577 1 5366 5365
3578 1 5366 5367
3579 1 5369 5368
3580 1 5369 5370
3581 1 5372 5371
3582 1 5372 5373
3583 1 5375 5374
3584 1 5375 5376
3585 1 5378 5377
3586 1 5378 5379
3587 1 5381 5380
3588 1 5381 5382
3589 1 5384 5383
3590 1 5384 5385
3591 1 5387 5386
3592 1 5387 5388
3593 1 5390 5389
3594 1 5390 5391
3595 1 5393 5392
3596 1 5393 5394
3597 1 5396 5395
3598 1 5396 5397
3599 1 5399 5398
3600 1 5399 5400
3601 1 5402 5401
3602 1 5402 5403
3603 1 5405 5404
3604 1 5405 5406
3605 1 5408 5407
3606 1 5408 5409
3607 1 5411 5410
3608 1 5411 5412
3609 1 5414 5413
3610 1 5414 5415
3611 1 5417 5416
3612 1 5417 5418
3613 1 5420 5419
3614 1 5420 5421
3615 1 5423 5422
3616 1 5423 5424
3617 1 5426 5425
3618 1 5426 5427
3619 1 5429 5428
3620 1 5429 5430
3621 1 5432 5431
3622 1 5432 5433
3623 1 5435 5434
3624 1 5435 5436
3625 1 5438 5437
3626 1 5438 5439
3627 1 5441 5440
3628 1 5441 5442
3629 1 5444 5443
3630 1 5444 5445
3631 1 5447 5446
3632 1 5447 5448
3633 1 5450 5449
3634 1 5450 5451
3635 1 5453 5452
3636 1 5453 5454
3637 1 5456 5455
3638 1 5456 5457
3639 1 5459 5458
3640 1 5459 5460
3641 1 5462 5461
3642 1 5462 5463
3643 1 5465 5464
3644 1 5465 5466
3645 1 5468 5467
3646 1 5468 5469
3647 1 5471 5470
3648 1 5471 5472
3649 1 5474 5473
3650 1 5474 5475
3651 1 5477 5476
3652 1 5477 5478
3653 1 5480 5479
3654 1 5480 5481
3655 1 5483 5482
3656 1 5483 5484
3657 1 5486 5485
3658 1 5486 5487
3659 1 5489 5488
3660 1 5489 5490
3661 1 5492 5491
3662 1 5492 5493
3663 1 5495 5494
3664 1 5495 5496
3665 1 5498 5497
3666 1 5498 5499
3667 1 5501 5500
3668 1 5501 5502
3669 1 5504 5503
3670 1 5504 5505
3671 1 5507 5506
3672 1 5507 5508
3673 1 5510 5509
3674 1 5510 5511
3675 1 5513 5512
3676 1 5513 5514
3677 1 5516 5515
3678 1 5516 5517
3679 1 5519 5518
3680 1 5519 5520
3681 1 5522 5521
3682 1 5522 5523
3683 1 5525 5524
3684 1 5525 5526
3685 1 5528 5527
3686 1 5528 5529
3687 1 5531 5530
3688 1 5531 5532
3689 1 5534 5533
3690 1 5534 5535
3691 1 5537 5536
3692 1 5537 5538
3693 1 5540 5539
3694 1 5540 5541
3695 1 5543 5542
3696 1 5543 5544
3697 1 5546 5545
3698 1 5546 5547
3699 1 5549 5548
3700 1 5549 5550
3701 1 5552 5551
3702 1 5552 5553
3703 1 5555 5554
3704 1 5555 5556
3705 1 5558 5557
3706 1 5558 5559
3707 1 5561 5560
3708 1 5561 5562
3709 1 5564 5563
3710 1 5564 5565
3711 1 5567 5566
3712 1 5567 5568
3713 1 5570 5569
3714 1 5570 5571
3715 1 5573 5572
3716 1 5573 5574
3717 1 5576 5575
3718 1 5576 5577
3719 1 5579 5578
3720 1 5579 5580
3721 1 5582 5581
3722 1 5582 5583
3723 1 5585 5584
3724 1 5585 5586
3725 1 5588 5587
3726 1 5588 5589
3727 1 5591 5590
3728 1 5591 5592
3729 1 5594 5593
3730 1 5594 5595
3731 1 5597 5596
3732 1 5597 5598
3733 1 5600 5599
3734 1 5600 5601
3735 1 5603 5602
3736 1 5603 5604
3737 1 5606 5605
3738 1 5606 5607
3739 1 5609 5608
3740 1 5609 5610
3741 1 5612 5611
3742 1 5612 5613
3743 1 5615 5614
3744 1 5615 5616
3745 1 5618 5617
3746 1 5618 5619
3747 1 5621 5620
3748 1 5621 5622
3749 1 5624 5623
3750 1 5624 5625
3751 1 5627 5626
3752 1 5627 5628
3753 1 5630 5629
3754 1 5630 5631
3755 1 5633 5632
3756 1 5633 5634
3757 1 5636 5635
3758 1 5636 5637
3759 1 5639 5638
3760 1 5639 5640
3761 1 5642 5641
3762 1 5642 5643
3763 1 5645 5644
3764 1 5645 5646
3765 1 5648 5647
3766 1 5648 5649
3767 1 5651 5650
3768 1 5651 5652
3769 1 5654 5653
3770 1 5654 5655
3771 1 5657 5656
3772 1 5657 5658
3773 1 5660 5659
3774 1 5660 5661
3775 1 5663 5662
3776 1 5663 5664
3777 1 5666 5665
3778 1 5666 5667
3779 1 5669 5668
3780 1 5669 5670
3781 1 5672 5671
3782 1 5672 5673
3783 1 5675 5674
3784 1 5675 5676
3785 1 5678 5677
3786 1 5678 5679
3787 1 5681 5680
3788 1 5681 5682
3789 1 5684 5683
3790 1 5684 5685
3791 1 5687 5686
3792 1 5687 5688
3793 1 5690 5689
3794 1 5690 5691
3795 1 5693 5692
3796 1 5693 5694
3797 1 5696 5695
3798 1 5696 5697
3799 1 5699 5698
3800 1 5699 5700
3801 1 5702 5701
3802 1 5702 5703
3803 1 5705 5704
3804 1 5705 5706
3805 1 5708 5707
3806 1 5708 5709
3807 1 5711 5710
3808 1 5711 5712
3809 1 5714 5713
3810 1 5714 5715
3811 1 5717 5716
3812 1 5717 5718
3813 1 5720 5719
3814 1 5720 5721
3815 1 5723 5722
3816 1 5723 5724
3817 1 5726 5725
3818 1 5726 5727
3819 1 5729 5728
3820 1 5729 5730
3821 1 5732 5731
3822 1 5732 5733
3823 1 5735 5734
3824 1 5735 5736
3825 1 5738 5737
3826 1 5738 5739
3827 1 5741 5740
3828 1 5741 5742
3829 1 5744 5743
3830 1 5744 5745
3831 1 5747 5746
3832 1 5747 5748
3833 1 5750 5749
3834 1 5750 5751
3835 1 5753 5752
3836 1 5753 5754
3837 1 5756 5755
3838 1 5756 5757
3839 1 5759 5758
3840 1 5759 5760
3841 1 5762 5761
3842 1 5762 5763
3843 1 5765 5764
3844 1 5765 5766
3845 1 5768 5767
3846 1 5768 5769
3847 1 5771 5770
3848 1 5771 5772
3849 1 5774 5773
3850 1 5774 5775
3851 1 5777 5776
3852 1 5777 5778
3853 1 5780 5779
3854 1 5780 5781
3855 1 5783 5782
3856 1 5783 5784
3857 1 5786 5785
3858 1 5786 5787
3859 1 5789 5788
3860 1 5789 5790
3861 1 5792 5791
3862 1 5792 5793
3863 1 5795 5794
3864 1 5795 5796
3865 1 5798 5797
3866 1 5798 5799
3867 1 5801 5800
3868 1 5801 5802
3869 1 5804 5803
3870 1 5804 5805
3871 1 5807 5806
3872 1 5807 5808
3873 1 5810 5809
3874 1 5810 5811
3875 1 5813 5812
3876 1 5813 5814
3877 1 5816 5815
3878 1 5816 5817
3879 1 5819 5818
3880 1 5819 5820
3881 1 5822 5821
3882 1 5822 5823
3883 1 5825 5824
3884 1 5825 5826
3885 1 5828 5827
3886 1 5828 5829
3887 1 5831 5830
3888 1 5831 5832
3889 1 5834 5833
3890 1 5834 5835
3891 1 5837 5836
3892 1 5837 5838
3893 1 5840 5839
3894 1 5840 5841
3895 1 5843 5842
3896 1 5843 5844
3897 1 5846 5845
3898 1 5846 5847
3899 1 5849 5848
3900 1 5849 5850
3901 1 5852 5851
3902 1 5852 5853
3903 1 5855 5854
3904 1 5855 5856
3905 1 5858 5857
3906 1 5858 5859
3907 1 5861 5860
3908 1 5861 5862
3909 1 5864 5863
3910 1 5864 5865
3911 1 5867 5866
3912 1 5867 5868
3913 1 5870 5869
3914 1 5870 5871
3915 1 5873 5872
3916 1 5873 5874
3917 1 5876 5875
3918 1 5876 5877
3919 1 5879 5878
3920 1 5879 5880
3921 1 5882 5881
3922 1 5882 5883
3923 1 5885 5884
3924 1 5885 5886
3925 1 5888 5887
3926 1 5888 5889
3927 1 5891 5890
3928 1 5891 5892
3929 1 5894 5893
3930 1 5894 5895
3931 1 5897 5896
3932 1 5897 5898
3933 1 5900 5899
3934 1 5900 5901
3935 1 5903 5902
3936 1 5903 5904
3937 1 5906 5905
3938 1 5906 5907
3939 1 5909 5908
3940 1 5909 5910
3941 1 5912 5911
3942 1 5912 5913
3943 1 5915 5914
3944 1 5915 5916
3945 1 5918 5917
3946 1 5918 5919
3947 1 5921 5920
3948 1 5921 5922
3949 1 5924 5923
3950 1 5924 5925
3951 1 5927 5926
3952 1 5927 5928
3953 1 5930 5929
3954 1 5930 5931
3955 1 5933 5932
3956 1 5933 5934
3957 1 5936 5935
3958 1 5936 5937
3959 1 5939 5938
3960 1 5939 5940
3961 1 5942 5941
3962 1 5942 5943
3963 1 5945 5944
3964 1 5945 5946
3965 1 5948 5947
3966 1 5948 5949
3967 1 5951 5950
3968 1 5951 5952
3969 1 5954 5953
3970 1 5954 5955
3971 1 5957 5956
3972 1 5957 5958
3973 1 5960 5959
3974 1 5960 5961
3975 1 5963 5962
3976 1 5963 5964
3977 1 5966 5965
3978 1 5966 5967
3979 1 5969 5968
3980 1 5969 5970
3981 1 5972 5971
3982 1 5972 5973
3983 1 5975 5974
3984 1 5975 5976
3985 1 5978 5977
3986 1 5978 5979
3987 1 5981 5980
3988 1 5981 5982
3989 1 5984 5983
3990 1 5984 5985
3991 1 5987 5986
3992 1 5987 5988
3993 1 5990 5989
3994 1 5990 5991
3995 1 5993 5992
3996 1 5993 5994
3997 1 5996 5995
3998 1 5996 5997
3999 1 5999 5998
4000 1 5999 6000
4001 1 6002 6001
4002 1 6002 6003
4003 1 6005 6004
4004 1 6005 6006
4005 1 6008 6007
4006 1 6008 6009
4007 1 6011 6010
4008 1 6011 6012
4009 1 6014 6013
4010 1 6014 6015
4011 1 6017 6016
4012 1 6017 6018
4013 1 6020 6019
4014 1 6020 6021
4015 1 6023 6022
4016 1 6023 6024
4017 1 6026 6025
4018 1 6026 6027
4019 1 6029 6028
4020 1 6029 6030
4021 1 6032 6031
4022 1 6032 6033
4023 1 6035 6034
4024 1 6035 6036
4025 1 6038 6037
4026 1 6038 6039
4027 1 6041 6040
4028 1 6041 6042
4029 1 6044 6043
4030 1 6044 6045
4031 1 6047 6046
4032 1 6047 6048
4033 1 6050 6049
4034 1 6050 6051
4035 1 6053 6052
4036 1 6053 6054
4037 1 6056 6055
4038 1 6056 6057
4039 1 6059 6058
4040 1 6059 6060
4041 1 6062 6061
4042 1 6062 6063
4043 1 6065 6064
4044 1 6065 6066
4045 1 6068 6067
4046 1 6068 6069
4047 1 6071 6070
4048 1 6071 6072
4049 1 6074 6073
4050 1 6074 6075
4051 1 6077 6076
4052 1 6077 6078
4053 1 6080 6079
4054 1 6080 6081
4055 1 6083 6082
4056 1 6083 6084
4057 1 6086 6085
4058 1 6086 6087
4059 1 6089 6088
4060 1 6089 6090
4061 1 6092 6091
4062 1 6092 6093
4063 1 6095 6094
4064 1 6095 6096
4065 1 6098 6097
4066 1 6098 6099
4067 1 6101 6100
4068 1 6101 6102
4069 1 6104 6103
4070 1 6104 6105
4071 1 6107 6106
4072 1 6107 6108
4073 1 6110 6109
4074 1 6110 6111
4075 1 6113 6112
4076 1 6113 6114
4077 1 6116 6115
4078 1 6116 6117
4079 1 6119 6118
4080 1 6119 6120
4081 1 6122 6121
4082 1 6122 6123
4083 1 6125 6124
4084 1 6125 6126
4085 1 6128 6127
4086 1 6128 6129
4087 1 6131 6130
4088 1 6131 6132
4089 1 6134 6133
4090 1 6134 6135
4091 1 6137 6136
4092 1 6137 6138
4093 1 6140 6139
4094 1 6140 6141
4095 1 6143 6142
4096 1 6143 6144
4097 1 6146 6145
4098 1 6146 6147
4099 1 6149 6148
4100 1 6149 6150
4101 1 6152 6151
4102 1 6152 6153
4103 1 6155 6154
4104 1 6155 6156
4105 1 6158 6157
4106 1 6158 6159
4107 1 6161 6160
4108 1 6161 6162
4109 1 6164 6163
4110 1 6164 6165
4111 1 6167 6166
4112 1 6167 6168
4113 1 6170 6169
4114 1 6170 6171
4115 1 6173 6172
4116 1 6173 6174
4117 1 6176 6175
4118 1 6176 6177
4119 1 6179 6178
4120 1 6179 6180
4121 1 6182 6181
4122 1 6182 6183
4123 1 6185 6184
4124 1 6185 6186
4125 1 6188 6187
4126 1 6188 6189
4127 1 6191 6190
4128 1 6191 6192
4129 1 6194 6193
4130 1 6194 6195
4131 1 6197 6196
4132 1 6197 6198
4133 1 6200 6199
4134 1 6200 6201
4135 1 6203 6202
4136 1 6203 6204
4137 1 6206 6205
4138 1 6206 6207
4139 1 6209 6208
4140 1 6209 6210
4141 1 6212 6211
4142 1 6212 6213
4143 1 6215 6214
4144 1 6215 6216
4145 1 6218 6217
4146 1 6218 6219
4147 1 6221 6220
4148 1 6221 6222
4149 1 6224 6223
4150 1 6224 6225
4151 1 6227 6226
4152 1 6227 6228
4153 1 6230 6229
4154 1 6230 6231
4155 1 6233 6232
4156 1 6233 6234
4157 1 6236 6235
4158 1 6236 6237
4159 1 6239 6238
4160 1 6239 6240
4161 1 6242 6241
4162 1 6242 6243
4163 1 6245 6244
4164 1 6245 6246
4165 1 6248 6247
4166 1 6248 6249
4167 1 6251 6250
4168 1 6251 6252
4169 1 6254 6253
4170 1 6254 6255
4171 1 6257 6256
4172 1 6257 6258
4173 1 6260 6259
4174 1 6260 6261
4175 1 6263 6262
4176 1 6263 6264
4177 1 6266 6265
4178 1 6266 6267
4179 1 6269 6268
4180 1 6269 6270
4181 1 6272 6271
4182 1 6272 6273
4183 1 6275 6274
4184 1 6275 6276
4185 1 6278 6277
4186 1 6278 6279
4187 1 6281 6280
4188 1 6281 6282
4189 1 6284 6283
4190 1 6284 6285
4191 1 6287 6286
4192 1 6287 6288
4193 1 6290 6289
4194 1 6290 6291
4195 1 6293 6292
4196 1 6293 6294
4197 1 6296 6295
4198 1 6296 6297
4199 1 6299 6298
4200 1 6299 6300
4201 1 6302 6301
4202 1 6302 6303
4203 1 6305 6304
4204 1 6305 6306
4205 1 6308 6307
4206 1 6308 6309
4207 1 6311 6310
4208 1 6311 6312
4209 1 6314 6313
4210 1 6314 6315
4211 1 6317 6316
4212 1 6317 6318
4213 1 6320 6319
4214 1 6320 6321
4215 1 6323 6322
4216 1 6323 6324
4217 1 6326 6325
4218 1 6326 6327
4219 1 6329 6328
4220 1 6329 6330
4221 1 6332 6331
4222 1 6332 6333
4223 1 6335 6334
4224 1 6335 6336
4225 1 6338 6337
4226 1 6338 6339
4227 1 6341 6340
4228 1 6341 6342
4229 1 6344 6343
4230 1 6344 6345
4231 1 6347 6346
4232 1 6347 6348
4233 1 6350 6349
4234 1 6350 6351
4235 1 6353 6352
4236 1 6353 6354
4237 1 6356 6355
4238 1 6356 6357
4239 1 6359 6358
4240 1 6359 6360
4241 1 6362 6361
4242 1 6362 6363
4243 1 6365 6364
4244 1 6365 6366
4245 1 6368 6367
4246 1 6368 6369
4247 1 6371 6370
4248 1 6371 6372
4249 1 6374 6373
4250 1 6374 6375
4251 1 6377 6376
4252 1 6377 6378
4253 1 6380 6379
4254 1 6380 6381
4255 1 6383 6382
4256 1 6383 6384
4257 1 6386 6385
4258 1 6386 6387
4259 1 6389 6388
4260 1 6389 6390
4261 1 6392 6391
4262 1 6392 6393
4263 1 6395 6394
4264 1 6395 6396
4265 1 6398 6397
4266 1 6398 6399
4267 1 6401 6400
4268 1 6401 6402
4269 1 6404 6403
4270 1 6404 6405
4271 1 6407 6406
4272 1 6407 6408
4273 1 6410 6409
4274 1 6410 6411
4275 1 6413 6412
4276 1 6413 6414
4277 1 6416 6415
4278 1 6416 6417
4279 1 6419 6418
4280 1 6419 6420
4281 1 6422 6421
4282 1 6422 6423
4283 1 6425 6424
4284 1 6425 6426
4285 1 6428 6427
4286 1 6428 6429
4287 1 6431 6430
4288 1 6431 6432
4289 1 6434 6433
4290 1 6434 6435
4291 1 6437 6436
4292 1 6437 6438
4293 1 6440 6439
4294 1 6440 6441
4295 1 6443 6442
4296 1 6443 6444
4297 1 6446 6445
4298 1 6446 6447
4299 1 6449 6448
4300 1 6449 6450
4301 1 6452 6451
4302 1 6452 6453
4303 1 6455 6454
4304 1 6455 6456
4305 1 6458 6457
4306 1 6458 6459
4307 1 6461 6460
4308 1 6461 6462
4309 1 6464 6463
4310 1 6464 6465
4311 1 6467 6466
4312 1 6467 6468
4313 1 6470 6469
4314 1 6470 6471
4315 1 6473 6472
4316 1 6473 6474
4317 1 6476 6475
4318 1 6476 6477
4319 1 6479 6478
4320 1 6479 6480
4321 1 6482 6481
4322 1 6482 6483
4323 1 6485 6484
4324 1 6485 6486
4325 1 6488 6487
4326 1 6488 6489
4327 1 6491 6490
4328 1 6491 6492
4329 1 6494 6493
4330 1 6494 6495
4331 1 6497 6496
4332 1 6497 6498
4333 1 6500 6499
4334 1 6500 6501
4335 1 6503 6502
4336 1 6503 6504
4337 1 6506 6505
4338 1 6506 6507
4339 1 6509 6508
4340 1 6509 6510
4341 1 6512 6511
4342 1 6512 6513
4343 1 6515 6514
4344 1 6515 6516
4345 1 6518 6517
4346 1 6518 6519
4347 1 6521 6520
4348 1 6521 6522
4349 1 6524 6523
4350 1 6524 6525
4351 1 6527 6526
4352 1 6527 6528
4353 1 6530 6529
4354 1 6530 6531
4355 1 6533 6532
4356 1 6533 6534
4357 1 6536 6535
4358 1 6536 6537
4359 1 6539 6538
4360 1 6539 6540
4361 1 6542 6541
4362 1 6542 6543
4363 1 6545 6544
4364 1 6545 6546
4365 1 6548 6547
4366 1 6548 6549
4367 1 6551 6550
4368 1 6551 6552
4369 1 6554 6553
4370 1 6554 6555
4371 1 6557 6556
4372 1 6557 6558
4373 1 6560 6559
4374 1 6560 6561
4375 1 6563 6562
4376 1 6563 6564
4377 1 6566 6565
4378 1 6566 6567
4379 1 6569 6568
4380 1 6569 6570
4381 1 6572 6571
4382 1 6572 6573
4383 1 6575 6574
4384 1 6575 6576
4385 1 6578 6577
4386 1 6578 6579
4387 1 6581 6580
4388 1 6581 6582
4389 1 6584 6583
4390 1 6584 6585
4391 1 6587 6586
4392 1 6587 6588
4393 1 6590 6589
4394 1 6590 6591
4395 1 6593 6592
4396 1 6593 6594
4397 1 6596 6595
4398 1 6596 6597
4399 1 6599 6598
4400 1 6599 6600
4401 1 6602 6601
4402 1 6602 6603
4403 1 6605 6604
4404 1 6605 6606
4405 1 6608 6607
4406 1 6608 6609
4407 1 6611 6610
4408 1 6611 6612
4409 1 6614 6613
4410 1 6614 6615
4411 1 6617 6616
4412 1 6617 6618
4413 1 6620 6619
4414 1 6620 6621
4415 1 6623 6622
4416 1 6623 6624
4417 1 6626 6625
4418 1 6626 6627
4419 1 6629 6628
4420 1 6629 6630
4421 1 6632 6631
4422 1 6632 6633
4423 1 6635 6634
4424 1 6635 6636
4425 1 6638 6637
4426 1 6638 6639
4427 1 6641 6640
4428 1 6641 6642
4429 1 6644 6643
4430 1 6644 6645
4431 1 6647 6646
4432 1 6647 6648
4433 1 6650 6649
4434 1 6650 6651
4435 1 6653 6652
4436 1 6653 6654
4437 1 6656 6655
4438 1 6656 6657
4439 1 6659 6658
4440 1 6659 6660
4441 1 6662 6661
4442 1 6662 6663
4443 1 6665 6664
4444 1 6665 6666
4445 1 6668 6667
4446 1 6668 6669
4447 1 6671 6670
4448 1 6671 6672
4449 1 6674 6673
4450 1 6674 6675
4451 1 6677 6676
4452 1 6677 6678
4453 1 6680 6679
4454 1 6680 6681
4455 1 6683 6682
4456 1 6683 6684
4457 1 6686 6685
4458 1 6686 6687
4459 1 6689 6688
4460 1 6689 6690
4461 1 6692 6691
4462 1 6692 6693
4463 1 6695 6694
4464 1 6695 6696
4465 1 6698 6697
4466 1 6698 6699
4467 1 6701 6700
4468 1 6701 6702
4469 1 6704 6703
4470 1 6704 6705
4471 1 6707 6706
4472 1 6707 6708
4473 1 6710 6709
4474 1 6710 6711
4475 1 6713 6712
4476 1 6713 6714
4477 1 6716 6715
4478 1 6716 6717
4479 1 6719 6718
4480 1 6719 6720
4481 1 6722 6721
4482 1 6722 6723
4483 1 6725 6724
4484 1 6725 6726
4485 1 6728 6727
4486 1 6728 6729
4487 1 6731 6730
4488 1 6731 6732
4489 1 6734 6733
4490 1 6734 6735
4491 1 6737 6736
4492 1 6737 6738
4493 1 6740 6739
4494 1 6740 6741
4495 1 6743 6742
4496 1 6743 6744
4497 1 6746 6745
4498 1 6746 6747
4499 1 6749 6748
4500 1 6749 6750
4501 1 6752 6751
4502 1 6752 6753
4503 1 6755 6754
4504 1 6755 6756
4505 1 6758 6757
4506 1 6758 6759
4507 1 6761 6760
4508 1 6761 6762
4509 1 6764 6763
4510 1 6764 6765
4511 1 6767 6766
4512 1 6767 6768
4513 1 6770 6769
4514 1 6770 6771
4515 1 6773 6772
4516 1 6773 6774
4517 1 6776 6775
4518 1 6776 6777
4519 1 6779 6778
4520 1 6779 6780
4521 1 6782 6781
4522 1 6782 6783
4523 1 6785 6784
4524 1 6785 6786
4525 1 6788 6787
4526 1 6788 6789
4527 1 6791 6790
4528 1 6791 6792
4529 1 6794 6793
4530 1 6794 6795
4531 1 6797 6796
4532 1 6797 6798
4533 1 6800 6799
4534 1 6800 6801
4535 1 6803 6802
4536 1 6803 6804
4537 1 6806 6805
4538 1 6806 6807
4539 1 6809 6808
4540 1 6809 6810
4541 1 6812 6811
4542 1 6812 6813
4543 1 6815 6814
4544 1 6815 6816
4545 1 6818 6817
4546 1 6818 6819
4547 1 6821 6820
4548 1 6821 6822
4549 1 6824 6823
4550 1 6824 6825
4551 1 6827 6826
4552 1 6827 6828
4553 1 6830 6829
4554 1 6830 6831
4555 1 6833 6832
4556 1 6833 6834
4557 1 6836 6835
4558 1 6836 6837
4559 1 6839 6838
4560 1 6839 6840
4561 1 6842 6841
4562 1 6842 6843
4563 1 6845 6844
4564 1 6845 6846
4565 1 6848 6847
4566 1 6848 6849
4567 1 6851 6850
4568 1 6851 6852
4569 1 6854 6853
4570 1 6854 6855
4571 1 6857 6856
4572 1 6857 6858
4573 1 6860 6859
4574 1 6860 6861
4575 1 6863 6862
4576 1 6863 6864
4577 1 6866 6865
4578 1 6866 6867
4579 1 6869 6868
4580 1 6869 6870
4581 1 6872 6871
4582 1 6872 6873
4583 1 6875 6874
4584 1 6875 6876
4585 1 6878 6877
4586 1 6878 6879
4587 1 6881 6880
4588 1 6881 6882
4589 1 6884 6883
4590 1 6884 6885
4591 1 6887 6886
4592 1 6887 6888
4593 1 6890 6889
4594 1 6890 6891
4595 1 6893 6892
4596 1 6893 6894
4597 1 6896 6895
4598 1 6896 6897
4599 1 6899 6898
4600 1 6899 6900
4601 1 6902 6901
4602 1 6902 6903
4603 1 6905 6904
4604 1 6905 6906
4605 1 6908 6907
4606 1 6908 6909
4607 1 6911 6910
4608 1 6911 6912
4609 1 6914 6913
4610 1 6914 6915
4611 1 6917 6916
4612 1 6917 6918
4613 1 6920 6919
4614 1 6920 6921
4615 1 6923 6922
4616 1 6923 6924
4617 1 6926 6925
4618 1 6926 6927
4619 1 6929 6928
4620 1 6929 6930
4621 1 6932 6931
4622 1 6932 6933
4623 1 6935 6934
4624 1 6935 6936
4625 1 6938 6937
4626 1 6938 6939
4627 1 6941 6940
4628 1 6941 6942
4629 1 6944 6943
4630 1 6944 6945
4631 1 6947 6946
4632 1 6947 6948
4633 1 6950 6949
4634 1 6950 6951
4635 1 6953 6952
4636 1 6953 6954
4637 1 6956 6955
4638 1 6956 6957
4639 1 6959 6958
4640 1 6959 6960
4641 1 6962 6961
4642 1 6962 6963
4643 1 6965 6964
4644 1 6965 6966
4645 1 6968 6967
4646 1 6968 6969
4647 1 6971 6970
4648 1 6971 6972
4649 1 6974 6973
4650 1 6974 6975
4651 1 6977 6976
4652 1 6977 6978
4653 1 6980 6979
4654 1 6980 6981
4655 1 6983 6982
4656 1 6983 6984
4657 1 6986 6985
4658 1 6986 6987
4659 1 6989 6988
4660 1 6989 6990
4661 1 6992 6991
4662 1 6992 6993
4663 1 6995 6994
4664 1 6995 6996
4665 1 6998 6997
4666 1 6998 6999
4667 1 7001 7000
4668 1 7001 7002
4669 1 7004 7003
4670 1 7004 7005
4671 1 7007 7006
4672 1 7007 7008
4673 1 7010 7009
4674 1 7010 7011
4675 1 7013 7012
4676 1 7013 7014
4677 1 7016 7015
4678 1 7016 7017
4679 1 7019 7018
4680 1 7019 7020
4681 1 7022 7021
4682 1 7022 7023
4683 1 7025 7024
4684 1 7025 7026
4685 1 7028 7027
4686 1 7028 7029
4687 1 7031 7030
4688 1 7031 7032
4689 1 7034 7033
4690 1 7034 7035
4691 1 7037 7036
4692 1 7037 7038
4693 1 7040 7039
4694 1 7040 7041
4695 1 7043 7042
4696 1 7043 7044
4697 1 7046 7045
4698 1 7046 7047
4699 1 7049 7048
4700 1 7049 7050
4701 1 7052 7051
4702 1 7052 7053
4703 1 7055 7054
4704 1 7055 7056
4705 1 7058 7057
4706 1 7058 7059
4707 1 7061 7060
4708 1 7061 7062
4709 1 7064 7063
4710 1 7064 7065
4711 1 7067 7066
4712 1 7067 7068
4713 1 7070 7069
4714 1 7070 7071
4715 1 7073 7072
4716 1 7073 7074
4717 1 7076 7075
4718 1 7076 7077
4719 1 7079 7078
4720 1 7079 7080
4721 1 7082 7081
4722 1 7082 7083
4723 1 7085 7084
4724 1 7085 7086
4725 1 7088 7087
4726 1 7088 7089
4727 1 7091 7090
4728 1 7091 7092
4729 1 7094 7093
4730 1 7094 7095
4731 1 7097 7096
4732 1 7097 7098
4733 1 7100 7099
4734 1 7100 7101
4735 1 7103 7102
4736 1 7103 7104
4737 1 7106 7105
4738 1 7106 7107
4739 1 7109 7108
4740 1 7109 7110
4741 1 7112 7111
4742 1 7112 7113
4743 1 7115 7114
4744 1 7115 7116
4745 1 7118 7117
4746 1 7118 7119
4747 1 7121 7120
4748 1 7121 7122
4749 1 7124 7123
4750 1 7124 7125
4751 1 7127 7126
4752 1 7127 7128
4753 1 7130 7129
4754 1 7130 7131
4755 1 7133 7132
4756 1 7133 7134
4757 1 7136 7135
4758 1 7136 7137
4759 1 7139 7138
4760 1 7139 7140
4761 1 7142 7141
4762 1 7142 7143
4763 1 7145 7144
4764 1 7145 7146
4765 1 7148 7147
4766 1 7148 7149
4767 1 7151 7150
4768 1 7151 7152
4769 1 7154 7153
4770 1 7154 7155
4771 1 7157 7156
4772 1 7157 7158
4773 1 7160 7159
4774 1 7160 7161
4775 1 7163 7162
4776 1 7163 7164
4777 1 7166 7165
4778 1 7166 7167
4779 1 7169 7168
4780 1 7169 7170
4781 1 7172 7171
4782 1 7172 7173
4783 1 7175 7174
4784 1 7175 7176
4785 1 7178 7177
4786 1 7178 7179
4787 1 7181 7180
4788 1 7181 7182
4789 1 7184 7183
4790 1 7184 7185
4791 1 7187 7186
4792 1 7187 7188
4793 1 7190 7189
4794 1 7190 7191
4795 1 7193 7192
4796 1 7193 7194
4797 1 7196 7195
4798 1 7196 7197
4799 1 7199 7198
4800 1 7199 7200
4801 1 7202 7201
4802 1 7202 7203
4803 1 7205 7204
4804 1 7205 7206
4805 1 7208 7207
4806 1 7208 7209
4807 1 7211 7210
4808 1 7211 7212
4809 1 7214 7213
4810 1 7214 7215
4811 1 7217 7216
4812 1 7217 7218
4813 1 7220 7219
4814 1 7220 7221
4815 1 7223 7222
4816 1 7223 7224
4817 1 7226 7225
4818 1 7226 7227
4819 1 7229 7228
4820 1 7229 7230
4821 1 7232 7231
4822 1 7232 7233
4823 1 7235 7234
4824 1 7235 7236
4825 1 7238 7237
4826 1 7238 7239
4827 1 7241 7240
4828 1 7241 7242
4829 1 7244 7243
4830 1 7244 7245
4831 1 7247 7246
4832 1 7247 7248
4833 1 7250 7249
4834 1 7250 7251
4835 1 7253 7252
4836 1 7253 7254
4837 1 7256 7255
4838 1 7256 7257
4839 1 7259 7258
4840 1 7259 7260
4841 1 7262 7261
4842 1 7262 7263
4843 1 7265 7264
4844 1 7265 7266
4845 1 7268 7267
4846 1 7268 7269
4847 1 7271 7270
4848 1 7271 7272
4849 1 7274 7273
4850 1 7274 7275
4851 1 7277 7276
4852 1 7277 7278
4853 1 7280 7279
4854 1 7280 7281
4855 1 7283 7282
4856 1 7283 7284
4857 1 7286 7285
4858 1 7286 7287
4859 1 7289 7288
4860 1 7289 7290
4861 1 7292 7291
4862 1 7292 7293
4863 1 7295 7294
4864 1 7295 7296
4865 1 7298 7297
4866 1 7298 7299
4867 1 7301 7300
4868 1 7301 7302
4869 1 7304 7303
4870 1 7304 7305
4871 1 7307 7306
4872 1 7307 7308
4873 1 7310 7309
4874 1 7310 7311
4875 1 7313 7312
4876 1 7313 7314
4877 1 7316 7315
4878 1 7316 7317
4879 1 7319 7318
4880 1 7319 7320
4881 1 7322 7321
4882 1 7322 7323
4883 1 7325 7324
4884 1 7325 7326
4885 1 7328 7327
4886 1 7328 7329
4887 1 7331 7330
4888 1 7331 7332
4889 1 7334 7333
4890 1 7334 7335
4891 1 7337 7336
4892 1 7337 7338
4893 1 7340 7339
4894 1 7340 7341
4895 1 7343 7342
4896 1 7343 7344
4897 1 7346 7345
4898 1 7346 7347
4899 1 7349 7348
4900 1 7349 7350
4901 1 7352 7351
4902 1 7352 7353
4903 1 7355 7354
4904 1 7355 7356
4905 1 7358 7357
4906 1 7358 7359
4907 1 7361 7360
4908 1 7361 7362
4909 1 7364 7363
4910 1 7364 7365
4911 1 7367 7366
4912 1 7367 7368
4913 1 7370 7369
4914 1 7370 7371
4915 1 7373 7372
4916 1 7373 7374
4917 1 7376 7375
4918 1 7376 7377
4919 1 7379 7378
4920 1 7379 7380
4921 1 7382 7381
4922 1 7382 7383
4923 1 7385 7384
4924 1 7385 7386
4925 1 7388 7387
4926 1 7388 7389
4927 1 7391 7390
4928 1 7391 7392
4929 1 7394 7393
4930 1 7394 7395
4931 1 7397 7396
4932 1 7397 7398
4933 1 7400 7399
4934 1 7400 7401
4935 1 7403 7402
4936 1 7403 7404
4937 1 7406 7405
4938 1 7406 7407
4939 1 7409 7408
4940 1 7409 7410
4941 1 7412 7411
4942 1 7412 7413
4943 1 7415 7414
4944 1 7415 7416
4945 1 7418 7417
4946 1 7418 7419
4947 1 7421 7420
4948 1 7421 7422
4949 1 7424 7423
4950 1 7424 7425
4951 1 7427 7426
4952 1 7427 7428
4953 1 7430 7429
4954 1 7430 7431
4955 1 7433 7432
4956 1 7433 7434
4957 1 7436 7435
4958 1 7436 7437
4959 1 7439 7438
4960 1 7439 7440
4961 1 7442 7441
4962 1 7442 7443
4963 1 7445 7444
4964 1 7445 7446
4965 1 7448 7447
4966 1 7448 7449
4967 1 7451 7450
4968 1 7451 7452
4969 1 7454 7453
4970 1 7454 7455
4971 1 7457 7456
4972 1 7457 7458
4973 1 7460 7459
4974 1 7460 7461
4975 1 7463 7462
4976 1 7463 7464
4977 1 7466 7465
4978 1 7466 7467
4979 1 7469 7468
4980 1 7469 7470
4981 1 7472 7471
4982 1 7472 7473
4983 1 7475 7474
4984 1 7475 7476
4985 1 7478 7477
4986 1 7478 7479
4987 1 7481 7480
4988 1 7481 7482
4989 1 7484 7483
4990 1 7484 7485
4991 1 7487 7486
4992 1 7487 7488
4993 1 7490 7489
4994 1 7490 7491
4995 1 7493 7492
4996 1 7493 7494
4997 1 7496 7495
4998 1 7496 7497
4999 1 7499 7498
5000 1 7499 7500
5001 1 7502 7501
5002 1 7502 7503
5003 1 7505 7504
5004 1 7505 7506
5005 1 7508 7507
5006 1 7508 7509
5007 1 7511 7510
5008 1 7511 7512
5009 1 7514 7513
5010 1 7514 7515
5011 1 7517 7516
5012 1 7517 7518
5013 1 7520 7519
5014 1 7520 7521
5015 1 7523 7522
5016 1 7523 7524
5017 1 7526 7525
5018 1 7526 7527
5019 1 7529 7528
5020 1 7529 7530
5021 1 7532 7531
5022 1 7532 7533
5023 1 7535 7534
5024 1 7535 7536
5025 1 7538 7537
5026 1 7538 7539
5027 1 7541 7540
5028 1 7541 7542
5029 1 7544 7543
5030 1 7544 7545
5031 1 7547 7546
5032 1 7547 7548
5033 1 7550 7549
5034 1 7550 7551
5035 1 7553 7552
5036 1 7553 7554
5037 1 7556 7555
5038 1 7556 7557
5039 1 7559 7558
5040 1 7559 7560
5041 1 7562 7561
5042 1 7562 7563
5043 1 7565 7564
5044 1 7565 7566
5045 1 7568 7567
5046 1 7568 7569
5047 1 7571 7570
5048 1 7571 7572
5049 1 7574 7573
5050 1 7574 7575
5051 1 7577 7576
5052 1 7577 7578
5053 1 7580 7579
5054 1 7580 7581
5055 1 7583 7582
5056 1 7583 7584
5057 1 7586 7585
5058 1 7586 7587
5059 1 7589 7588
5060 1 7589 7590
5061 1 7592 7591
5062 1 7592 7593
5063 1 7595 7594
5064 1 7595 7596
5065 1 7598 7597
5066 1 7598 7599
5067 1 7601 7600
5068 1 7601 7602
5069 1 7604 7603
5070 1 7604 7605
5071 1 7607 7606
5072 1 7607 7608
5073 1 7610 7609
5074 1 7610 7611
5075 1 7613 7612
5076 1 7613 7614
5077 1 7616 7615
5078 1 7616 7617
5079 1 7619 7618
5080 1 7619 7620
5081 1 7622 7621
5082 1 7622 7623
5083 1 7625 7624
5084 1 7625 7626
5085 1 7628 7627
5086 1 7628 7629
5087 1 7631 7630
5088 1 7631 7632
5089 1 7634 7633
5090 1 7634 7635
5091 1 7637 7636
5092 1 7637 7638
5093 1 7640 7639
5094 1 7640 7641
5095 1 7643 7642
5096 1 7643 7644
5097 1 7646 7645
5098 1 7646 7647
5099 1 7649 7648
5100 1 7649 7650
5101 1 7652 7651
5102 1 7652 7653
5103 1 7655 7654
5104 1 7655 7656
5105 1 7658 7657
5106 1 7658 7659
5107 1 7661 7660
5108 1 7661 7662
5109 1 7664 7663
5110 1 7664 7665
5111 1 7667 7666
5112 1 7667 7668
5113 1 7670 7669
5114 1 7670 7671
5115 1 7673 7672
5116 1 7673 7674
5117 1 7676 7675
5118 1 7676 7677
5119 1 7679 7678
5120 1 7679 7680
5121 1 7682 7681
5122 1 7682 7683
5123 1 7685 7684
5124 1 7685 7686
5125 1 7688 7687
5126 1 7688 7689
5127 1 7691 7690
5128 1 7691 7692
5129 1 7694 7693
5130 1 7694 7695
5131 1 7697 7696
5132 1 7697 7698
5133 1 7700 7699
5134 1 7700 7701
5135 1 7703 7702
5136 1 7703 7704
5137 1 7706 7705
5138 1 7706 7707
5139 1 7709 7708
5140 1 7709 7710
5141 1 7712 7711
5142 1 7712 7713
5143 1 7715 7714
5144 1 7715 7716
5145 1 7718 7717
5146 1 7718 7719
5147 1 7721 7720
5148 1 7721 7722
5149 1 7724 7723
5150 1 7724 7725
5151 1 7727 7726
5152 1 7727 7728
5153 1 7730 7729
5154 1 7730 7731
5155 1 7733 7732
5156 1 7733 7734
5157 1 7736 7735
5158 1 7736 7737
5159 1 7739 7738
5160 1 7739 7740
5161 1 7742 7741
5162 1 7742 7743
5163 1 7745 7744
5164 1 7745 7746
5165 1 7748 7747
5166 1 7748 7749
5167 1 7751 7750
5168 1 7751 7752
5169 1 7754 7753
5170 1 7754 7755
5171 1 7757 7756
5172 1 7757 7758
5173 1 7760 7759
5174 1 7760 7761
5175 1 7763 7762
5176 1 7763 7764
5177 1 7766 7765
5178 1 7766 7767
5179 1 7769 7768
5180 1 7769 7770
5181 1 7772 7771
5182 1 7772 7773
5183 1 7775 7774
5184 1 7775 7776
5185 1 7778 7777
5186 1 7778 7779
5187 1 7781 7780
5188 1 7781 7782
5189 1 7784 7783
5190 1 7784 7785
5191 1 7787 7786
5192 1 7787 7788
5193 1 7790 7789
5194 1 7790 7791
5195 1 7793 7792
5196 1 7793 7794
5197 1 7796 7795
5198 1 7796 7797
5199 1 7799 7798
5200 1 7799 7800
5201 1 7802 7801
5202 1 7802 7803
5203 1 7805 7804
5204 1 7805 7806
5205 1 7808 7807
5206 1 7808 7809
5207 1 7811 7810
5208 1 7811 7812
5209 1 7814 7813
5210 1 7814 7815
5211 1 7817 7816
5212 1 7817 7818
5213 1 7820 7819
5214 1 7820 7821
5215 1 7823 7822
5216 1 7823 7824
5217 1 7826 7825
5218 1 7826 7827
5219 1 7829 7828
5220 1 7829 7830
5221 1 7832 7831
5222 1 7832 7833
5223 1 7835 7834
5224 1 7835 7836
5225 1 7838 7837
5226 1 7838 7839
5227 1 7841 7840
5228 1 7841 7842
5229 1 7844 7843
5230 1 7844 7845
5231 1 7847 7846
5232 1 7847 7848
5233 1 7850 7849
5234 1 7850 7851
5235 1 7853 7852
5236 1 7853 7854
5237 1 7856 7855
5238 1 7856 7857
5239 1 7859 7858
5240 1 7859 7860
5241 1 7862 7861
5242 1 7862 7863
5243 1 7865 7864
5244 1 7865 7866
5245 1 7868 7867
5246 1 7868 7869
5247 1 7871 7870
5248 1 7871 7872
5249 1 7874 7873
5250 1 7874 7875
5251 1 7877 7876
5252 1 7877 7878
5253 1 7880 7879
5254 1 7880 7881
5255 1 7883 7882
5256 1 7883 7884
5257 1 7886 7885
5258 1 7886 7887
5259 1 7889 7888
5260 1 7889 7890
5261 1 7892 7891
5262 1 7892 7893
5263 1 7895 7894
5264 1 7895 7896
5265 1 7898 7897
5266 1 7898 7899
5267 1 7901 7900
5268 1 7901 7902
5269 1 7904 7903
5270 1 7904 7905
5271 1 7907 7906
5272 1 7907 7908
5273 1 7910 7909
5274 1 7910 7911
5275 1 7913 7912
5276 1 7913 7914
5277 1 7916 7915
5278 1 7916 7917
5279 1 7919 7918
5280 1 7919 7920
5281 1 7922 7921
5282 1 7922 7923
5283 1 7925 7924
5284 1 7925 7926
5285 1 7928 7927
5286 1 7928 7929
5287 1 7931 7930
5288 1 7931 7932
5289 1 7934 7933
5290 1 7934 7935
5291 1 7937 7936
5292 1 7937 7938
5293 1 7940 7939
5294 1 7940 7941
5295 1 7943 7942
5296 1 7943 7944
5297 1 7946 7945
5298 1 7946 7947
5299 1 7949 7948
5300 1 7949 7950
5301 1 7952 7951
5302 1 7952 7953
5303 1 7955 7954
5304 1 7955 7956
5305 1 7958 7957
5306 1 7958 7959
5307 1 7961 7960
5308 1 7961 7962
5309 1 7964 7963
5310 1 7964 7965
5311 1 7967 7966
5312 1 7967 7968
5313 1 7970 7969
5314 1 7970 7971
5315 1 7973 7972
5316 1 7973 7974
5317 1 7976 7975
5318 1 7976 7977
5319 1 7979 7978
5320 1 7979 7980
5321 1 7982 7981
5322 1 7982 7983
5323 1 7985 7984
5324 1 7985 7986
5325 1 7988 7987
5326 1 7988 7989
5327 1 7991 7990
5328 1 7991 7992
5329 1 7994 7993
5330 1 7994 7995
5331 1 7997 7996
5332 1 7997 7998
5333 1 8000 7999
5334 1 8000 8001
5335 1 8003 8002
5336 1 8003 8004
5337 1 8006 8005
5338 1 8006 8007
5339 1 8009 8008
5340 1 8009 8010
5341 1 8012 8011
5342 1 8012 8013
5343 1 8015 8014
5344 1 8015 8016
5345 1 8018 8017
5346 1 8018 8019
5347 1 8021 8020
5348 1 8021 8022
5349 1 8024 8023
5350 1 8024 8025
5351 1 8027 8026
5352 1 8027 8028
5353 1 8030 8029
5354 1 8030 8031
5355 1 8033 8032
5356 1 8033 8034
5357 1 8036 8035
5358 1 8036 8037
5359 1 8039 8038
5360 1 8039 8040
5361 1 8042 8041
5362 1 8042 8043
5363 1 8045 8044
5364 1 8045 8046
5365 1 8048 8047
5366 1 8048 8049
5367 1 8051 8050
5368 1 8051 8052
5369 1 8054 8053
5370 1 8054 8055
5371 1 8057 8056
5372 1 8057 8058
5373 1 8060 8059
5374 1 8060 8061
5375 1 8063 8062
5376 1 8063 8064
5377 1 8066 8065
5378 1 8066 8067
5379 1 8069 8068
5380 1 8069 8070
5381 1 8072 8071
5382 1 8072 8073
5383 1 8075 8074
5384 1 8075 8076
5385 1 8078 8077
5386 1 8078 8079
5387 1 8081 8080
5388 1 8081 8082
5389 1 8084 8083
5390 1 8084 8085
5391 1 8087 8086
5392 1 8087 8088
5393 1 8090 8089
5394 1 8090 8091
5395 1 8093 8092
5396 1 8093 8094
5397 1 8096 8095
5398 1 8096 8097
5399 1 8099 8098
5400 1 8099 8100
5401 1 8102 8101
5402 1 8102 8103
5403 1 8105 8104
5404 1 8105 8106
5405 1 8108 8107
5406 1 8108 8109
5407 1 8111 8110
5408 1 8111 8112
5409 1 8114 8113
5410 1 8114 8115
5411 1 8117 8116
5412 1 8117 8118
5413 1 8120 8119
5414 1 8120 8121
5415 1 8123 8122
5416 1 8123 8124
5417 1 8126 8125
5418 1 8126 8127
5419 1 8129 8128
5420 1 8129 8130
5421 1 8132 8131
5422 1 8132 8133
5423 1 8135 8134
5424 1 8135 8136
5425 1 8138 8137
5426 1 8138 8139
5427 1 8141 8140
5428 1 8141 8142
5429 1 8144 8143
5430 1 8144 8145
5431 1 8147 8146
5432 1 8147 8148
5433 1 8150 8149
5434 1 8150 8151
5435 1 8153 8152
5436 1 8153 8154
5437 1 8156 8155
5438 1 8156 8157
5439 1 8159 8158
5440 1 8159 8160
5441 1 8162 8161
5442 1 8162 8163
5443 1 8165 8164
5444 1 8165 8166
5445 1 8168 8167
5446 1 8168 8169
5447 1 8171 8170
5448 1 8171 8172
5449 1 8174 8173
5450 1 8174 8175
5451 1 8177 8176
5452 1 8177 8178
5453 1 8180 8179
5454 1 8180 8181
5455 1 8183 8182
5456 1 8183 8184
5457 1 8186 8185
5458 1 8186 8187
5459 1 8189 8188
5460 1 8189 8190
5461 1 8192 8191
5462 1 8192 8193
5463 1 8195 8194
5464 1 8195 8196
5465 1 8198 8197
5466 1 8198 8199
5467 1 8201 8200
5468 1 8201 8202
5469 1 8204 8203
5470 1 8204 8205
5471 1 8207 8206
5472 1 8207 8208
5473 1 8210 8209
5474 1 8210 8211
5475 1 8213 8212
5476 1 8213 8214
5477 1 8216 8215
5478 1 8216 8217
5479 1 8219 8218
5480 1 8219 8220
5481 1 8222 8221
5482 1 8222 8223
5483 1 8225 8224
5484 1 8225 8226
5485 1 8228 8227
5486 1 8228 8229
5487 1 8231 8230
5488 1 8231 8232
5489 1 8234 8233
5490 1 8234 8235
5491 1 8237 8236
5492 1 8237 8238
5493 1 8240 8239
5494 1 8240 8241
5495 1 8243 8242
5496 1 8243 8244
5497 1 8246 8245
5498 1 8246 8247
5499 1 8249 8248
5500 1 8249 8250
5501 1 8252 8251
5502 1 8252 8253
5503 1 8255 8254
5504 1 8255 8256
5505 1 8258 8257
5506 1 8258 8259
5507 1 8261 8260
5508 1 8261 8262
5509 1 8264 8263
5510 1 8264 8265
5511 1 8267 8266
5512 1 8267 8268
5513 1 8270 8269
5514 1 8270 8271
5515 1 8273 8272
5516 1 8273 8274
5517 1 8276 8275
5518 1 8276 8277
5519 1 8279 8278
5520 1 8279 8280
5521 1 8282 8281
5522 1 8282 8283
5523 1 8285 8284
5524 1 8285 8286
5525 1 8288 8287
5526 1 8288 8289
5527 1 8291 8290
5528 1 8291 8292
5529 1 8294 8293
5530 1 8294 8295
5531 1 8297 8296
5532 1 8297 8298
5533 1 8300 8299
5534 1 8300 8301
5535 1 8303 8302
5536 1 8303 8304
5537 1 8306 8305
5538 1 8306 8307
5539 1 8309 8308
5540 1 8309 8310
5541 1 8312 8311
5542 1 8312 8313
5543 1 8315 8314
5544 1 8315 8316
5545 1 8318 8317
5546 1 8318 8319
5547 1 8321 8320
5548 1 8321 8322
5549 1 8324 8323
5550 1 8324 8325
5551 1 8327 8326
5552 1 8327 8328
5553 1 8330 8329
5554 1 8330 8331
5555 1 8333 8332
5556 1 8333 8334
5557 1 8336 8335
5558 1 8336 8337
5559 1 8339 8338
5560 1 8339 8340
5561 1 8342 8341
5562 1 8342 8343
5563 1 8345 8344
5564 1 8345 8346
5565 1 8348 8347
5566 1 8348 8349
5567 1 8351 8350
5568 1 8351 8352
5569 1 8354 8353
5570 1 8354 8355
5571 1 8357 8356
5572 1 8357 8358
5573 1 8360 8359
5574 1 8360 8361
5575 1 8363 8362
5576 1 8363 8364
5577 1 8366 8365
5578 1 8366 8367
5579 1 8369 8368
5580 1 8369 8370
5581 1 8372 8371
5582 1 8372 8373
5583 1 8375 8374
5584 1 8375 8376
5585 1 8378 8377
5586 1 8378 8379
5587 1 8381 8380
5588 1 8381 8382
5589 1 8384 8383
5590 1 8384 8385
5591 1 8387 8386
5592 1 8387 8388
5593 1 8390 8389
5594 1 8390 8391
5595 1 8393 8392
5596 1 8393 8394
5597 1 8396 8395
5598 1 8396 8397
5599 1 8399 8398
5600 1 8399 8400
5601 1 8402 8401
5602 1 8402 8403
5603 1 8405 8404
5604 1 8405 8406
5605 1 8408 8407
5606 1 8408 8409
5607 1 8411 8410
5608 1 8411 8412
5609 1 8414 8413
5610 1 8414 8415
5611 1 8417 8416
5612 1 8417 8418
5613 1 8420 8419
5614 1 8420 8421
5615 1 8423 8422
5616 1 8423 8424
5617 1 8426 8425
5618 1 8426 8427
5619 1 8429 8428
5620 1 8429 8430
5621 1 8432 8431
5622 1 8432 8433
5623 1 8435 8434
5624 1 8435 8436
5625 1 8438 8437
5626 1 8438 8439
5627 1 8441 8440
5628 1 8441 8442
5629 1 8444 8443
5630 1 8444 8445
5631 1 8447 8446
5632 1 8447 8448
5633 1 8450 8449
5634 1 8450 8451
5635 1 8453 8452
5636 1 8453 8454
5637 1 8456 8455
5638 1 8456 8457
5639 1 8459 8458
5640 1 8459 8460
5641 1 8462 8461
5642 1 8462 8463
5643 1 8465 8464
5644 1 8465 8466
5645 1 8468 8467
5646 1 8468 8469
5647 1 8471 8470
5648 1 8471 8472
5649 1 8474 8473
5650 1 8474 8475
5651 1 8477 8476
5652 1 8477 8478
5653 1 8480 8479
5654 1 8480 8481
5655 1 8483 8482
5656 1 8483 8484
5657 1 8486 8485
5658 1 8486 8487
5659 1 8489 8488
5660 1 8489 8490
5661 1 8492 8491
5662 1 8492 8493
5663 1 8495 8494
5664 1 8495 8496
5665 1 8498 8497
5666 1 8498 8499
5667 1 8501 8500
5668 1 8501 8502
5669 1 8504 8503
5670 1 8504 8505
5671 1 8507 8506
5672 1 8507 8508
5673 1 8510 8509
5674 1 8510 8511
5675 1 8513 8512
5676 1 8513 8514
5677 1 8516 8515
5678 1 8516 8517
5679 1 8519 8518
5680 1 8519 8520
5681 1 8522 8521
5682 1 8522 8523
5683 1 8525 8524
5684 1 8525 8526
5685 1 8528 8527
5686 1 8528 8529
5687 1 8531 8530
5688 1 8531 8532
5689 1 8534 8533
5690 1 8534 8535
5691 1 8537 8536
5692 1 8537 8538
5693 1 8540 8539
5694 1 8540 8541
5695 1 8543 8542
5696 1 8543 8544
5697 1 8546 8545
5698 1 8546 8547
5699 1 8549 8548
5700 1 8549 8550
5701 1 8552 8551
5702 1 8552 8553
5703 1 8555 8554
5704 1 8555 8556
5705 1 8558 8557
5706 1 8558 8559
5707 1 8561 8560
5708 1 8561 8562
5709 1 8564 8563
5710 1 8564 8565
5711 1 8567 8566
5712 1 8567 8568
5713 1 8570 8569
5714 1 8570 8571
5715 1 8573 8572
5716 1 8573 8574
5717 1 8576 8575
5718 1 8576 8577
5719 1 8579 8578
5720 1 8579 8580
5721 1 8582 8581
5722 1 8582 8583
5723 1 8585 8584
5724 1 8585 8586
5725 1 8588 8587
5726 1 8588 8589
5727 1 8591 8590
5728 1 8591 8592
5729 1 8594 8593
5730 1 8594 8595
5731 1 8597 8596
5732 1 8597 8598
5733 1 8600 8599
5734 1 8600 8601
5735 1 8603 8602
5736 1 8603 8604
5737 1 8606 8605
5738 1 8606 8607
5739 1 8609 8608
5740 1 8609 8610
5741 1 8612 8611
5742 1 8612 8613
5743 1 8615 8614
5744 1 8615 8616
5745 1 8618 8617
5746 1 8618 8619
5747 1 8621 8620
5748 1 8621 8622
5749 1 8624 8623
5750 1 8624 8625
5751 1 8627 8626
5752 1 8627 8628
5753 1 8630 8629
5754 1 8630 8631
5755 1 8633 8632
5756 1 8633 8634
5757 1 8636 8635
5758 1 8636 8637
5759 1 8639 8638
5760 1 8639 8640
5761 1 8642 8641
5762 1 8642 8643
5763 1 8645 8644
5764 1 8645 8646
5765 1 8648 8647
5766 1 8648 8649
5767 1 8651 8650
5768 1 8651 8652
5769 1 8654 8653
5770 1 8654 8655
5771 1 8657 8656
5772 1 8657 8658
5773 1 8660 8659
5774 1 8660 8661
5775 1 8663 8662
5776 1 8663 8664
5777 1 8666 8665
5778 1 8666 8667
5779 1 8669 8668
5780 1 8669 8670
5781 1 8672 8671
5782 1 8672 8673
5783 1 8675 8674
5784 1 8675 8676
5785 1 8678 8677
5786 1 8678 8679
5787 1 8681 8680
5788 1 8681 8682
5789 1 8684 8683
5790 1 8684 8685
5791 1 8687 8686
5792 1 8687 8688
5793 1 8690 8689
5794 1 8690 8691
5795 1 8693 8692
5796 1 8693 8694
5797 1 8696 8695
5798 1 8696 8697
5799 1 8699 8698
5800 1 8699 8700
5801 1 8702 8701
5802 1 8702 8703
5803 1 8705 8704
5804 1 8705 8706
5805 1 8708 8707
5806 1 8708 8709
5807 1 8711 8710
5808 1 8711 8712
5809 1 8714 8713
5810 1 8714 8715
5811 1 8717 8716
5812 1 8717 8718
5813 1 8720 8719
5814 1 8720 8721
5815 1 8723 8722
5816 1 8723 8724
5817 1 8726 8725
5818 1 8726 8727
5819 1 8729 8728
5820 1 8729 8730
5821 1 8732 8731
5822 1 8732 8733
5823 1 8735 8734
5824 1 8735 8736
5825 1 8738 8737
5826 1 8738 8739
5827 1 8741 8740
5828 1 8741 8742
5829 1 8744 8743
5830 1 8744 8745
5831 1 8747 8746
5832 1 8747 8748
5833 1 8750 8749
5834 1 8750 8751
5835 1 8753 8752
5836 1 8753 8754
5837 1 8756 8755
5838 1 8756 8757
5839 1 8759 8758
5840 1 8759 8760
5841 1 8762 8761
5842 1 8762 8763
5843 1 8765 8764
5844 1 8765 8766
5845 1 8768 8767
5846 1 8768 8769
5847 1 8771 8770
5848 1 8771 8772
5849 1 8774 8773
5850 1 8774 8775
5851 1 8777 8776
5852 1 8777 8778
5853 1 8780 8779
5854 1 8780 8781
5855 1 8783 8782
5856 1 8783 8784
5857 1 8786 8785
5858 1 8786 8787
5859 1 8789 8788
5860 1 8789 8790
5861 1 8792 8791
5862 1 8792 8793
5863 1 8795 8794
5864 1 8795 8796
5865 1 8798 8797
5866 1 8798 8799
5867 1 8801 8800
5868 1 8801 8802
5869 1 8804 8803
5870 1 8804 8805
5871 1 8807 8806
5872 1 8807 8808
5873 1 8810 8809
5874 1 8810 8811
5875 1 8813 8812
5876 1 8813 8814
5877 1 8816 8815
5878 1 8816 8817
5879 1 8819 8818
5880 1 8819 8820
5881 1 8822 8821
5882 1 8822 8823
5883 1 8825 8824
5884 1 8825 8826
5885 1 8828 8827
5886 1 8828 8829
5887 1 8831 8830
5888 1 8831 8832
5889 1 8834 8833
5890 1 8834 8835
5891 1 8837 8836
5892 1 8837 8838
5893 1 8840 8839
5894 1 8840 8841
5895 1 8843 8842
5896 1 8843 8844
5897 1 8846 8845
5898 1 8846 8847
5899 1 8849 8848
5900 1 8849 8850
5901 1 8852 8851
5902 1 8852 8853
5903 1 8855 8854
5904 1 8855 8856
5905 1 8858 8857
5906 1 8858 8859
5907 1 8861 8860
5908 1 8861 8862
5909 1 8864 8863
5910 1 8864 8865
5911 1 8867 8866
5912 1 8867 8868
5913 1 8870 8869
5914 1 8870 8871
5915 1 8873 8872
5916 1 8873 8874
5917 1 8876 8875
5918 1 8876 8877
5919 1 8879 8878
5920 1 8879 8880
5921 1 8882 8881
5922 1 8882 8883
5923 1 8885 8884
5924 1 8885 8886
5925 1 8888 8887
5926 1 8888 8889
5927 1 8891 8890
5928 1 8891 8892
5929 1 8894 8893
5930 1 8894 8895
5931 1 8897 8896
5932 1 8897 8898
5933 1 8900 8899
5934 1 8900 8901
5935 1 8903 8902
5936 1 8903 8904
5937 1 8906 8905
5938 1 8906 8907
5939 1 8909 8908
5940 1 8909 8910
5941 1 8912 8911
5942 1 8912 8913
5943 1 8915 8914
5944 1 8915 8916
5945 1 8918 8917
5946 1 8918 8919
5947 1 8921 8920
5948 1 8921 8922
5949 1 8924 8923
5950 1 8924 8925
5951 1 8927 8926
5952 1 8927 8928
5953 1 8930 8929
5954 1 8930 8931
5955 1 8933 8932
5956 1 8933 8934
5957 1 8936 8935
5958 1 8936 8937
5959 1 8939 8938
5960 1 8939 8940
5961 1 8942 8941
5962 1 8942 8943
5963 1 8945 8944
5964 1 8945 8946
5965 1 8948 8947
5966 1 8948 8949
5967 1 8951 8950
5968 1 8951 8952
5969 1 8954 8953
5970 1 8954 8955
5971 1 8957 8956
5972 1 8957 8958
5973 1 8960 8959
5974 1 8960 8961
5975 1 8963 8962
5976 1 8963 8964
5977 1 8966 8965
5978 1 8966 8967
5979 1 8969 8968
5980 1 8969 8970
5981 1 8972 8971
5982 1 8972 8973
5983 1 8975 8974
5984 1 8975 8976
5985 1 8978 8977
5986 1 8978 8979
5987 1 8981 8980
5988 1 8981 8982
5989 1 8984 8983
5990 1 8984 8985
5991 1 8987 8986
5992 1 8987 8988
5993 1 8990 8989
5994 1 8990 8991
5995 1 8993 8992
5996 1 8993 8994
5997 1 8996 8995
5998 1 8996 8997
5999 1 8999 8998
6000 1 8999 9000
6001 1 9002 9001
6002 1 9002 9003
6003 1 9005 9004
6004 1 9005 9006
6005 1 9008 9007
6006 1 9008 9009
6007 1 9011 9010
6008 1 9011 9012
6009 1 9014 9013
6010 1 9014 9015
6011 1 9017 9016
6012 1 9017 9018
6013 1 9020 9019
6014 1 9020 9021
6015 1 9023 9022
6016 1 9023 9024
6017 1 9026 9025
6018 1 9026 9027
6019 1 9029 9028
6020 1 9029 9030
6021 1 9032 9031
6022 1 9032 9033
6023 1 9035 9034
6024 1 9035 9036
6025 1 9038 9037
6026 1 9038 9039
6027 1 9041 9040
6028 1 9041 9042
6029 1 9044 9043
6030 1 9044 9045
6031 1 9047 9046
6032 1 9047 9048
6033 1 9050 9049
6034 1 9050 9051
6035 1 9053 9052
6036 1 9053 9054
6037 1 9056 9055
6038 1 9056 9057
6039 1 9059 9058
6040 1 9059 9060
6041 1 9062 9061
6042 1 9062 9063
6043 1 9065 9064
6044 1 9065 9066
6045 1 9068 9067
6046 1 9068 9069
6047 1 9071 9070
6048 1 9071 9072
6049 1 9074 9073
6050 1 9074 9075
6051 1 9077 9076
6052 1 9077 9078
6053 1 9080 9079
6054 1 9080 9081
6055 1 9083 9082
6056 1 9083 9084
6057 1 9086 9085
6058 1 9086 9087
6059 1 9089 9088
6060 1 9089 9090
6061 1 9092 9091
6062 1 9092 9093
6063 1 9095 9094
6064 1 9095 9096
6065 1 9098 9097
6066 1 9098 9099
6067 1 9101 9100
6068 1 9101 9102
6069 1 9104 9103
6070 1 9104 9105
6071 1 9107 9106
6072 1 9107 9108
6073 1 9110 9109
6074 1 9110 9111
6075 1 9113 9112
6076 1 9113 9114
6077 1 9116 9115
6078 1 9116 9117
6079 1 9119 9118
6080 1 9119 9120
6081 1 9122 9121
6082 1 9122 9123
6083 1 9125 9124
6084 1 9125 9126
6085 1 9128 9127
6086 1 9128 9129
6087 1 9131 9130
6088 1 9131 9132
6089 1 9134 9133
6090 1 9134 9135
6091 1 9137 9136
6092 1 9137 9138
6093 1 9140 9139
6094 1 9140 9141
6095 1 9143 9142
6096 1 9143 9144
6097 1 9146 9145
6098 1 9146 9147
6099 1 9149 9148
6100 1 9149 9150
6101 1 9152 9151
6102 1 9152 9153
6103 1 9155 9154
6104 1 9155 9156
6105 1 9158 9157
6106 1 9158 9159
6107 1 9161 9160
6108 1 9161 9162
6109 1 9164 9163
6110 1 9164 9165
6111 1 9167 9166
6112 1 9167 9168
6113 1 9170 9169
6114 1 9170 9171
6115 1 9173 9172
6116 1 9173 9174
6117 1 9176 9175
6118 1 9176 9177
6119 1 9179 9178
6120 1 9179 9180
6121 1 9182 9181
6122 1 9182 9183
6123 1 9185 9184
6124 1 9185 9186
6125 1 9188 9187
6126 1 9188 9189
6127 1 9191 9190
6128 1 9191 9192
6129 1 9194 9193
6130 1 9194 9195
6131 1 9197 9196
6132 1 9197 9198
6133 1 9200 9199
6134 1 9200 9201
6135 1 9203 9202
6136 1 9203 9204
6137 1 9206 9205
6138 1 9206 9207
6139 1 9209 9208
6140 1 9209 9210
6141 1 9212 9211
6142 1 9212 9213
6143 1 9215 9214
6144 1 9215 9216
6145 1 9218 9217
6146 1 9218 9219
6147 1 9221 9220
6148 1 9221 9222
6149 1 9224 9223
6150 1 9224 9225
6151 1 9227 9226
6152 1 9227 9228
6153 1 9230 9229
6154 1 9230 9231
6155 1 9233 9232
6156 1 9233 9234
6157 1 9236 9235
6158 1 9236 9237
6159 1 9239 9238
6160 1 9239 9240
6161 1 9242 9241
6162 1 9242 9243
6163 1 9245 9244
6164 1 9245 9246
6165 1 9248 9247
6166 1 9248 9249
6167 1 9251 9250
6168 1 9251 9252
6169 1 9254 9253
6170 1 9254 9255
6171 1 9257 9256
6172 1 9257 9258
6173 1 9260 9259
6174 1 9260 9261
6175 1 9263 9262
6176 1 9263 9264
6177 1 9266 9265
6178 1 9266 9267
6179 1 9269 9268
6180 1 9269 9270
6181 1 9272 9271
6182 1 9272 9273
6183 1 9275 9274
6184 1 9275 9276
6185 1 9278 9277
6186 1 9278 9279
6187 1 9281 9280
6188 1 9281 9282
6189 1 9284 9283
6190 1 9284 9285
6191 1 9287 9286
6192 1 9287 9288
6193 1 9290 9289
6194 1 9290 9291
6195 1 9293 9292
6196 1 9293 9294
6197 1 9296 9295
6198 1 9296 9297
6199 1 9299 9298
6200 1 9299 9300
6201 1 9302 9301
6202 1 9302 9303
6203 1 9305 9304
6204 1 9305 9306
6205 1 9308 9307
6206 1 9308 9309
6207 1 9311 9310
6208 1 9311 9312
6209 1 9314 9313
6210 1 9314 9315
6211 1 9317 9316
6212 1 9317 9318
6213 1 9320 9319
6214 1 9320 9321
6215 1 9323 9322
6216 1 9323 9324
6217 1 9326 9325
6218 1 9326 9327
6219 1 9329 9328
6220 1 9329 9330
6221 1 9332 9331
6222 1 9332 9333
6223 1 9335 9334
6224 1 9335 9336
6225 1 9338 9337
6226 1 9338 9339
6227 1 9341 9340
6228 1 9341 9342
6229 1 9344 9343
6230 1 9344 9345
6231 1 9347 9346
6232 1 9347 9348
6233 1 9350 9349
6234 1 9350 9351
6235 1 9353 9352
6236 1 9353 9354
6237 1 9356 9355
6238 1 9356 9357
6239 1 9359 9358
6240 1 9359 9360
6241 1 9362 9361
6242 1 9362 9363
6243 1 9365 9364
6244 1 9365 9366
6245 1 9368 9367
6246 1 9368 9369
6247 1 9371 9370
6248 1 9371 9372
6249 1 9374 9373
6250 1 9374 9375
6251 1 9377 9376
6252 1 9377 9378
6253 1 9380 9379
6254 1 9380 9381
6255 1 9383 9382
6256 1 9383 9384
6257 1 9386 9385
6258 1 9386 9387
6259 1 9389 9388
6260 1 9389 9390
6261 1 9392 9391
6262 1 9392 9393
6263 1 9395 9394
6264 1 9395 9396
6265 1 9398 9397
6266 1 9398 9399
6267 1 9401 9400
6268 1 9401 9402
6269 1 9404 9403
6270 1 9404 9405
6271 1 9407 9406
6272 1 9407 9408
6273 1 9410 9409
6274 1 9410 9411
6275 1 9413 9412
6276 1 9413 9414
6277 1 9416 9415
6278 1 9416 9417
6279 1 9419 9418
6280 1 9419 9420
6281 1 9422 9421
6282 1 9422 9423
6283 1 9425 9424
6284 1 9425 9426
6285 1 9428 9427
6286 1 9428 9429
6287 1 9431 9430
6288 1 9431 9432
6289 1 9434 9433
6290 1 9434 9435
6291 1 9437 9436
6292 1 9437 9438
6293 1 9440 9439
6294 1 9440 9441
6295 1 9443 9442
6296 1 9443 9444
6297 1 9446 9445
6298 1 9446 9447
6299 1 9449 9448
6300 1 9449 9450
6301 1 9452 9451
6302 1 9452 9453
6303 1 9455 9454
6304 1 9455 9456
6305 1 9458 9457
6306 1 9458 9459
6307 1 9461 9460
6308 1 9461 9462
6309 1 9464 9463
6310 1 9464 9465
6311 1 9467 9466
6312 1 9467 9468
6313 1 9470 9469
6314 1 9470 9471
6315 1 9473 9472
6316 1 9473 9474
6317 1 9476 9475
6318 1 9476 9477
6319 1 9479 9478
6320 1 9479 9480
6321 1 9482 9481
6322 1 9482 9483
6323 1 9485 9484
6324 1 9485 9486
6325 1 9488 9487
6326 1 9488 9489
6327 1 9491 9490
6328 1 9491 9492
6329 1 9494 9493
6330 1 9494 9495
6331 1 9497 9496
6332 1 9497 9498
6333 1 9500 9499
6334 1 9500 9501
6335 1 9503 9502
6336 1 9503 9504
6337 1 9506 9505
6338 1 9506 9507
6339 1 9509 9508
6340 1 9509 9510
6341 1 9512 9511
6342 1 9512 9513
6343 1 9515 9514
6344 1 9515 9516
6345 1 9518 9517
6346 1 9518 9519
6347 1 9521 9520
6348 1 9521 9522
6349 1 9524 9523
6350 1 9524 9525
6351 1 9527 9526
6352 1 9527 9528
6353 1 9530 9529
6354 1 9530 9531
6355 1 9533 9532
6356 1 9533 9534
6357 1 9536 9535
6358 1 9536 9537
6359 1 9539 9538
6360 1 9539 9540
6361 1 9542 9541
6362 1 9542 9543
6363 1 9545 9544
6364 1 9545 9546
6365 1 9548 9547
6366 1 9548 9549
6367 1 9551 9550
6368 1 9551 9552
6369 1 9554 9553
6370 1 9554 9555
6371 1 9557 9556
6372 1 9557 9558
6373 1 9560 9559
6374 1 9560 9561
6375 1 9563 9562
6376 1 9563 9564
6377 1 9566 9565
6378 1 9566 9567
6379 1 9569 9568
6380 1 9569 9570
6381 1 9572 9571
6382 1 9572 9573
6383 1 9575 9574
6384 1 9575 9576
6385 1 9578 9577
6386 1 9578 9579
6387 1 9581 9580
6388 1 9581 9582
6389 1 9584 9583
6390 1 9584 9585
6391 1 9587 9586
6392 1 9587 9588
6393 1 9590 9589
6394 1 9590 9591
6395 1 9593 9592
6396 1 9593 9594
6397 1 9596 9595
6398 1 9596 9597
6399 1 9599 9598
6400 1 9599 9600
6401 1 9602 9601
6402 1 9602 9603
6403 1 9605 9604
6404 1 9605 9606
6405 1 9608 9607
6406 1 9608 9609
6407 1 9611 9610
6408 1 9611 9612
6409 1 9614 9613
6410 1 9614 9615
6411 1 9617 9616
6412 1 9617 9618
6413 1 9620 9619
6414 1 9620 9621
6415 1 9623 9622
6416 1 9623 9624
6417 1 9626 9625
6418 1 9626 9627
6419 1 9629 9628
6420 1 9629 9630
6421 1 9632 9631
6422 1 9632 9633
6423 1 9635 9634
6424 1 9635 9636
6425 1 9638 9637
6426 1 9638 9639
6427 1 9641 9640
6428 1 9641 9642
6429 1 9644 9643
6430 1 9644 9645
6431 1 9647 9646
6432 1 9647 9648
6433 1 9650 9649
6434 1 9650 9651
6435 1 9653 9652
6436 1 9653 9654
6437 1 9656 9655
6438 1 9656 9657
6439 1 9659 9658
6440 1 9659 9660
6441 1 9662 9661
6442 1 9662 9663
6443 1 9665 9664
6444 1 9665 9666
6445 1 9668 9667
6446 1 9668 9669
6447 1 9671 9670
6448 1 9671 9672
6449 1 9674 9673
6450 1 9674 9675
6451 1 9677 9676
6452 1 9677 9678
6453 1 9680 9679
6454 1 9680 9681
6455 1 9683 9682
6456 1 9683 9684
6457 1 9686 9685
6458 1 9686 9687
6459 1 9689 9688
6460 1 9689 9690
6461 1 9692 9691
6462 1 9692 9693
6463 1 9695 9694
6464 1 9695 9696
6465 1 9698 9697
6466 1 9698 9699
6467 1 9701 9700
6468 1 9701 9702
6469 1 9704 9703
6470 1 9704 9705
6471 1 9707 9706
6472 1 9707 9708
6473 1 9710 9709
6474 1 9710 9711
6475 1 9713 9712
6476 1 9713 9714
6477 1 9716 9715
6478 1 9716 9717
6479 1 9719 9718
6480 1 9719 9720
6481 1 9722 9721
6482 1 9722 9723
6483 1 9725 9724
6484 1 9725 9726
6485 1 9728 9727
6486 1 9728 9729
6487 1 9731 9730
6488 1 9731 9732
6489 1 9734 9733
6490 1 9734 9735
6491 1 9737 9736
6492 1 9737 9738
6493 1 9740 9739
6494 1 9740 9741
6495 1 9743 9742
6496 1 9743 9744
6497 1 9746 9745
6498 1 9746 9747
6499 1 9749 9748
6500 1 9749 9750
6501 1 9752 9751
6502 1 9752 9753
6503 1 9755 9754
6504 1 9755 9756
6505 1 9758 9757
6506 1 9758 9759
6507 1 9761 9760
6508 1 9761 9762
6509 1 9764 9763
6510 1 9764 9765
6511 1 9767 9766
6512 1 9767 9768
6513 1 9770 9769
6514 1 9770 9771
6515 1 9773 9772
6516 1 9773 9774
6517 1 9776 9775
6518 1 9776 9777
6519 1 9779 9778
6520 1 9779 9780
6521 1 9782 9781
6522 1 9782 9783
6523 1 9785 9784
6524 1 9785 9786
6525 1 9788 9787
6526 1 9788 9789
6527 1 9791 9790
6528 1 9791 9792
6529 1 9794 9793
6530 1 9794 9795
6531 1 9797 9796
6532 1 9797 9798
6533 1 9800 9799
6534 1 9800 9801
6535 1 9803 9802
6536 1 9803 9804
6537 1 9806 9805
6538 1 9806 9807
6539 1 9809 9808
6540 1 9809 9810
6541 1 9812 9811
6542 1 9812 9813
6543 1 9815 9814
6544 1 9815 9816
6545 1 9818 9817
6546 1 9818 9819
6547 1 9821 9820
6548 1 9821 9822
6549 1 9824 9823
6550 1 9824 9825
6551 1 9827 9826
6552 1 9827 9828
6553 1 9830 9829
6554 1 9830 9831
6555 1 9833 9832
6556 1 9833 9834
6557 1 9836 9835
6558 1 9836 9837
6559 1 9839 9838
6560 1 9839 9840
6561 1 9842 9841
6562 1 9842 9843
6563 1 9845 9844
6564 1 9845 9846
6565 1 9848 9847
6566 1 9848 9849
6567 1 9851 9850
6568 1 9851 9852
6569 1 9854 9853
6570 1 9854 9855
6571 1 9857 9856
6572 1 9857 9858
6573 1 9860 9859
6574 1 9860 9861
6575 1 9863 9862
6576 1 9863 9864
6577 1 9866 9865
6578 1 9866 9867
6579 1 9869 9868
6580 1 9869 9870
6581 1 9872 9871
6582 1 9872 9873
6583 1 9875 9874
6584 1 9875 9876
6585 1 9878 9877
6586 1 9878 9879
6587 1 9881 9880
6588 1 9881 9882
6589 1 9884 9883
6590 1 9884 9885
6591 1 9887 9886
6592 1 9887 9888
6593 1 9890 9889
6594 1 9890 9891
6595 1 9893 9892
6596 1 9893 9894
6597 1 9896 9895
6598 1 9896 9897
6599 1 9899 9898
6600 1 9899 9900
6601 1 9902 9901
6602 1 9902 9903
6603 1 9905 9904
6604 1 9905 9906
6605 1 9908 9907
6606 1 9908 9909
6607 1 9911 9910
6608 1 9911 9912
6609 1 9914 9913
6610 1 9914 9915
6611 1 9917 9916
6612 1 9917 9918
6613 1 9920 9919
6614 1 9920 9921
6615 1 9923 9922
6616 1 9923 9924
6617 1 9926 9925
6618 1 9926 9927
6619 1 9929 9928
6620 1 9929 9930
6621 1 9932 9931
6622 1 9932 9933
6623 1 9935 9934
6624 1 9935 9936
6625 1 9938 9937
6626 1 9938 9939
6627 1 9941 9940
6628 1 9941 9942
6629 1 9944 9943
6630 1 9944 9945
6631 1 9947 9946
6632 1 9947 9948
6633 1 9950 9949
6634 1 9950 9951
6635 1 9953 9952
6636 1 9953 9954
6637 1 9956 9955
6638 1 9956 9957
6639 1 9959 9958
6640 1 9959 9960
6641 1 9962 9961
6642 1 9962 9963
6643 1 9965 9964
6644 1 9965 9966
6645 1 9968 9967
6646 1 9968 9969
6647 1 9971 9970
6648 1 9971 9972
6649 1 9974 9973
6650 1 9974 9975
6651 1 9977 9976
6652 1 9977 9978
6653 1 9980 9979
6654 1 9980 9981
6655 1 9983 9982
6656 1 9983 9984
6657 1 9986 9985
6658 1 9986 9987
6659 1 9989 9988
6660 1 9989 9990
6661 1 9992 9991
6662 1 9992 9993
6663 1 9995 9994
6664 1 9995 9996
6665 1 9998 9997
6666 1 9998 9999
6667 1 10001 10000
6668 1 10001 10002
6669 1 10004 10003
6670 1 10004 10005
6671 1 10007 10006
6672 1 10007 10008
6673 1 10010 10009
6674 1 10010 10011
6675 1 10013 10012
6676 1 10013 10014
6677 1 10016 10015
6678 1 10016 10017
6679 1 10019 10018
6680 1 10019 10020
6681 1 10022 10021
6682 1 10022 10023
6683 1 10025 10024
6684 1 10025 10026
6685 1 10028 10027
6686 1 10028 10029
6687 1 10031 10030
6688 1 10031 10032
6689 1 10034 10033
6690 1 10034 10035
6691 1 10037 10036
6692 1 10037 10038
6693 1 10040 10039
6694 1 10040 10041
6695 1 10043 10042
6696 1 10043 10044
6697 1 10046 10045
6698 1 10046 10047
6699 1 10049 10048
6700 1 10049 10050
6701 1 10052 10051
6702 1 10052 10053
6703 1 10055 10054
6704 1 10055 10056
6705 1 10058 10057
6706 1 10058 10059
6707 1 10061 10060
6708 1 10061 10062
6709 1 10064 10063
6710 1 10064 10065
6711 1 10067 10066
6712 1 10067 10068
6713 1 10070 10069
6714 1 10070 10071
6715 1 10073 10072
6716 1 10073 10074
6717 1 10076 10075
6718 1 10076 10077
6719 1 10079 10078
6720 1 10079 10080
6721 1 10082 10081
6722 1 10082 10083
6723 1 10085 10084
6724 1 10085 10086
6725 1 10088 10087
6726 1 10088 10089
6727 1 10091 10090
6728 1 10091 10092
6729 1 10094 10093
6730 1 10094 10095
6731 1 10097 10096
6732 1 10097 10098
6733 1 10100 10099
6734 1 10100 10101
6735 1 10103 10102
6736 1 10103 10104
6737 1 10106 10105
6738 1 10106 10107
6739 1 10109 10108
6740 1 10109 10110
6741 1 10112 10111
6742 1 10112 10113
6743 1 10115 10114
6744 1 10115 10116
6745 1 10118 10117
6746 1 10118 10119
6747 1 10121 10120
6748 1 10121 10122
6749 1 10124 10123
6750 1 10124 10125
6751 1 10127 10126
6752 1 10127 10128
6753 1 10130 10129
6754 1 10130 10131
6755 1 10133 10132
6756 1 10133 10134
6757 1 10136 10135
6758 1 10136 10137
6759 1 10139 10138
6760 1 10139 10140
6761 1 10142 10141
6762 1 10142 10143
6763 1 10145 10144
6764 1 10145 10146
6765 1 10148 10147
6766 1 10148 10149
6767 1 10151 10150
6768 1 10151 10152
6769 1 10154 10153
6770 1 10154 10155
6771 1 10157 10156
6772 1 10157 10158
6773 1 10160 10159
6774 1 10160 10161
6775 1 10163 10162
6776 1 10163 10164
6777 1 10166 10165
6778 1 10166 10167
6779 1 10169 10168
6780 1 10169 10170
6781 1 10172 10171
6782 1 10172 10173
6783 1 10175 10174
6784 1 10175 10176
6785 1 10178 10177
6786 1 10178 10179
6787 1 10181 10180
6788 1 10181 10182
6789 1 10184 10183
6790 1 10184 10185
6791 1 10187 10186
6792 1 10187 10188
6793 1 10190 10189
6794 1 10190 10191
6795 1 10193 10192
6796 1 10193 10194
6797 1 10196 10195
6798 1 10196 10197
6799 1 10199 10198
6800 1 10199 10200
6801 1 10202 10201
6802 1 10202 10203
6803 1 10205 10204
6804 1 10205 10206
6805 1 10208 10207
6806 1 10208 10209
6807 1 10211 10210
6808 1 10211 10212
6809 1 10214 10213
6810 1 10214 10215
6811 1 10217 10216
6812 1 10217 10218
6813 1 10220 10219
6814 1 10220 10221
6815 1 10223 10222
6816 1 10223 10224
6817 1 10226 10225
6818 1 10226 10227
6819 1 10229 10228
6820 1 10229 10230
6821 1 10232 10231
6822 1 10232 10233
6823 1 10235 10234
6824 1 10235 10236
6825 1 10238 10237
6826 1 10238 10239
6827 1 10241 10240
6828 1 10241 10242
6829 1 10244 10243
6830 1 10244 10245
6831 1 10247 10246
6832 1 10247 10248
6833 1 10250 10249
6834 1 10250 10251
6835 1 10253 10252
6836 1 10253 10254
6837 1 10256 10255
6838 1 10256 10257
6839 1 10259 10258
6840 1 10259 10260
6841 1 10262 10261
6842 1 10262 10263
6843 1 10265 10264
6844 1 10265 10266
6845 1 10268 10267
6846 1 10268 10269
6847 1 10271 10270
6848 1 10271 10272
6849 1 10274 10273
6850 1 10274 10275
6851 1 10277 10276
6852 1 10277 10278
6853 1 10280 10279
6854 1 10280 10281
6855 1 10283 10282
6856 1 10283 10284
6857 1 10286 10285
6858 1 10286 10287
6859 1 10289 10288
6860 1 10289 10290
6861 1 10292 10291
6862 1 10292 10293
6863 1 10295 10294
6864 1 10295 10296
6865 1 10298 10297
6866 1 10298 10299
6867 1 10301 10300
6868 1 10301 10302
6869 1 10304 10303
6870 1 10304 10305
6871 1 10307 10306
6872 1 10307 10308
6873 1 10310 10309
6874 1 10310 10311
6875 1 10313 10312
6876 1 10313 10314
6877 1 10316 10315
6878 1 10316 10317
6879 1 10319 10318
6880 1 10319 10320
6881 1 10322 10321
6882 1 10322 10323
6883 1 10325 10324
6884 1 10325 10326
6885 1 10328 10327
6886 1 10328 10329
6887 1 10331 10330
6888 1 10331 10332
6889 1 10334 10333
6890 1 10334 10335
6891 1 10337 10336
6892 1 10337 10338
6893 1 10340 10339
6894 1 10340 10341
6895 1 10343 10342
6896 1 10343 10344
6897 1 10346 10345
6898 1 10346 10347
6899 1 10349 10348
6900 1 10349 10350
6901 1 10352 10351
6902 1 10352 10353
6903 1 10355 10354
6904 1 10355 10356
6905 1 10358 10357
6906 1 10358 10359
6907 1 10361 10360
6908 1 10361 10362
6909 1 10364 10363
6910 1 10364 10365
6911 1 10367 10366
6912 1 10367 10368
6913 1 10370 10369
6914 1 10370 10371
6915 1 10373 10372
6916 1 10373 10374
6917 1 10376 10375
6918 1 10376 10377
6919 1 10379 10378
6920 1 10379 10380
6921 1 10382 10381
6922 1 10382 10383
6923 1 10385 10384
6924 1 10385 10386
6925 1 10388 10387
6926 1 10388 10389
6927 1 10391 10390
6928 1 10391 10392
6929 1 10394 10393
6930 1 10394 10395
6931 1 10397 10396
6932 1 10397 10398
6933 1 10400 10399
6934 1 10400 10401
6935 1 10403 10402
6936 1 10403 10404
6937 1 10406 10405
6938 1 10406 10407
6939 1 10409 10408
6940 1 10409 10410
6941 1 10412 10411
6942 1 10412 10413
6943 1 10415 10414
6944 1 10415 10416
6945 1 10418 10417
6946 1 10418 10419
6947 1 10421 10420
6948 1 10421 10422
6949 1 10424 10423
6950 1 10424 10425
6951 1 10427 10426
6952 1 10427 10428
6953 1 10430 10429
6954 1 10430 10431
6955 1 10433 10432
6956 1 10433 10434
6957 1 10436 10435
6958 1 10436 10437
6959 1 10439 10438
6960 1 10439 10440
6961 1 10442 10441
6962 1 10442 10443
6963 1 10445 10444
6964 1 10445 10446
6965 1 10448 10447
6966 1 10448 10449
6967 1 10451 10450
6968 1 10451 10452
6969 1 10454 10453
6970 1 10454 10455
6971 1 10457 10456
6972 1 10457 10458
6973 1 10460 10459
6974 1 10460 10461
6975 1 10463 10462
6976 1 10463 10464
6977 1 10466 10465
6978 1 10466 10467
6979 1 10469 10468
6980 1 10469 10470
6981 1 10472 10471
6982 1 10472 10473
6983 1 10475 10474
6984 1 10475 10476
6985 1 10478 10477
6986 1 10478 10479
6987 1 10481 10480
6988 1 10481 10482
6989 1 10484 10483
6990 1 10484 10485
6991 1 10487 10486
6992 1 10487 10488
6993 1 10490 10489
6994 1 10490 10491
6995 1 10493 10492
6996 1 10493 10494
6997 1 10496 10495
6998 1 10496 10497
6999 1 10499 10498
7000 1 10499 10500
7001 1 10502 10501
7002 1 10502 10503
7003 1 10505 10504
7004 1 10505 10506
7005 1 10508 10507
7006 1 10508 10509
7007 1 10511 10510
7008 1 10511 10512
7009 1 10514 10513
7010 1 10514 10515
7011 1 10517 10516
7012 1 10517 10518
7013 1 10520 10519
7014 1 10520 10521
7015 1 10523 10522
7016 1 10523 10524
7017 1 10526 10525
7018 1 10526 10527
7019 1 10529 10528
7020 1 10529 10530
7021 1 10532 10531
7022 1 10532 10533
7023 1 10535 10534
7024 1 10535 10536
7025 1 10538 10537
7026 1 10538 10539
7027 1 10541 10540
7028 1 10541 10542
7029 1 10544 10543
7030 1 10544 10545
7031 1 10547 10546
7032 1 10547 10548
7033 1 10550 10549
7034 1 10550 10551
7035 1 10553 10552
7036 1 10553 10554
7037 1 10556 10555
7038 1 10556 10557
7039 1 10559 10558
7040 1 10559 10560
7041 1 10562 10561
7042 1 10562 10563
7043 1 10565 10564
7044 1 10565 10566
7045 1 10568 10567
7046 1 10568 10569
7047 1 10571 10570
7048 1 10571 10572
7049 1 10574 10573
7050 1 10574 10575
7051 1 10577 10576
7052 1 10577 10578
7053 1 10580 10579
7054 1 10580 10581
7055 1 10583 10582
7056 1 10583 10584
7057 1 10586 10585
7058 1 10586 10587
7059 1 10589 10588
7060 1 10589 10590
7061 1 10592 10591
7062 1 10592 10593
7063 1 10595 10594
7064 1 10595 10596
7065 1 10598 10597
7066 1 10598 10599
7067 1 10601 10600
7068 1 10601 10602
7069 1 10604 10603
7070 1 10604 10605
7071 1 10607 10606
7072 1 10607 10608
7073 1 10610 10609
7074 1 10610 10611
7075 1 10613 10612
7076 1 10613 10614
7077 1 10616 10615
7078 1 10616 10617
7079 1 10619 10618
7080 1 10619 10620
7081 1 10622 10621
7082 1 10622 10623
7083 1 10625 10624
7084 1 10625 10626
7085 1 10628 10627
7086 1 10628 10629
7087 1 10631 10630
7088 1 10631 10632
7089 1 10634 10633
7090 1 10634 10635
7091 1 10637 10636
7092 1 10637 10638
7093 1 10640 10639
7094 1 10640 10641
7095 1 10643 10642
7096 1 10643 10644
7097 1 10646 10645
7098 1 10646 10647
7099 1 10649 10648
7100 1 10649 10650
7101 1 10652 10651
7102 1 10652 10653
7103 1 10655 10654
7104 1 10655 10656
7105 1 10658 10657
7106 1 10658 10659
7107 1 10661 10660
7108 1 10661 10662
7109 1 10664 10663
7110 1 10664 10665
7111 1 10667 10666
7112 1 10667 10668
7113 1 10670 10669
7114 1 10670 10671
7115 1 10673 10672
7116 1 10673 10674
7117 1 10676 10675
7118 1 10676 10677
7119 1 10679 10678
7120 1 10679 10680
7121 1 10682 10681
7122 1 10682 10683
7123 1 10685 10684
7124 1 10685 10686
7125 1 10688 10687
7126 1 10688 10689
7127 1 10691 10690
7128 1 10691 10692
7129 1 10694 10693
7130 1 10694 10695
7131 1 10697 10696
7132 1 10697 10698
7133 1 10700 10699
7134 1 10700 10701
7135 1 10703 10702
7136 1 10703 10704
7137 1 10706 10705
7138 1 10706 10707
7139 1 10709 10708
7140 1 10709 10710
7141 1 10712 10711
7142 1 10712 10713
7143 1 10715 10714
7144 1 10715 10716
7145 1 10718 10717
7146 1 10718 10719
7147 1 10721 10720
7148 1 10721 10722
7149 1 10724 10723
7150 1 10724 10725
7151 1 10727 10726
7152 1 10727 10728
7153 1 10730 10729
7154 1 10730 10731
7155 1 10733 10732
7156 1 10733 10734
7157 1 10736 10735
7158 1 10736 10737
7159 1 10739 10738
7160 1 10739 10740
7161 1 10742 10741
7162 1 10742 10743
7163 1 10745 10744
7164 1 10745 10746
7165 1 10748 10747
7166 1 10748 10749
7167 1 10751 10750
7168 1 10751 10752
7169 1 10754 10753
7170 1 10754 10755
7171 1 10757 10756
7172 1 10757 10758
7173 1 10760 10759
7174 1 10760 10761
7175 1 10763 10762
7176 1 10763 10764
7177 1 10766 10765
7178 1 10766 10767
7179 1 10769 10768
7180 1 10769 10770
7181 1 10772 10771
7182 1 10772 10773
7183 1 10775 10774
7184 1 10775 10776
7185 1 10778 10777
7186 1 10778 10779
7187 1 10781 10780
7188 1 10781 10782
7189 1 10784 10783
7190 1 10784 10785
7191 1 10787 10786
7192 1 10787 10788
7193 1 10790 10789
7194 1 10790 10791
7195 1 10793 10792
7196 1 10793 10794
7197 1 10796 10795
7198 1 10796 10797
7199 1 10799 10798
7200 1 10799 10800
7201 1 10802 10801
7202 1 10802 10803
7203 1 10805 10804
7204 1 10805 10806
7205 1 10808 10807
7206 1 10808 10809
7207 1 10811 10810
7208 1 10811 10812
7209 1 10814 10813
7210 1 10814 10815
7211 1 10817 10816
7212 1 10817 10818
7213 1 10820 10819
7214 1 10820 10821
7215 1 10823 10822
7216 1 10823 10824
7217 1 10826 10825
7218 1 10826 10827
7219 1 10829 10828
7220 1 10829 10830
7221 1 10832 10831
7222 1 10832 10833
7223 1 10835 10834
7224 1 10835 10836
7225 1 10838 10837
7226 1 10838 10839
7227 1 10841 10840
7228 1 10841 10842
7229 1 10844 10843
7230 1 10844 10845
7231 1 10847 10846
7232 1 10847 10848
7233 1 10850 10849
7234 1 10850 10851
7235 1 10853 10852
7236 1 10853 10854
7237 1 10856 10855
7238 1 10856 10857
7239 1 10859 10858
7240 1 10859 10860
7241 1 10862 10861
7242 1 10862 10863
7243 1 10865 10864
7244 1 10865 10866
7245 1 10868 10867
7246 1 10868 10869
7247 1 10871 10870
7248 1 10871 10872
7249 1 10874 10873
7250 1 10874 10875
7251 1 10877 10876
7252 1 10877 10878
7253 1 10880 10879
7254 1 10880 10881
7255 1 10883 10882
7256 1 10883 10884
7257 1 10886 10885
7258 1 10886 10887
7259 1 10889 10888
7260 1 10889 10890
7261 1 10892 10891
7262 1 10892 10893
7263 1 10895 10894
7264 1 10895 10896
7265 1 10898 10897
7266 1 10898 10899
7267 1 10901 10900
7268 1 10901 10902
7269 1 10904 10903
7270 1 10904 10905
7271 1 10907 10906
7272 1 10907 10908
7273 1 10910 10909
7274 1 10910 10911
7275 1 10913 10912
7276 1 10913 10914
7277 1 10916 10915
7278 1 10916 10917
7279 1 10919 10918
7280 1 10919 10920
7281 1 10922 10921
7282 1 10922 10923
7283 1 10925 10924
7284 1 10925 10926
7285 1 10928 10927
7286 1 10928 10929
7287 1 10931 10930
7288 1 10931 10932
7289 1 10934 10933
7290 1 10934 10935
7291 1 10937 10936
7292 1 10937 10938
7293 1 10940 10939
7294 1 10940 10941
7295 1 10943 10942
7296 1 10943 10944
7297 1 10946 10945
7298 1 10946 10947
7299 1 10949 10948
7300 1 10949 10950
7301 1 10952 10951
7302 1 10952 10953
7303 1 10955 10954
7304 1 10955 10956
7305 1 10958 10957
7306 1 10958 10959
7307 1 10961 10960
7308 1 10961 10962
7309 1 10964 10963
7310 1 10964 10965
7311 1 10967 10966
7312 1 10967 10968
7313 1 10970 10969
7314 1 10970 10971
7315 1 10973 10972
7316 1 10973 10974
7317 1 10976 10975
7318 1 10976 10977
7319 1 10979 10978
7320 1 10979 10980
7321 1 10982 10981
7322 1 10982 10983
7323 1 10985 10984
7324 1 10985 10986
7325 1 10988 10987
7326 1 10988 10989
7327 1 10991 10990
7328 1 10991 10992
7329 1 10994 10993
7330 1 10994 10995
7331 1 10997 10996
7332 1 10997 10998
7333 1 11000 10999
7334 1 11000 11001
7335 1 11003 11002
7336 1 11003 11004
7337 1 11006 11005
7338 1 11006 11007
7339 1 11009 11008
7340 1 11009 11010
7341 1 11012 11011
7342 1 11012 11013
7343 1 11015 11014
7344 1 11015 11016
7345 1 11018 11017
7346 1 11018 11019
7347 1 11021 11020
7348 1 11021 11022
7349 1 11024 11023
7350 1 11024 11025
7351 1 11027 11026
7352 1 11027 11028
7353 1 11030 11029
7354 1 11030 11031
7355 1 11033 11032
7356 1 11033 11034
7357 1 11036 11035
7358 1 11036 11037
7359 1 11039 11038
7360 1 11039 11040
7361 1 11042 11041
7362 1 11042 11043
7363 1 11045 11044
7364 1 11045 11046
7365 1 11048 11047
7366 1 11048 11049
7367 1 11051 11050
7368 1 11051 11052
7369 1 11054 11053
7370 1 11054 11055
7371 1 11057 11056
7372 1 11057 11058
7373 1 11060 11059
7374 1 11060 11061
7375 1 11063 11062
7376 1 11063 11064
7377 1 11066 11065
7378 1 11066 11067
7379 1 11069 11068
7380 1 11069 11070
7381 1 11072 11071
7382 1 11072 11073
7383 1 11075 11074
7384 1 11075 11076
7385 1 11078 11077
7386 1 11078 11079
7387 1 11081 11080
7388 1 11081 11082
7389 1 11084 11083
7390 1 11084 11085
7391 1 11087 11086
7392 1 11087 11088
7393 1 11090 11089
7394 1 11090 11091
7395 1 11093 11092
7396 1 11093 11094
7397 1 11096 11095
7398 1 11096 11097
7399 1 11099 11098
7400 1 11099 11100
7401 1 11102 11101
7402 1 11102 11103
7403 1 11105 11104
7404 1 11105 11106
7405 1 11108 11107
7406 1 11108 11109
7407 1 11111 11110
7408 1 11111 11112
7409 1 11114 11113
7410 1 11114 11115
7411 1 11117 11116
7412 1 11117 11118
7413 1 11120 11119
7414 1 11120 11121
7415 1 11123 11122
7416 1 11123 11124
7417 1 11126 11125
7418 1 11126 11127
7419 1 11129 11128
7420 1 11129 11130
7421 1 11132 11131
7422 1 11132 11133
7423 1 11135 11134
7424 1 11135 11136
7425 1 11138 11137
7426 1 11138 11139
7427 1 11141 11140
7428 1 11141 11142
7429 1 11144 11143
7430 1 11144 11145
7431 1 11147 11146
7432 1 11147 11148
7433 1 11150 11149
7434 1 11150 11151
7435 1 11153 11152
7436 1 11153 11154
7437 1 11156 11155
7438 1 11156 11157
7439 1 11159 11158
7440 1 11159 11160
7441 1 11162 11161
7442 1 11162 11163
7443 1 11165 11164
7444 1 11165 11166
7445 1 11168 11167
7446 1 11168 11169
7447 1 11171 11170
7448 1 11171 11172
7449 1 11174 11173
7450 1 11174 11175
7451 1 11177 11176
7452 1 11177 11178
7453 1 11180 11179
7454 1 11180 11181
7455 1 11183 11182
7456 1 11183 11184
7457 1 11186 11185
7458 1 11186 11187
7459 1 11189 11188
7460 1 11189 11190
7461 1 11192 11191
7462 1 11192 11193
7463 1 11195 11194
7464 1 11195 11196
7465 1 11198 11197
7466 1 11198 11199
7467 1 11201 11200
7468 1 11201 11202
7469 1 11204 11203
7470 1 11204 11205
7471 1 11207 11206
7472 1 11207 11208
7473 1 11210 11209
7474 1 11210 11211
7475 1 11213 11212
7476 1 11213 11214
7477 1 11216 11215
7478 1 11216 11217
7479 1 11219 11218
7480 1 11219 11220
7481 1 11222 11221
7482 1 11222 11223
7483 1 11225 11224
7484 1 11225 11226
7485 1 11228 11227
7486 1 11228 11229
7487 1 11231 11230
7488 1 11231 11232
7489 1 11234 11233
7490 1 11234 11235
7491 1 11237 11236
7492 1 11237 11238
7493 1 11240 11239
7494 1 11240 11241
7495 1 11243 11242
7496 1 11243 11244
7497 1 11246 11245
7498 1 11246 11247
7499 1 11249 11248
7500 1 11249 11250
7501 1 11252 11251
7502 1 11252 11253
7503 1 11255 11254
7504 1 11255 11256
7505 1 11258 11257
7506 1 11258 11259
7507 1 11261 11260
7508 1 11261 11262
7509 1 11264 11263
7510 1 11264 11265
7511 1 11267 11266
7512 1 11267 11268
7513 1 11270 11269
7514 1 11270 11271
7515 1 11273 11272
7516 1 11273 11274
7517 1 11276 11275
7518 1 11276 11277
7519 1 11279 11278
7520 1 11279 11280
7521 1 11282 11281
7522 1 11282 11283
7523 1 11285 11284
7524 1 11285 11286
7525 1 11288 11287
7526 1 11288 11289
7527 1 11291 11290
7528 1 11291 11292
7529 1 11294 11293
7530 1 11294 11295
7531 1 11297 11296
7532 1 11297 11298
7533 1 11300 11299
7534 1 11300 11301
7535 1 11303 11302
7536 1 11303 11304
7537 1 11306 11305
7538 1 11306 11307
7539 1 11309 11308
7540 1 11309 11310
7541 1 11312 11311
7542 1 11312 11313
7543 1 11315 11314
7544 1 11315 11316
7545 1 11318 11317
7546 1 11318 11319
7547 1 11321 11320
7548 1 11321 11322
7549 1 11324 11323
7550 1 11324 11325
7551 1 11327 11326
7552 1 11327 11328
7553 1 11330 11329
7554 1 11330 11331
7555 1 11333 11332
7556 1 11333 11334
7557 1 11336 11335
7558 1 11336 11337
7559 1 11339 11338
7560 1 11339 11340
7561 1 11342 11341
7562 1 11342 11343
7563 1 11345 11344
7564 1 11345 11346
7565 1 11348 11347
7566 1 11348 11349
7567 1 11351 11350
7568 1 11351 11352
7569 1 11354 11353
7570 1 11354 11355
7571 1 11357 11356
7572 1 11357 11358
7573 1 11360 11359
7574 1 11360 11361
7575 1 11363 11362
7576 1 11363 11364
7577 1 11366 11365
7578 1 11366 11367
7579 1 11369 11368
7580 1 11369 11370
7581 1 11372 11371
7582 1 11372 11373
7583 1 11375 11374
7584 1 11375 11376
7585 1 11378 11377
7586 1 11378 11379
7587 1 11381 11380
7588 1 11381 11382
7589 1 11384 11383
7590 1 11384 11385
7591 1 11387 11386
7592 1 11387 11388
7593 1 11390 11389
7594 1 11390 11391
7595 1 11393 11392
7596 1 11393 11394
7597 1 11396 11395
7598 1 11396 11397
7599 1 11399 11398
7600 1 11399 11400
7601 1 11402 11401
7602 1 11402 11403
7603 1 11405 11404
7604 1 11405 11406
7605 1 11408 11407
7606 1 11408 11409
7607 1 11411 11410
7608 1 11411 11412
7609 1 11414 11413
7610 1 11414 11415
7611 1 11417 11416
7612 1 11417 11418
7613 1 11420 11419
7614 1 11420 11421
7615 1 11423 11422
7616 1 11423 11424
7617 1 11426 11425
7618 1 11426 11427
7619 1 11429 11428
7620 1 11429 11430
7621 1 11432 11431
7622 1 11432 11433
7623 1 11435 11434
7624 1 11435 11436
7625 1 11438 11437
7626 1 11438 11439
7627 1 11441 11440
7628 1 11441 11442
7629 1 11444 11443
7630 1 11444 11445
7631 1 11447 11446
7632 1 11447 11448
7633 1 11450 11449
7634 1 11450 11451
7635 1 11453 11452
7636 1 11453 11454
7637 1 11456 11455
7638 1 11456 11457
7639 1 11459 11458
7640 1 11459 11460
7641 1 11462 11461
7642 1 11462 11463
7643 1 11465 11464
7644 1 11465 11466
7645 1 11468 11467
7646 1 11468 11469
7647 1 11471 11470
7648 1 11471 11472
7649 1 11474 11473
7650 1 11474 11475
7651 1 11477 11476
7652 1 11477 11478
7653 1 11480 11479
7654 1 11480 11481
7655 1 11483 11482
7656 1 11483 11484
7657 1 11486 11485
7658 1 11486 11487
7659 1 11489 11488
7660 1 11489 11490
7661 1 11492 11491
7662 1 11492 11493
7663 1 11495 11494
7664 1 11495 11496
7665 1 11498 11497
7666 1 11498 11499
7667 1 11501 11500
7668 1 11501 11502
7669 1 11504 11503
7670 1 11504 11505
7671 1 11507 11506
7672 1 11507 11508
7673 1 11510 11509
7674 1 11510 11511
7675 1 11513 11512
7676 1 11513 11514
7677 1 11516 11515
7678 1 11516 11517
7679 1 11519 11518
7680 1 11519 11520
7681 1 11522 11521
7682 1 11522 11523
7683 1 11525 11524
7684 1 11525 11526
7685 1 11528 11527
7686 1 11528 11529
7687 1 11531 11530
7688 1 11531 11532
7689 1 11534 11533
7690 1 11534 11535
7691 1 11537 11536
7692 1 11537 11538
7693 1 11540 11539
7694 1 11540 11541
7695 1 11543 11542
7696 1 11543 11544
7697 1 11546 11545
7698 1 11546 11547
7699 1 11549 11548
7700 1 11549 11550
7701 1 11552 11551
7702 1 11552 11553
7703 1 11555 11554
7704 1 11555 11556
7705 1 11558 11557
7706 1 11558 11559
7707 1 11561 11560
7708 1 11561 11562
7709 1 11564 11563
7710 1 11564 11565
7711 1 11567 11566
7712 1 11567 11568
7713 1 11570 11569
7714 1 11570 11571
7715 1 11573 11572
7716 1 11573 11574
7717 1 11576 11575
7718 1 11576 11577
7719 1 11579 11578
7720 1 11579 11580
7721 1 11582 11581
7722 1 11582 11583
7723 1 11585 11584
7724 1 11585 11586
7725 1 11588 11587
7726 1 11588 11589
7727 1 11591 11590
7728 1 11591 11592
7729 1 11594 11593
7730 1 11594 11595
7731 1 11597 11596
7732 1 11597 11598
7733 1 11600 11599
7734 1 11600 11601
7735 1 11603 11602
7736 1 11603 11604
7737 1 11606 11605
7738 1 11606 11607
7739 1 11609 11608
7740 1 11609 11610
7741 1 11612 11611
7742 1 11612 11613
7743 1 11615 11614
7744 1 11615 11616
7745 1 11618 11617
7746 1 11618 11619
7747 1 11621 11620
7748 1 11621 11622
7749 1 11624 11623
7750 1 11624 11625
7751 1 11627 11626
7752 1 11627 11628
7753 1 11630 11629
7754 1 11630 11631
7755 1 11633 11632
7756 1 11633 11634
7757 1 11636 11635
7758 1 11636 11637
7759 1 11639 11638
7760 1 11639 11640
7761 1 11642 11641
7762 1 11642 11643
7763 1 11645 11644
7764 1 11645 11646
7765 1 11648 11647
7766 1 11648 11649
7767 1 11651 11650
7768 1 11651 11652
7769 1 11654 11653
7770 1 11654 11655
7771 1 11657 11656
7772 1 11657 11658
7773 1 11660 11659
7774 1 11660 11661
7775 1 11663 11662
7776 1 11663 11664
7777 1 11666 11665
7778 1 11666 11667
7779 1 11669 11668
7780 1 11669 11670
7781 1 11672 11671
7782 1 11672 11673
7783 1 11675 11674
7784 1 11675 11676
7785 1 11678 11677
7786 1 11678 11679
7787 1 11681 11680
7788 1 11681 11682
7789 1 11684 11683
7790 1 11684 11685
7791 1 11687 11686
7792 1 11687 11688
7793 1 11690 11689
7794 1 11690 11691
7795 1 11693 11692
7796 1 11693 11694
7797 1 11696 11695
7798 1 11696 11697
7799 1 11699 11698
7800 1 11699 11700
7801 1 11702 11701
7802 1 11702 11703
7803 1 11705 11704
7804 1 11705 11706
7805 1 11708 11707
7806 1 11708 11709
7807 1 11711 11710
7808 1 11711 11712
7809 1 11714 11713
7810 1 11714 11715
7811 1 11717 11716
7812 1 11717 11718
7813 1 11720 11719
7814 1 11720 11721
7815 1 11723 11722
7816 1 11723 11724
7817 1 11726 11725
7818 1 11726 11727
7819 1 11729 11728
7820 1 11729 11730
7821 1 11732 11731
7822 1 11732 11733
7823 1 11735 11734
7824 1 11735 11736
7825 1 11738 11737
7826 1 11738 11739
7827 1 11741 11740
7828 1 11741 11742
7829 1 11744 11743
7830 1 11744 11745
7831 1 11747 11746
7832 1 11747 11748
7833 1 11750 11749
7834 1 11750 11751
7835 1 11753 11752
7836 1 11753 11754
7837 1 11756 11755
7838 1 11756 11757
7839 1 11759 11758
7840 1 11759 11760
7841 1 11762 11761
7842 1 11762 11763
7843 1 11765 11764
7844 1 11765 11766
7845 1 11768 11767
7846 1 11768 11769
7847 1 11771 11770
7848 1 11771 11772
7849 1 11774 11773
7850 1 11774 11775
7851 1 11777 11776
7852 1 11777 11778
7853 1 11780 11779
7854 1 11780 11781
7855 1 11783 11782
7856 1 11783 11784
7857 1 11786 11785
7858 1 11786 11787
7859 1 11789 11788
7860 1 11789 11790
7861 1 11792 11791
7862 1 11792 11793
7863 1 11795 11794
7864 1 11795 11796
7865 1 11798 11797
7866 1 11798 11799
7867 1 11801 11800
7868 1 11801 11802
7869 1 11804 11803
7870 1 11804 11805
7871 1 11807 11806
7872 1 11807 11808
7873 1 11810 11809
7874 1 11810 11811
7875 1 11813 11812
7876 1 11813 11814
7877 1 11816 11815
7878 1 11816 11817
7879 1 11819 11818
7880 1 11819 11820
7881 1 11822 11821
7882 1 11822 11823
7883 1 11825 11824
7884 1 11825 11826
7885 1 11828 11827
7886 1 11828 11829
7887 1 11831 11830
7888 1 11831 11832
7889 1 11834 11833
7890 1 11834 11835
7891 1 11837 11836
7892 1 11837 11838
7893 1 11840 11839
7894 1 11840 11841
7895 1 11843 11842
7896 1 11843 11844
7897 1 11846 11845
7898 1 11846 11847
7899 1 11849 11848
7900 1 11849 11850
7901 1 11852 11851
7902 1 11852 11853
7903 1 11855 11854
7904 1 11855 11856
7905 1 11858 11857
7906 1 11858 11859
7907 1 11861 11860
7908 1 11861 11862
7909 1 11864 11863
7910 1 11864 11865
7911 1 11867 11866
7912 1 11867 11868
7913 1 11870 11869
7914 1 11870 11871
7915 1 11873 11872
7916 1 11873 11874
7917 1 11876 11875
7918 1 11876 11877
7919 1 11879 11878
7920 1 11879 11880
7921 1 11882 11881
7922 1 11882 11883
7923 1 11885 11884
7924 1 11885 11886
7925 1 11888 11887
7926 1 11888 11889
7927 1 11891 11890
7928 1 11891 11892
7929 1 11894 11893
7930 1 11894 11895
7931 1 11897 11896
7932 1 11897 11898
7933 1 11900 11899
7934 1 11900 11901
7935 1 11903 11902
7936 1 11903 11904
7937 1 11906 11905
7938 1 11906 11907
7939 1 11909 11908
7940 1 11909 11910
7941 1 11912 11911
7942 1 11912 11913
7943 1 11915 11914
7944 1 11915 11916
7945 1 11918 11917
7946 1 11918 11919
7947 1 11921 11920
7948 1 11921 11922
7949 1 11924 11923
7950 1 11924 11925
7951 1 11927 11926
7952 1 11927 11928
7953 1 11930 11929
7954 1 11930 11931
7955 1 11933 11932
7956 1 11933 11934
7957 1 11936 11935
7958 1 11936 11937
7959 1 11939 11938
7960 1 11939 11940
7961 1 11942 11941
7962 1 11942 11943
7963 1 11945 11944
7964 1 11945 11946
7965 1 11948 11947
7966 1 11948 11949
7967 1 11951 11950
7968 1 11951 11952
7969 1 11954 11953
7970 1 11954 11955
7971 1 11957 11956
7972 1 11957 11958
7973 1 11960 11959
7974 1 11960 11961
7975 1 11963 11962
7976 1 11963 11964
7977 1 11966 11965
7978 1 11966 11967
7979 1 11969 11968
7980 1 11969 11970
7981 1 11972 11971
7982 1 11972 11973
7983 1 11975 11974
7984 1 11975 11976
7985 1 11978 11977
7986 1 11978 11979
7987 1 11981 11980
7988 1 11981 11982
7989 1 11984 11983
7990 1 11984 11985
7991 1 11987 11986
7992 1 11987 11988
7993 1 11990 11989
7994 1 11990 11991
7995 1 11993 11992
7996 1 11993 11994
7997 1 11996 11995
7998 1 11996 11997
7999 1 11999 11998
8000 1 11999 12000
8001 1 12002 12001
8002 1 12002 12003
8003 1 12005 12004
8004 1 12005 12006
8005 1 12008 12007
8006 1 12008 12009
8007 1 12011 12010
8008 1 12011 12012
8009 1 12014 12013
8010 1 12014 12015
8011 1 12017 12016
8012 1 12017 12018
8013 1 12020 12019
8014 1 12020 12021
8015 1 12023 12022
8016 1 12023 12024
8017 1 12026 12025
8018 1 12026 12027
8019 1 12029 12028
8020 1 12029 12030
8021 1 12032 12031
8022 1 12032 12033
8023 1 12035 12034
8024 1 12035 12036
8025 1 12038 12037
8026 1 12038 12039
8027 1 12041 12040
8028 1 12041 12042
8029 1 12044 12043
8030 1 12044 12045
8031 1 12047 12046
8032 1 12047 12048
8033 1 12050 12049
8034 1 12050 12051
8035 1 12053 12052
8036 1 12053 12054
8037 1 12056 12055
8038 1 12056 12057
8039 1 12059 12058
8040 1 12059 12060
8041 1 12062 12061
8042 1 12062 12063
8043 1 12065 12064
8044 1 12065 12066
8045 1 12068 12067
8046 1 12068 12069
8047 1 12071 12070
8048 1 12071 12072
8049 1 12074 12073
8050 1 12074 12075
8051 1 12077 12076
8052 1 12077 12078
8053 1 12080 12079
8054 1 12080 12081
8055 1 12083 12082
8056 1 12083 12084
8057 1 12086 12085
8058 1 12086 12087
8059 1 12089 12088
8060 1 12089 12090
8061 1 12092 12091
8062 1 12092 12093
8063 1 12095 12094
8064 1 12095 12096
8065 1 12098 12097
8066 1 12098 12099
8067 1 12101 12100
8068 1 12101 12102
8069 1 12104 12103
8070 1 12104 12105
8071 1 12107 12106
8072 1 12107 12108
8073 1 12110 12109
8074 1 12110 12111
8075 1 12113 12112
8076 1 12113 12114
8077 1 12116 12115
8078 1 12116 12117
8079 1 12119 12118
8080 1 12119 12120
8081 1 12122 12121
8082 1 12122 12123
8083 1 12125 12124
8084 1 12125 12126
8085 1 12128 12127
8086 1 12128 12129
8087 1 12131 12130
8088 1 12131 12132
8089 1 12134 12133
8090 1 12134 12135
8091 1 12137 12136
8092 1 12137 12138
8093 1 12140 12139
8094 1 12140 12141
8095 1 12143 12142
8096 1 12143 12144
8097 1 12146 12145
8098 1 12146 12147
8099 1 12149 12148
8100 1 12149 12150
8101 1 12152 12151
8102 1 12152 12153
8103 1 12155 12154
8104 1 12155 12156
8105 1 12158 12157
8106 1 12158 12159
8107 1 12161 12160
8108 1 12161 12162
8109 1 12164 12163
8110 1 12164 12165
8111 1 12167 12166
8112 1 12167 12168
8113 1 12170 12169
8114 1 12170 12171
8115 1 12173 12172
8116 1 12173 12174
8117 1 12176 12175
8118 1 12176 12177
8119 1 12179 12178
8120 1 12179 12180
8121 1 12182 12181
8122 1 12182 12183
8123 1 12185 12184
8124 1 12185 12186
8125 1 12188 12187
8126 1 12188 12189
8127 1 12191 12190
8128 1 12191 12192
8129 1 12194 12193
8130 1 12194 12195
8131 1 12197 12196
8132 1 12197 12198
8133 1 12200 12199
8134 1 12200 12201
8135 1 12203 12202
8136 1 12203 12204
8137 1 12206 12205
8138 1 12206 12207
8139 1 12209 12208
8140 1 12209 12210
8141 1 12212 12211
8142 1 12212 12213
8143 1 12215 12214
8144 1 12215 12216
8145 1 12218 12217
8146 1 12218 12219
8147 1 12221 12220
8148 1 12221 12222
8149 1 12224 12223
8150 1 12224 12225
8151 1 12227 12226
8152 1 12227 12228
8153 1 12230 12229
8154 1 12230 12231
8155 1 12233 12232
8156 1 12233 12234
8157 1 12236 12235
8158 1 12236 12237
8159 1 12239 12238
8160 1 12239 12240

Angles

1 1 1 2 3
2 1 4 5 6
3 1 7 8 9
4 1 10 11 12
5 1 13 14 15
6 1 16 17 18
7 1 19 20 21
8 1 22 23 24
9 1 25 26 27
10 1 28 29 30
11 1 31 32 33
12 1 34 35 36
13 1 37 38 39
14 1 40 41 42
15 1 43 44 45
16 1 46 47 48
17 1 49 50 51
18 1 52 53 54
19 1 55 56 57
20 1 58 59 60
21 1 61 62 63
22 1 64 65 66
23 1 67 68 69
24 1 70 71 72
25 1 73 74 75
26 1 76 77 78
27 1 79 80 81
28 1 82 83 84
29 1 85 86 87
30 1 88 89 90
31 1 91 92 93
32 1 94 95 96
33 1 97 98 99
34 1 100 101 102
35 1 103 104 105
36 1 106 107 108
37 1 109 110 111
38 1 112 113 114
39 1 115 116 117
40 1 118 119 120
41 1 121 122 123
42 1 124 125 126
43 1 127 128 129
44 1 130 131 132
45 1 133 134 135
46 1 136 137 138
47 1 139 140 141
48 1 142 143 144
49 1 145 146 147
50 1 148 149 150
51 1 151 152 153
52 1 154 155 156
53 1 157 158 159
54 1 160 161 162
55 1 163 164 165
56 1 166 167 168
57 1 169 170 171
58 1 172 173 174
59 1 175 176 177
60 1 178 179 180
61 1 181 182 183
62 1 184 185 186
63 1 187 188 189
64 1 190 191 192
65 1 193 194 195
66 1 196 197 198
67 1 199 200 201
68 1 202 203 204
69 1 205 206 207
70 1 208 209 210
71 1 211 212 213
72 1 214 215 216
73 1 217 218 219
74 1 220 221 222
75 1 223 224 225
76 1 226 227 228
77 1 229 230 231
78 1 232 233 234
79 1 235 236 237
80 1 238 239 240
81 1 241 242 243
82 1 244 245 246
83 1 247 248 249
84 1 250 251 252
85 1 253 254 255
86 1 256 257 258
87 1 259 260 261
88 1 262 263 264
89 1 265 266 267
90 1 268 269 270
91 1 271 272 273
92 1 274 275 276
93 1 277 278 279
94 1 280 281 282
95 1 283 284 285
96 1 286 287 288
97 1 289 290 291
98 1 292 293 294
99 1 295 296 297
100 1 298 299 300
101 1 301 302 303
102 1 304 305 306
103 1 307 308 309
104 1 310 311 312
105 1 313 314 315
106 1 316 317 318
107 1 319 320 321
108 1 322 323 324
109 1 325 326 327
110 1 328 329 330
111 1 331 332 333
112 1 334 335 336
113 1 337 338 339
114 1 340 341 342
115 1 343 344 345
116 1 346 347 348
117 1 349 350 351
118 1 352 353 354
119 1 355 356 357
120 1 358 359 360
121 1 361 362 363
122 1 364 365 366
123 1 367 368 369
124 1 370 371 372
125 1 373 374 375
126 1 376 377 378
127 1 379 380 381
128 1 382 383 384
129 1 385 386 387
130 1 388 389 390
131 1 391 392 393
132 1 394 395 396
133 1 397 398 399
134 1 400 401 402
135 1 403 404 405
136 1 406 407 408
137 1 409 410 411
138 1 412 413 414
139 1 415 416 417
140 1 418 419 420
141 1 421 422 423
142 1 424 425 426
143 1 427 428 429
144 1 430 431 432
145 1 433 434 435
146 1 436 437 438
147 1 439 440 441
148 1 442 443 444
149 1 445 446 447
150 1 448 449 450
151 1 451 452 453
152 1 454 455 456
153 1 457 458 459
154 1 460 461 462
155 1 463 464 465
156 1 466 467 468
157 1 469 470 471
158 1 472 473 474
159 1 475 476 477
160 1 478 479 480
161 1 481 482 483
162 1 484 485 486
163 1 487 488 489
164 1 490 491 492
165 1 493 494 495
166 1 496 497 498
167 1 499 500 501
168 1 502 503 504
169 1 505 506 507
170 1 508 509 510
171 1 511 512 513
172 1 514 515 516
173 1 517 518 519
174 1 520 521 522
175 1 523 524 525
176 1 526 527 528
177 1 529 530 531
178 1 532 533 534
179 1 535 536 537
180 1 538 539 540
181 1 541 542 543
182 1 544 545 546
183 1 547 548 549
184 1 550 551 552
185 1 553 554 555
186 1 556 557 558
187 1 559 560 561
188 1 562 563 564
189 1 565 566 567
190 1 568 569 570
191 1 571 572 573
192 1 574 575 576
193 1 577 578 579
194 1 580 581 582
195 1 583 584 585
196 1 586 587 588
197 1 589 590 591
198 1 592 593 594
199 1 595 596 597
200 1 598 599 600
201 1 601 602 603
202 1 604 605 606
203 1 607 608 609
204 1 610 611 612
205 1 613 614 615
206 1 616 617 618
207 1 619 620 621
208 1 622 623 624
209 1 625 626 627
210 1 628 629 630
211 1 631 632 633
212 1 634 635 636
213 1 637 638 639
214 1 640 641 642
215 1 643 644 645
216 1 646 647 648
217 1 649 650 651
218 1 652 653 654
219 1 655 656 657
220 1 658 659 660
221 1 661 662 663
222 1 664 665 666
223 1 667 668 669
224 1 670 671 672
225 1 673 674 675
226 1 676 677 678
227 1 679 680 681
228 1 682 683 684
229 1 685 686 687
230 1 688 689 690
231 1 691 692 693
232 1 694 695 696
233 1 697 698 699
234 1 700 701 702
235 1 703 704 705
236 1 706 707 708
237 1 709 710 711
238 1 712 713 714
239 1 715 716 717
240 1 718 719 720
241 1 721 722 723
242 1 724 725 726
243 1 727 728 729
244 1 730 731 732
245 1 733 734 735
246 1 736 737 738
247 1 739 740 741
248 1 742 743 744
249 1 745 746 747
250 1 748 749 750
251 1 751 752 753
252 1 754 755 756
253 1 757 758 759
254 1 760 761 762
255 1 763 764 765
256 1 766 767 768
257 1 769 770 771
258 1 772 773 774
259 1 775 776 777
260 1 778 779 780
261 1 781 782 783
262 1 784 785 786
263 1 787 788 789
264 1 790 791 792
265 1 793 794 795
266 1 796 797 798
267 1 799 800 801
268 1 802 803 804
269 1 805 806 807
270 1 808 809 810
271 1 811 812 813
272 1 814 815 816
273 1 817 818 819
274 1 820 821 822
275 1 823 824 825
276 1 826 827 828
277 1 829 830 831
278 1 832 833 834
279 1 835 836 837
280 1 838 839 840
281 1 841 842 843
282 1 844 845 846
283 1 847 848 849
284 1 850 851 852
285 1 853 854 855
286 1 856 857 858
287 1 859 860 861
288 1 862 863 864
289 1 865 866 867
290 1 868 869 870
291 1 871 872 873
292 1 874 875 876
293 1 877 878 879
294 1 880 881 882
295 1 883 884 885
296 1 886 887 888
297 1 889 890 891
298 1 892 893 894
299 1 895 896 897
300 1 898 899 900
301 1 901 902 903
302 1 904 905 906
303 1 907 908 909
304 1 910 911 912
305 1 913 914 915
306 1 916 917 918
307 1 919 920 921
308 1 922 923 924
309 1 925 926 927
310 1 928 929 930
311 1 931 932 933
312 1 934 935 936
313 1 937 938 939
314 1 940 941 942
315 1 943 944 945
316 1 946 947 948
317 1 949 950 951
318 1 952 953 954
319 1 955 956 957
320 1 958 959 960
321 1 961 962 963
322 1 964 965 966
323 1 967 968 969
324 1 970 971 972
325 1 973 974 975
326 1 976 977 978
327 1 979 980 981
328 1 982 983 984
329 1 985 986 987
330 1 988 989 990
331 1 991 992 993
332 1 994 995 996
333 1 997 998 999
334 1 1000 1001 1002
335 1 1003 1004 1005
336 1 1006 1007 1008
337 1 1009 1010 1011
338 1 1012 1013 1014
339 1 1015 1016 1017
340 1 1018 1019 1020
341 1 1021 1022 1023
342 1 1024 1025 1026
343 1 1027 1028 1029
344 1 1030 1031 1032
345 1 1033 1034 1035
346 1 1036 1037 1038
347 1 1039 1040 1041
348 1 1042 1043 1044
349 1 1045 1046 1047
350 1 1048 1049 1050
351 1 1051 1052 1053
352 1 1054 1055 1056
353 1 1057 1058 1059
354 1 1060 1061 1062
355 1 1063 1064 1065
356 1 1066 1067 1068
357 1 1069 1070 1071
358 1 1072 1073 1074
359 1 1075 1076 1077
360 1 1078 1079 1080
361 1 1081 1082 1083
362 1 1084 1085 1086
363 1 1087 1088 1089
364 1 1090 1091 1092
365 1 1093 1094 1095
366 1 1096 1097 1098
367 1 1099 1100 1101
368 1 1102 1103 1104
369 1 1105 1106 1107
370 1 1108 1109 1110
371 1 1111 1112 1113
372 1 1114 1115 1116
373 1 1117 1118 1119
374 1 1120 1121 1122
375 1 1123 1124 1125
376 1 1126 1127 1128
377 1 1129 1130 1131
378 1 1132 1133 1134
379 1 1135 1136 1137
380 1 1138 1139 1140
381 1 1141 1142 1143
382 1 1144 1145 1146
383 1 1147 1148 1149
384 1 1150 1151 1152
385 1 1153 1154 1155
386 1 1156 1157 1158
387 1 1159 1160 1161
388 1 1162 1163 1164
389 1 1165 1166 1167
390 1 1168 1169 1170
391 1 1171 1172 1173
392 1 1174 1175 1176
393 1 1177 1178 1179
394 1 1180 1181 1182
395 1 1183 1184 1185
396 1 1186 1187 1188
397 1 1189 1190 1191
398 1 1192 1193 1194
399 1 1195 1196 1197
400 1 1198 1199 1200
401 1 1201 1202 1203
402 1 1204 1205 1206
403 1 1207 1208 1209
404 1 1210 1211 1212
405 1 1213 1214 1215
406 1 1216 1217 1218
407 1 1219 1220 1221
408 1 1222 1223 1224
409 1 1225 1226 1227
410 1 1228 1229 1230
411 1 1231 1232 1233
412 1 1234 1235 1236
413 1 1237 1238 1239
414 1 1240 1241 1242
415 1 1243 1244 1245
416 1 1246 1247 1248
417 1 1249 1250 1251
418 1 1252 1253 1254
419 1 1255 1256 1257
420 1 1258 1259 1260
421 1 1261 1262 1263
422 1 1264 1265 1266
423 1 1267 1268 1269
424 1 1270 1271 1272
425 1 1273 1274 1275
426 1 1276 1277 1278
427 1 1279 1280 1281
428 1 1282 1283 1284
429 1 1285 1286 1287
430 1 1288 1289 1290
431 1 1291 1292 1293
432 1 1294 1295 1296
433 1 1297 1298 1299
434 1 1300 1301 1302
435 1 1303 1304 1305
436 1 1306 1307 1308
437 1 1309 1310 1311
438 1 1312 1313 1314
439 1 1315 1316 1317
440 1 1318 1319 1320
441 1 1321 1322 1323
442 1 1324 1325 1326
443 1 1327 1328 1329
444 1 1330 1331 1332
445 1 1333 1334 1335
446 1 1336 1337 1338
447 1 1339 1340 1341
448 1 1342 1343 1344
449 1 1345 1346 1347
450 1 1348 1349 1350
451 1 1351 1352 1353
452 1 1354 1355 1356
453 1 1357 1358 1359
454 1 1360 1361 1362
455 1 1363 1364 1365
456 1 1366 1367 1368
457 1 1369 1370 1371
458 1 1372 1373 1374
459 1 1375 1376 1377
460 1 1378 1379 1380
461 1 1381 1382 1383
462 1 1384 1385 1386
463 1 1387 1388 1389
464 1 1390 1391 1392
465 1 1393 1394 1395
466 1 1396 1397 1398
467 1 1399 1400 1401
468 1 1402 1403 1404
469 1 1405 1406 1407
470 1 1408 1409 1410
471 1 1411 1412 1413
472 1 1414 1415 1416
473 1 1417 1418 1419
474 1 1420 1421 1422
475 1 1423 1424 1425
476 1 1426 1427 1428
477 1 1429 1430 1431
478 1 1432 1433 1434
479 1 1435 1436 1437
480 1 1438 1439 1440
481 1 1441 1442 1443
482 1 1444 1445 1446
483 1 1447 1448 1449
484 1 1450 1451 1452
485 1 1453 1454 1455
486 1 1456 1457 1458
487 1 1459 1460 1461
488 1 1462 1463 1464
489 1 1465 1466 1467
490 1 1468 1469 1470
491 1 1471 1472 1473
492 1 1474 1475 1476
493 1 1477 1478 1479
494 1 1480 1481 1482
495 1 1483 1484 1485
496 1 1486 1487 1488
497 1 1489 1490 1491
498 1 1492 1493 1494
499 1 1495 1496 1497
500 1 1498 1499 1500
501 1 1501 1502 1503
502 1 1504 1505 1506
503 1 1507 1508 1509
504 1 1510 1511 1512
505 1 1513 1514 1515
506 1 1516 1517 1518
507 1 1519 1520 1521
508 1 1522 1523 1524
509 1 1525 1526 1527
510 1 1528 1529 1530
511 1 1531 1532 1533
512 1 1534 1535 1536
513 1 1537 1538 1539
514 1 1540 1541 1542
515 1 1543 1544 1545
516 1 1546 1547 1548
517 1 1549 1550 1551
518 1 1552 1553 1554
519 1 1555 1556 1557
520 1 1558 1559 1560
521 1 1561 1562 1563
522 1 1564 1565 1566
523 1 1567 1568 1569
524 1 1570 1571 1572
525 1 1573 1574 1575
526 1 1576 1577 1578
527 1 1579 1580 1581
528 1 1582 1583 1584
529 1 1585 1586 1587
530 1 1588 1589 1590
531 1 1591 1592 1593
532 1 1594 1595 1596
533 1 1597 1598 1599
534 1 1600 1601 1602
535 1 1603 1604 1605
536 1 1606 1607 1608
537 1 1609 1610 1611
538 1 1612 1613 1614
539 1 1615 1616 1617
540 1 1618 1619 1620
541 1 1621 1622 1623
542 1 1624 1625 1626
543 1 1627 1628 1629
544 1 1630 1631 1632
545 1 1633 1634 1635
546 1 1636 1637 1638
547 1 1639 1640 1641
548 1 1642 1643 1644
549 1 1645 1646 1647
550 1 1648 1649 1650
551 1 1651 1652 1653
552 1 1654 1655 1656
553 1 1657 1658 1659
554 1 1660 1661 1662
555 1 1663 1664 1665
556 1 1666 1667 1668
557 1 1669 1670 1671
558 1 1672 1673 1674
559 1 1675 1676 1677
560 1 1678 1679 1680
561 1 1681 1682 1683
562 1 1684 1685 1686
563 1 1687 1688 1689
564 1 1690 1691 1692
565 1 1693 1694 1695
566 1 1696 1697 1698
567 1 1699 1700 1701
568 1 1702 1703 1704
569 1 1705 1706 1707
570 1 1708 1709 1710
571 1 1711 1712 1713
572 1 1714 1715 1716
573 1 1717 1718 1719
574 1 1720 1721 1722
575 1 1723 1724 1725
576 1 1726 1727 1728
577 1 1729 1730 1731
578 1 1732 1733 1734
579 1 1735 1736 1737
580 1 1738 1739 1740
581 1 1741 1742 1743
582 1 1744 1745 1746
583 1 1747 1748 1749
584 1 1750 1751 1752
585 1 1753 1754 1755
586 1 1756 1757 1758
587 1 1759 1760 1761
588 1 1762 1763 1764
589 1 1765 1766 1767
590 1 1768 1769 1770
591 1 1771 1772 1773
592 1 1774 1775 1776
593 1 1777 1778 1779
594 1 1780 1781 1782
595 1 1783 1784 1785
596 1 1786 1787 1788
597 1 1789 1790 1791
598 1 1792 1793 1794
599 1 1795 1796 1797
600 1 1798 1799 1800
601 1 1801 1802 1803
602 1 1804 1805 1806
603 1 1807 1808 1809
604 1 1810 1811 1812
605 1 1813 1814 1815
606 1 1816 1817 1818
607 1 1819 1820 1821
608 1 1822 1823 1824
609 1 1825 1826 1827
610 1 1828 1829 1830
611 1 1831 1832 1833
612 1 1834 1835 1836
613 1 1837 1838 1839
614 1 1840 1841 1842
615 1 1843 1844 1845
616 1 1846 1847 1848
617 1 1849 1850 1851
618 1 1852 1853 1854
619 1 1855 1856 1857
620 1 1858 1859 1860
621 1 1861 1862 1863
622 1 1864 1865 1866
623 1 1867 1868 1869
624 1 1870 1871 1872
625 1 1873 1874 1875
626 1 1876 1877 1878
627 1 1879 1880 1881
628 1 1882 1883 1884
629 1 1885 1886 1887
630 1 1888 1889 1890
631 1 1891 1892 1893
632 1 1894 1895 1896
633 1 1897 1898 1899
634 1 1900 1901 1902
635 1 1903 1904 1905
636 1 1906 1907 1908
637 1 1909 1910 1911
638 1 1912 1913 1914
639 1 1915 1916 1917
640 1 1918 1919 1920
641 1 1921 1922 1923
642 1 1924 1925 1926
643 1 1927 1928 1929
644 1 1930 1931 1932
645 1 1933 1934 1935
646 1 1936 1937 1938
647 1 1939 1940 1941
648 1 1942 1943 1944
649 1 1945 1946 1947
650 1 1948 1949 1950
651 1 1951 1952 1953
652 1 1954 1955 1956
653 1 1957 1958 1959
654 1 1960 1961 1962
655 1 1963 1964 1965
656 1 1966 1967 1968
657 1 1969 1970 1971
658 1 1972 1973 1974
659 1 1975 1976 1977
660 1 1978 1979 1980
661 1 1981 1982 1983
662 1 1984 1985 1986
663 1 1987 1988 1989
664 1 1990 1991 1992
665 1 1993 1994 1995
666 1 1996 1997 1998
667 1 1999 2000 2001
668 1 2002 2003 2004
669 1 2005 2006 2007
670 1 2008 2009 2010
671 1 2011 2012 2013
672 1 2014 2015 2016
673 1 2017 2018 2019
674 1 2020 2021 2022
675 1 2023 2024 2025
676 1 2026 2027 2028
677 1 2029 2030 2031
678 1 2032 2033 2034
679 1 2035 2036 2037
680 1 2038 2039 2040
681 1 2041 2042 2043
682 1 2044 2045 2046
683 1 2047 2048 2049
684 1 2050 2051 2052
685 1 2053 2054 2055
686 1 2056 2057 2058
687 1 2059 2060 2061
688 1 2062 2063 2064
689 1 2065 2066 2067
690 1 2068 2069 2070
691 1 2071 2072 2073
692 1 2074 2075 2076
693 1 2077 2078 2079
694 1 2080 2081 2082
695 1 2083 2084 2085
696 1 2086 2087 2088
697 1 2089 2090 2091
698 1 2092 2093 2094
699 1 2095 2096 2097
700 1 2098 2099 2100
701 1 2101 2102 2103
702 1 2104 2105 2106
703 1 2107 2108 2109
704 1 2110 2111 2112
705 1 2113 2114 2115
706 1 2116 2117 2118
707 1 2119 2120 2121
708 1 2122 2123 2124
709 1 2125 2126 2127
710 1 2128 2129 2130
711 1 2131 2132 2133
712 1 2134 2135 2136
713 1 2137 2138 2139
714 1 2140 2141 2142
715 1 2143 2144 2145
716 1 2146 2147 2148
717 1 2149 2150 2151
718 1 2152 2153 2154
719 1 2155 2156 2157
720 1 2158 2159 2160
721 1 2161 2162 2163
722 1 2164 2165 2166
723 1 2167 2168 2169
724 1 2170 2171 2172
725 1 2173 2174 2175
726 1 2176 2177 2178
727 1 2179 2180 2181
728 1 2182 2183 2184
729 1 2185 2186 2187
730 1 2188 2189 2190
731 1 2191 2192 2193
732 1 2194 2195 2196
733 1 2197 2198 2199
734 1 2200 2201 2202
735 1 2203 2204 2205
736 1 2206 2207 2208
737 1 2209 2210 2211
738 1 2212 2213 2214
739 1 2215 2216 2217
740 1 2218 2219 2220
741 1 2221 2222 2223
742 1 2224 2225 2226
743 1 2227 2228 2229
744 1 2230 2231 2232
745 1 2233 2234 2235
746 1 2236 2237 2238
747 1 2239 2240 2241
748 1 2242 2243 2244
749 1 2245 2246 2247
750 1 2248 2249 2250
751 1 2251 2252 2253
752 1 2254 2255 2256
753 1 2257 2258 2259
754 1 2260 2261 2262
755 1 2263 2264 2265
756 1 2266 2267 2268
757 1 2269 2270 2271
758 1 2272 2273 2274
759 1 2275 2276 2277
760 1 2278 2279 2280
761 1 2281 2282 2283
762 1 2284 2285 2286
763 1 2287 2288 2289
764 1 2290 2291 2292
765 1 2293 2294 2295
766 1 2296 2297 2298
767 1 2299 2300 2301
768 1 2302 2303 2304
769 1 2305 2306 2307
770 1 2308 2309 2310
771 1 2311 2312 2313
772 1 2314 2315 2316
773 1 2317 2318 2319
774 1 2320 2321 2322
775 1 2323 2324 2325
776 1 2326 2327 2328
777 1 2329 2330 2331
778 1 2332 2333 2334
779 1 2335 2336 2337
780 1 2338 2339 2340
781 1 2341 2342 2343
782 1 2344 2345 2346
783 1 2347 2348 2349
784 1 2350 2351 2352
785 1 2353 2354 2355
786 1 2356 2357 2358
787 1 2359 2360 2361
788 1 2362 2363 2364
789 1 2365 2366 2367
790 1 2368 2369 2370
791 1 2371 2372 2373
792 1 2374 2375 2376
793 1 2377 2378 2379
794 1 2380 2381 2382
795 1 2383 2384 2385
796 1 2386 2387 2388
797 1 2389 2390 2391
798 1 2392 2393 2394
799 1 2395 2396 2397
800 1 2398 2399 2400
801 1 2401 2402 2403
802 1 2404 2405 2406
803 1 2407 2408 2409
804 1 2410 2411 2412
805 1 2413 2414 2415
806 1 2416 2417 2418
807 1 2419 2420 2421
808 1 2422 2423 2424
809 1 2425 2426 2427
810 1 2428 2429 2430
811 1 2431 2432 2433
812 1 2434 2435 2436
813 1 2437 2438 2439
814 1 2440 2441 2442
815 1 2443 2444 2445
816 1 2446 2447 2448
817 1 2449 2450 2451
818 1 2452 2453 2454
819 1 2455 2456 2457
820 1 2458 2459 2460
821 1 2461 2462 2463
822 1 2464 2465 2466
823 1 2467 2468 2469
824 1 2470 2471 2472
825 1 2473 2474 2475
826 1 2476 2477 2478
827 1 2479 2480 2481
828 1 2482 2483 2484
829 1 2485 2486 2487
830 1 2488 2489 2490
831 1 2491 2492 2493
832 1 2494 2495 2496
833 1 2497 2498 2499
834 1 2500 2501 2502
835 1 2503 2504 2505
836 1 2506 2507 2508
837 1 2509 2510 2511
838 1 2512 2513 2514
839 1 2515 2516 2517
840 1 2518 2519 2520
841 1 2521 2522 2523
842 1 2524 2525 2526
843 1 2527 2528 2529
844 1 2530 2531 2532
845 1 2533 2534 2535
846 1 2536 2537 2538
847 1 2539 2540 2541
848 1 2542 2543 2544
849 1 2545 2546 2547
850 1 2548 2549 2550
851 1 2551 2552 2553
852 1 2554 2555 2556
853 1 2557 2558 2559
854 1 2560 2561 2562
855 1 2563 2564 2565
856 1 2566 2567 2568
857 1 2569 2570 2571
858 1 2572 2573 2574
859 1 2575 2576 2577
860 1 2578 2579 2580
861 1 2581 2582 2583
862 1 2584 2585 2586
863 1 2587 2588 2589
864 1 2590 2591 2592
865 1 2593 2594 2595
866 1 2596 2597 2598
867 1 2599 2600 2601
868 1 2602 2603 2604
869 1 2605 2606 2607
870 1 2608 2609 2610
871 1 2611 2612 2613
872 1 2614 2615 2616
873 1 2617 2618 2619
874 1 2620 2621 2622
875 1 2623 2624 2625
876 1 2626 2627 2628
877 1 2629 2630 2631
878 1 2632 2633 2634
879 1 2635 2636 2637
880 1 2638 2639 2640
881 1 2641 2642 2643
882 1 2644 2645 2646
883 1 2647 2648 2649
884 1 2650 2651 2652
885 1 2653 2654 2655
886 1 2656 2657 2658
887 1 2659 2660 2661
888 1 2662 2663 2664
889 1 2665 2666 2667
890 1 2668 2669 2670
891 1 2671 2672 2673
892 1 2674 2675 2676
893 1 2677 2678 2679
894 1 2680 2681 2682
895 1 2683 2684 2685
896 1 2686 2687 2688
897 1 2689 2690 2691
898 1 2692 2693 2694
899 1 2695 2696 2697
900 1 2698 2699 2700
901 1 2701 2702 2703
902 1 2704 2705 2706
903 1 2707 2708 2709
904 1 2710 2711 2712
905 1 2713 2714 2715
906 1 2716 2717 2718
907 1 2719 2720 2721
908 1 2722 2723 2724
909 1 2725 2726 2727
910 1 2728 2729 2730
911 1 2731 2732 2733
912 1 2734 2735 2736
913 1 2737 2738 2739
914 1 2740 2741 2742
915 1 2743 2744 2745
916 1 2746 2747 2748
917 1 2749 2750 2751
918 1 2752 2753 2754
919 1 2755 2756 2757
920 1 2758 2759 2760
921 1 2761 2762 2763
922 1 2764 2765 2766
923 1 2767 2768 2769
924 1 2770 2771 2772
925 1 2773 2774 2775
926 1 2776 2777 2778
927 1 2779 2780 2781
928 1 2782 2783 2784
929 1 2785 2786 2787
930 1 2788 2789 2790
931 1 2791 2792 2793
932 1 2794 2795 2796
933 1 2797 2798 2799
934 1 2800 2801 2802
935 1 2803 2804 2805
936 1 2806 2807 2808
937 1 2809 2810 2811
938 1 2812 2813 2814
939 1 2815 2816 2817
940 1 2818 2819 2820
941 1 2821 2822 2823
942 1 2824 2825 2826
943 1 2827 2828 2829
944 1 2830 2831 2832
945 1 2833 2834 2835
946 1 2836 2837 2838
947 1 2839 2840 2841
948 1 2842 2843 2844
949 1 2845 2846 2847
950 1 2848 2849 2850
951 1 2851 2852 2853
952 1 2854 2855 2856
953 1 2857 2858 2859
954 1 2860 2861 2862
955 1 2863 2864 2865
956 1 2866 2867 2868
957 1 2869 2870 2871
958 1 2872 2873 2874
959 1 2875 2876 2877
960 1 2878 2879 2880
961 1 2881 2882 2883
962 1 2884 2885 2886
963 1 2887 2888 2889
964 1 2890 2891 2892
965 1 2893 2894 2895
966 1 2896 2897 2898
967 1 2899 2900 2901
968 1 2902 2903 2904
969 1 2905 2906 2907
970 1 2908 2909 2910
971 1 2911 2912 2913
972 1 2914 2915 2916
973 1 2917 2918 2919
974 1 2920 2921 2922
975 1 2923 2924 2925
976 1 2926 2927 2928
977 1 2929 2930 2931
978 1 2932 2933 2934
979 1 2935 2936 2937
980 1 2938 2939 2940
981 1 2941 2942 2943
982 1 2944 2945 2946
983 1 2947 2948 2949
984 1 2950 2951 2952
985 1 2953 2954 2955
986 1 2956 2957 2958
987 1 2959 2960 2961
988 1 2962 2963 2964
989 1 2965 2966 2967
990 1 2968 2969 2970
991 1 2971 2972 2973
992 1 2974 2975 2976
993 1 2977 2978 2979
994 1 2980 2981 2982
995 1 2983 2984 2985
996 1 2986 2987 2988
997 1 2989 2990 2991
998 1 2992 2993 2994
999 1 2995 2996 2997
1000 1 2998 2999 3000
1001 1 3001 3002 3003
1002 1 3004 3005 3006
1003 1 3007 3008 3009
1004 1 3010 3011 3012
1005 1 3013 3014 3015
1006 1 3016 3017 3018
1007 1 3019 3020 3021
1008 1 3022 3023 3024
1009 1 3025 3026 3027
1010 1 3028 3029 3030
1011 1 3031 3032 3033
1012 1 3034 3035 3036
1013 1 3037 3038 3039
1014 1 3040 3041 3042
1015 1 3043 3044 3045
1016 1 3046 3047 3048
1017 1 3049 3050 3051
1018 1 3052 3053 3054
1019 1 3055 3056 3057
1020 1 3058 3059 3060
1021 1 3061 3062 3063
1022 1 3064 3065 3066
1023 1 3067 3068 3069
1024 1 3070 3071 3072
1025 1 3073 3074 3075
1026 1 3076 3077 3078
1027 1 3079 3080 3081
1028 1 3082 3083 3084
1029 1 3085 3086 3087
1030 1 3088 3089 3090
1031 1 3091 3092 3093
1032 1 3094 3095 3096
1033 1 3097 3098 3099
1034 1 3100 3101 3102
1035 1 3103 3104 3105
1036 1 3106 3107 3108
1037 1 3109 3110 3111
1038 1 3112 3113 3114
1039 1 3115 3116 3117
1040 1 3118 3119 3120
1041 1 3121 3122 3123
1042 1 3124 3125 3126
1043 1 3127 3128 3129
1044 1 3130 3131 3132
1045 1 3133 3134 3135
1046 1 3136 3137 3138
1047 1 3139 3140 3141
1048 1 3142 3143 3144
1049 1 3145 3146 3147
1050 1 3148 3149 3150
1051 1 3151 3152 3153
1052 1 3154 3155 3156
1053 1 3157 3158 3159
1054 1 3160 3161 3162
1055 1 3163 3164 3165
1056 1 3166 3167 3168
1057 1 3169 3170 3171
1058 1 3172 3173 3174
1059 1 3175 3176 3177
1060 1 3178 3179 3180
1061 1 3181 3182 3183
1062 1 3184 3185 3186
1063 1 3187 3188 3189
1064 1 3190 3191 3192
1065 1 3193 3194 3195
1066 1 3196 3197 3198
1067 1 3199 3200 3201
1068 1 3202 3203 3204
1069 1 3205 3206 3207
1070 1 3208 3209 3210
1071 1 3211 3212 3213
1072 1 3214 3215 3216
1073 1 3217 3218 3219
1074 1 3220 3221 3222
1075 1 3223 3224 3225
1076 1 3226 3227 3228
1077 1 3229 3230 3231
1078 1 3232 3233 3234
1079 1 3235 3236 3237
1080 1 3238 3239 3240
1081 1 3241 3242 3243
1082 1 3244 3245 3246
1083 1 3247 3248 3249
1084 1 3250 3251 3252
1085 1 3253 3254 3255
1086 1 3256 3257 3258
1087 1 3259 3260 3261
1088 1 3262 3263 3264
1089 1 3265 3266 3267
1090 1 3268 3269 3270
1091 1 3271 3272 3273
1092 1 3274 3275 3276
1093 1 3277 3278 3279
1094 1 3280 3281 3282
1095 1 3283 3284 3285
1096 1 3286 3287 3288
1097 1 3289 3290 3291
1098 1 3292 3293 3294
1099 1 3295 3296 3297
1100 1 3298 3299 3300
1101 1 3301 3302 3303
1102 1 3304 3305 3306
1103 1 3307 3308 3309
1104 1 3310 3311 3312
1105 1 3313 3314 3315
1106 1 3316 3317 3318
1107 1 3319 3320 3321
1108 1 3322 3323 3324
1109 1 3325 3326 3327
1110 1 3328 3329 3330
1111 1 3331 3332 3333
1112 1 3334 3335 3336
1113 1 3337 3338 3339
1114 1 3340 3341 3342
1115 1 3343 3344 3345
1116 1 3346 3347 3348
1117 1 3349 3350 3351
1118 1 3352 3353 3354
1119 1 3355 3356 3357
1120 1 3358 3359 3360
1121 1 3361 3362 3363
1122 1 3364 3365 3366
1123 1 3367 3368 3369
1124 1 3370 3371 3372
1125 1 3373 3374 3375
1126 1 3376 3377 3378
1127 1 3379 3380 3381
1128 1 3382 3383 3384
1129 1 3385 3386 3387
1130 1 3388 3389 3390
1131 1 3391 3392 3393
1132 1 3394 3395 3396
1133 1 3397 3398 3399
1134 1 3400 3401 3402
1135 1 3403 3404 3405
1136 1 3406 3407 3408
1137 1 3409 3410 3411
1138 1 3412 3413 3414
1139 1 3415 3416 3417
1140 1 3418 3419 3420
1141 1 3421 3422 3423
1142 1 3424 3425 3426
1143 1 3427 3428 3429
1144 1 3430 3431 3432
1145 1 3433 3434 3435
1146 1 3436 3437 3438
1147 1 3439 3440 3441
1148 1 3442 3443 3444
1149 1 3445 3446 3447
1150 1 3448 3449 3450
1151 1 3451 3452 3453
1152 1 3454 3455 3456
1153 1 3457 3458 3459
1154 1 3460 3461 3462
1155 1 3463 3464 3465
1156 1 3466 3467 3468
1157 1 3469 3470 3471
1158 1 3472 3473 3474
1159 1 3475 3476 3477
1160 1 3478 3479 3480
1161 1 3481 3482 3483
1162 1 3484 3485 3486
1163 1 3487 3488 3489
1164 1 3490 3491 3492
1165 1 3493 3494 3495
1166 1 3496 3497 3498
1167 1 3499 3500 3501
1168 1 3502 3503 3504
1169 1 3505 3506 3507
1170 1 3508 3509 3510
1171 1 3511 3512 3513
1172 1 3514 3515 3516
1173 1 3517 3518 3519
1174 1 3520 3521 3522
1175 1 3523 3524 3525
1176 1 3526 3527 3528
1177 1 3529 3530 3531
1178 1 3532 3533 3534
1179 1 3535 3536 3537
1180 1 3538 3539 3540
1181 1 3541 3542 3543
1182 1 3544 3545 3546
1183 1 3547 3548 3549
1184 1 3550 3551 3552
1185 1 3553 3554 3555
1186 1 3556 3557 3558
1187 1 3559 3560 3561
1188 1 3562 3563 3564
1189 1 3565 3566 3567
1190 1 3568 3569 3570
1191 1 3571 3572 3573
1192 1 3574 3575 3576
1193 1 3577 3578 3579
1194 1 3580 3581 3582
1195 1 3583 3584 3585
1196 1 3586 3587 3588
1197 1 3589 3590 3591
1198 1 3592 3593 3594
1199 1 3595 3596 3597
1200 1 3598 3599 3600
1201 1 3601 3602 3603
1202 1 3604 3605 3606
1203 1 3607 3608 3609
1204 1 3610 3611 3612
1205 1 3613 3614 3615
1206 1 3616 3617 3618
1207 1 3619 3620 3621
1208 1 3622 3623 3624
1209 1 3625 3626 3627
1210 1 3628 3629 3630
1211 1 3631 3632 3633
1212 1 3634 3635 3636
1213 1 3637 3638 3639
1214 1 3640 3641 3642
1215 1 3643 3644 3645
1216 1 3646 3647 3648
1217 1 3649 3650 3651
1218 1 3652 3653 3654
1219 1 3655 3656 3657
1220 1 3658 3659 3660
1221 1 3661 3662 3663
1222 1 3664 3665 3666
1223 1 3667 3668 3669
1224 1 3670 3671 3672
1225 1 3673 3674 3675
1226 1 3676 3677 3678
1227 1 3679 3680 3681
1228 1 3682 3683 3684
1229 1 3685 3686 3687
1230 1 3688 3689 3690
1231 1 3691 3692 3693
1232 1 3694 3695 3696
1233 1 3697 3698 3699
1234 1 3700 3701 3702
1235 1 3703 3704 3705
1236 1 3706 3707 3708
1237 1 3709 3710 3711
1238 1 3712 3713 3714
1239 1 3715 3716 3717
1240 1 3718 3719 3720
1241 1 3721 3722 3723
1242 1 3724 3725 3726
1243 1 3727 3728 3729
1244 1 3730 3731 3732
1245 1 3733 3734 3735
1246 1 3736 3737 3738
1247 1 3739 3740 3741
1248 1 3742 3743 3744
1249 1 3745 3746 3747
1250 1 3748 3749 3750
1251 1 3751 3752 3753
1252 1 3754 3755 3756
1253 1 3757 3758 3759
1254 1 3760 3761 3762
1255 1 3763 3764 3765
1256 1 3766 3767 3768
1257 1 3769 3770 3771
1258 1 3772 3773 3774
1259 1 3775 3776 3777
1260 1 3778 3779 3780
1261 1 3781 3782 3783
1262 1 3784 3785 3786
1263 1 3787 3788 3789
1264 1 3790 3791 3792
1265 1 3793 3794 3795
1266 1 3796 3797 3798
1267 1 3799 3800 3801
1268 1 3802 3803 3804
1269 1 3805 3806 3807
1270 1 3808 3809 3810
1271 1 3811 3812 3813
1272 1 3814 3815 3816
1273 1 3817 3818 3819
1274 1 3820 3821 3822
1275 1 3823 3824 3825
1276 1 3826 3827 3828
1277 1 3829 3830 3831
1278 1 3832 3833 3834
1279 1 3835 3836 3837
1280 1 3838 3839 3840
1281 1 3841 3842 3843
1282 1 3844 3845 3846
1283 1 3847 3848 3849
1284 1 3850 3851 3852
1285 1 3853 3854 3855
1286 1 3856 3857 3858
1287 1 3859 3860 3861
1288 1 3862 3863 3864
1289 1 3865 3866 3867
1290 1 3868 3869 3870
1291 1 3871 3872 3873
1292 1 3874 3875 3876
1293 1 3877 3878 3879
1294 1 3880 3881 3882
1295 1 3883 3884 3885
1296 1 3886 3887 3888
1297 1 3889 3890 3891
1298 1 3892 3893 3894
1299 1 3895 3896 3897
1300 1 3898 3899 3900
1301 1 3901 3902 3903
1302 1 3904 3905 3906
1303 1 3907 3908 3909
1304 1 3910 3911 3912
1305 1 3913 3914 3915
1306 1 3916 3917 3918
1307 1 3919 3920 3921
1308 1 3922 3923 3924
1309 1 3925 3926 3927
1310 1 3928 3929 3930
1311 1 3931 3932 3933
1312 1 3934 3935 3936
1313 1 3937 3938 3939
1314 1 3940 3941 3942
1315 1 3943 3944 3945
1316 1 3946 3947 3948
1317 1 3949 3950 3951
1318 1 3952 3953 3954
1319 1 3955 3956 3957
1320 1 3958 3959 3960
1321 1 3961 3962 3963
1322 1 3964 3965 3966
1323 1 3967 3968 3969
1324 1 3970 3971 3972
1325 1 3973 3974 3975
1326 1 3976 3977 3978
1327 1 3979 3980 3981
1328 1 3982 3983 3984
1329 1 3985 3986 3987
1330 1 3988 3989 3990
1331 1 3991 3992 3993
1332 1 3994 3995 3996
1333 1 3997 3998 3999
1334 1 4000 4001 4002
1335 1 4003 4004 4005
1336 1 4006 4007 4008
1337 1 4009 4010 4011
1338 1 4012 4013 4014
1339 1 4015 4016 4017
1340 1 4018 4019 4020
1341 1 4021 4022 4023
1342 1 4024 4025 4026
1343 1 4027 4028 4029
1344 1 4030 4031 4032
1345 1 4033 4034 4035
1346 1 4036 4037 4038
1347 1 4039 4040 4041
1348 1 4042 4043 4044
1349 1 4045 4046 4047
1350 1 4048 4049 4050
1351 1 4051 4052 4053
1352 1 4054 4055 4056
1353 1 4057 4058 4059
1354 1 4060 4061 4062
1355 1 4063 4064 4065
1356 1 4066 4067 4068
1357 1 4069 4070 4071
1358 1 4072 4073 4074
1359 1 4075 4076 4077
1360 1 4078 4079 4080
1361 1 4081 4082 4083
1362 1 4084 4085 4086
1363 1 4087 4088 4089
1364 1 4090 4091 4092
1365 1 4093 4094 4095
1366 1 4096 4097 4098
1367 1 4099 4100 4101
1368 1 4102 4103 4104
1369 1 4105 4106 4107
1370 1 4108 4109 4110
1371 1 4111 4112 4113
1372 1 4114 4115 4116
1373 1 4117 4118 4119
1374 1 4120 4121 4122
1375 1 4123 4124 4125
1376 1 4126 4127 4128
1377 1 4129 4130 4131
1378 1 4132 4133 4134
1379 1 4135 4136 4137
1380 1 4138 4139 4140
1381 1 4141 4142 4143
1382 1 4144 4145 4146
1383 1 4147 4148 4149
1384 1 4150 4151 4152
1385 1 4153 4154 4155
1386 1 4156 4157 4158
1387 1 4159 4160 4161
1388 1 4162 4163 4164
1389 1 4165 4166 4167
1390 1 4168 4169 4170
1391 1 4171 4172 4173
1392 1 4174 4175 4176
1393 1 4177 4178 4179
1394 1 4180 4181 4182
1395 1 4183 4184 4185
1396 1 4186 4187 4188
1397 1 4189 4190 4191
1398 1 4192 4193 4194
1399 1 4195 4196 4197
1400 1 4198 4199 4200
1401 1 4201 4202 4203
1402 1 4204 4205 4206
1403 1 4207 4208 4209
1404 1 4210 4211 4212
1405 1 4213 4214 4215
1406 1 4216 4217 4218
1407 1 4219 4220 4221
1408 1 4222 4223 4224
1409 1 4225 4226 4227
1410 1 4228 4229 4230
1411 1 4231 4232 4233
1412 1 4234 4235 4236
1413 1 4237 4238 4239
1414 1 4240 4241 4242
1415 1 4243 4244 4245
1416 1 4246 4247 4248
1417 1 4249 4250 4251
1418 1 4252 4253 4254
1419 1 4255 4256 4257
1420 1 4258 4259 4260
1421 1 4261 4262 4263
1422 1 4264 4265 4266
1423 1 4267 4268 4269
1424 1 4270 4271 4272
1425 1 4273 4274 4275
1426 1 4276 4277 4278
1427 1 4279 4280 4281
1428 1 4282 4283 4284
1429 1 4285 4286 4287
1430 1 4288 4289 4290
1431 1 4291 4292 4293
1432 1 4294 4295 4296
1433 1 4297 4298 4299
1434 1 4300 4301 4302
1435 1 4303 4304 4305
1436 1 4306 4307 4308
1437 1 4309 4310 4311
1438 1 4312 4313 4314
1439 1 4315 4316 4317
1440 1 4318 4319 4320
1441 1 4321 4322 4323
1442 1 4324 4325 4326
1443 1 4327 4328 4329
1444 1 4330 4331 4332
1445 1 4333 4334 4335
1446 1 4336 4337 4338
1447 1 4339 4340 4341
1448 1 4342 4343 4344
1449 1 4345 4346 4347
1450 1 4348 4349 4350
1451 1 4351 4352 4353
1452 1 4354 4355 4356
1453 1 4357 4358 4359
1454 1 4360 4361 4362
1455 1 4363 4364 4365
1456 1 4366 4367 4368
1457 1 4369 4370 4371
1458 1 4372 4373 4374
1459 1 4375 4376 4377
1460 1 4378 4379 4380
1461 1 4381 4382 4383
1462 1 4384 4385 4386
1463 1 4387 4388 4389
1464 1 4390 4391 4392
1465 1 4393 4394 4395
1466 1 4396 4397 4398
1467 1 4399 4400 4401
1468 1 4402 4403 4404
1469 1 4405 4406 4407
1470 1 4408 4409 4410
1471 1 4411 4412 4413
1472 1 4414 4415 4416
1473 1 4417 4418 4419
1474 1 4420 4421 4422
1475 1 4423 4424 4425
1476 1 4426 4427 4428
1477 1 4429 4430 4431
1478 1 4432 4433 4434
1479 1 4435 4436 4437
1480 1 4438 4439 4440
1481 1 4441 4442 4443
1482 1 4444 4445 4446
1483 1 4447 4448 4449
1484 1 4450 4451 4452
1485 1 4453 4454 4455
1486 1 4456 4457 4458
1487 1 4459 4460 4461
1488 1 4462 4463 4464
1489 1 4465 4466 4467
1490 1 4468 4469 4470
1491 1 4471 4472 4473
1492 1 4474 4475 4476
1493 1 4477 4478 4479
1494 1 4480 4481 4482
1495 1 4483 4484 4485
1496 1 4486 4487 4488
1497 1 4489 4490 4491
1498 1 4492 4493 4494
1499 1 4495 4496 4497
1500 1 4498 4499 4500
1501 1 4501 4502 4503
1502 1 4504 4505 4506
1503 1 4507 4508 4509
1504 1 4510 4511 4512
1505 1 4513 4514 4515
1506 1 4516 4517 4518
1507 1 4519 4520 4521
1508 1 4522 4523 4524
1509 1 4525 4526 4527
1510 1 4528 4529 4530
1511 1 4531 4532 4533
1512 1 4534 4535 4536
1513 1 4537 4538 4539
1514 1 4540 4541 4542
1515 1 4543 4544 4545
1516 1 4546 4547 4548
1517 1 4549 4550 4551
1518 1 4552 4553 4554
1519 1 4555 4556 4557
1520 1 4558 4559 4560
1521 1 4561 4562 4563
1522 1 4564 4565 4566
1523 1 4567 4568 4569
1524 1 4570 4571 4572
1525 1 4573 4574 4575
1526 1 4576 4577 4578
1527 1 4579 4580 4581
1528 1 4582 4583 4584
1529 1 4585 4586 4587
1530 1 4588 4589 4590
1531 1 4591 4592 4593
1532 1 4594 4595 4596
1533 1 4597 4598 4599
1534 1 4600 4601 4602
1535 1 4603 4604 4605
1536 1 4606 4607 4608
1537 1 4609 4610 4611
1538 1 4612 4613 4614
1539 1 4615 4616 4617
1540 1 4618 4619 4620
1541 1 4621 4622 4623
1542 1 4624 4625 4626
1543 1 4627 4628 4629
1544 1 4630 4631 4632
1545 1 4633 4634 4635
1546 1 4636 4637 4638
1547 1 4639 4640 4641
1548 1 4642 4643 4644
1549 1 4645 4646 4647
1550 1 4648 4649 4650
1551 1 4651 4652 4653
1552 1 4654 4655 4656
1553 1 4657 4658 4659
1554 1 4660 4661 4662
1555 1 4663 4664 4665
1556 1 4666 4667 4668
1557 1 4669 4670 4671
1558 1 4672 4673 4674
1559 1 4675 4676 4677
1560 1 4678 4679 4680
1561 1 4681 4682 4683
1562 1 4684 4685 4686
1563 1 4687 4688 4689
1564 1 4690 4691 4692
1565 1 4693 4694 4695
1566 1 4696 4697 4698
1567 1 4699 4700 4701
1568 1 4702 4703 4704
1569 1 4705 4706 4707
1570 1 4708 4709 4710
1571 1 4711 4712 4713
1572 1 4714 4715 4716
1573 1 4717 4718 4719
1574 1 4720 4721 4722
1575 1 4723 4724 4725
1576 1 4726 4727 4728
1577 1 4729 4730 4731
1578 1 4732 4733 4734
1579 1 4735 4736 4737
1580 1 4738 4739 4740
1581 1 4741 4742 4743
1582 1 4744 4745 4746
1583 1 4747 4748 4749
1584 1 4750 4751 4752
1585 1 4753 4754 4755
1586 1 4756 4757 4758
1587 1 4759 4760 4761
1588 1 4762 4763 4764
1589 1 4765 4766 4767
1590 1 4768 4769 4770
1591 1 4771 4772 4773
1592 1 4774 4775 4776
1593 1 4777 4778 4779
1594 1 4780 4781 4782
1595 1 4783 4784 4785
1596 1 4786 4787 4788
1597 1 4789 4790 4791
1598 1 4792 4793 4794
1599 1 4795 4796 4797
1600 1 4798 4799 4800
1601 1 4801 4802 4803
1602 1 4804 4805 4806
1603 1 4807 4808 4809
1604 1 4810 4811 4812
1605 1 4813 4814 4815
1606 1 4816 4817 4818
1607 1 4819 4820 4821
1608 1 4822 4823 4824
1609 1 4825 4826 4827
1610 1 4828 4829 4830
1611 1 4831 4832 4833
1612 1 4834 4835 4836
1613 1 4837 4838 4839
1614 1 4840 4841 4842
1615 1 4843 4844 4845
1616 1 4846 4847 4848
1617 1 4849 4850 4851
1618 1 4852 4853 4854
1619 1 4855 4856 4857
1620 1 4858 4859 4860
1621 1 4861 4862 4863
1622 1 4864 4865 4866
1623 1 4867 4868 4869
1624 1 4870 4871 4872
1625 1 4873 4874 4875
1626 1 4876 4877 4878
1627 1 4879 4880 4881
1628 1 4882 4883 4884
1629 1 4885 4886 4887
1630 1 4888 4889 4890
1631 1 4891 4892 4893
1632 1 4894 4895 4896
1633 1 4897 4898 4899
1634 1 4900 4901 4902
1635 1 4903 4904 4905
1636 1 4906 4907 4908
1637 1 4909 4910 4911
1638 1 4912 4913 4914
1639 1 4915 4916 4917
1640 1 4918 4919 4920
1641 1 4921 4922 4923
1642 1 4924 4925 4926
1643 1 4927 4928 4929
1644 1 4930 4931 4932
1645 1 4933 4934 4935
1646 1 4936 4937 4938
1647 1 4939 4940 4941
1648 1 4942 4943 4944
1649 1 4945 4946 4947
1650 1 4948 4949 4950
1651 1 4951 4952 4953
1652 1 4954 4955 4956
1653 1 4957 4958 4959
1654 1 4960 4961 4962
1655 1 4963 4964 4965
1656 1 4966 4967 4968
1657 1 4969 4970 4971
1658 1 4972 4973 4974
1659 1 4975 4976 4977
1660 1 4978 4979 4980
1661 1 4981 4982 4983
1662 1 4984 4985 4986
1663 1 4987 4988 4989
1664 1 4990 4991 4992
1665 1 4993 4994 4995
1666 1 4996 4997 4998
1667 1 4999 5000 5001
1668 1 5002 5003 5004
1669 1 5005 5006 5007
1670 1 5008 5009 5010
1671 1 5011 5012 5013
1672 1 5014 5015 5016
1673 1 5017 5018 5019
1674 1 5020 5021 5022
1675 1 5023 5024 5025
1676 1 5026 5027 5028
1677 1 5029 5030 5031
1678 1 5032 5033 5034
1679 1 5035 5036 5037
1680 1 5038 5039 5040
1681 1 5041 5042 5043
1682 1 5044 5045 5046
1683 1 5047 5048 5049
1684 1 5050 5051 5052
1685 1 5053 5054 5055
1686 1 5056 5057 5058
1687 1 5059 5060 5061
1688 1 5062 5063 5064
1689 1 5065 5066 5067
1690 1 5068 5069 5070
1691 1 5071 5072 5073
1692 1 5074 5075 5076
1693 1 5077 5078 5079
1694 1 5080 5081 5082
1695 1 5083 5084 5085
1696 1 5086 5087 5088
1697 1 5089 5090 5091
1698 1 5092 5093 5094
1699 1 5095 5096 5097
1700 1 5098 5099 5100
1701 1 5101 5102 5103
1702 1 5104 5105 5106
1703 1 5107 5108 5109
1704 1 5110 5111 5112
1705 1 5113 5114 5115
1706 1 5116 5117 5118
1707 1 5119 5120 5121
1708 1 5122 5123 5124
1709 1 5125 5126 5127
1710 1 5128 5129 5130
1711 1 5131 5132 5133
1712 1 5134 5135 5136
1713 1 5137 5138 5139
1714 1 5140 5141 5142
1715 1 5143 5144 5145
1716 1 5146 5147 5148
1717 1 5149 5150 5151
1718 1 5152 5153 5154
1719 1 5155 5156 5157
1720 1 5158 5159 5160
1721 1 5161 5162 5163
1722 1 5164 5165 5166
1723 1 5167 5168 5169
1724 1 5170 5171 5172
1725 1 5173 5174 5175
1726 1 5176 5177 5178
1727 1 5179 5180 5181
1728 1 5182 5183 5184
1729 1 5185 5186 5187
1730 1 5188 5189 5190
1731 1 5191 5192 5193
1732 1 5194 5195 5196
1733 1 5197 5198 5199
1734 1 5200 5201 5202
1735 1 5203 5204 5205
1736 1 5206 5207 5208
1737 1 5209 5210 5211
1738 1 5212 5213 5214
1739 1 5215 5216 5217
1740 1 5218 5219 5220
1741 1 5221 5222 5223
1742 1 5224 5225 5226
1743 1 5227 5228 5229
1744 1 5230 5231 5232
1745 1 5233 5234 5235
1746 1 5236 5237 5238
1747 1 5239 5240 5241
1748 1 5242 5243 5244
1749 1 5245 5246 5247
1750 1 5248 5249 5250
1751 1 5251 5252 5253
1752 1 5254 5255 5256
1753 1 5257 5258 5259
1754 1 5260 5261 5262
1755 1 5263 5264 5265
1756 1 5266 5267 5268
1757 1 5269 5270 5271
1758 1 5272 5273 5274
1759 1 5275 5276 5277
1760 1 5278 5279 5280
1761 1 5281 5282 5283
1762 1 5284 5285 5286
1763 1 5287 5288 5289
1764 1 5290 5291 5292
1765 1 5293 5294 5295
1766 1 5296 5297 5298
1767 1 5299 5300 5301
1768 1 5302 5303 5304
1769 1 5305 5306 5307
1770 1 5308 5309 5310
1771 1 5311 5312 5313
1772 1 5314 5315 5316
1773 1 5317 5318 5319
1774 1 5320 5321 5322
1775 1 5323 5324 5325
1776 1 5326 5327 5328
1777 1 5329 5330 5331
1778 1 5332 5333 5334
1779 1 5335 5336 5337
1780 1 5338 5339 5340
1781 1 5341 5342 5343
1782 1 5344 5345 5346
1783 1 5347 5348 5349
1784 1 5350 5351 5352
1785 1 5353 5354 5355
1786 1 5356 5357 5358
1787 1 5359 5360 5361
1788 1 5362 5363 5364
1789 1 5365 5366 5367
1790 1 5368 5369 5370
1791 1 5371 5372 5373
1792 1 5374 5375 5376
1793 1 5377 5378 5379
1794 1 5380 5381 5382
1795 1 5383 5384 5385
1796 1 5386 5387 5388
1797 1 5389 5390 5391
1798 1 5392 5393 5394
1799 1 5395 5396 5397
1800 1 5398 5399 5400
1801 1 5401 5402 5403
1802 1 5404 5405 5406
1803 1 5407 5408 5409
1804 1 5410 5411 5412
1805 1 5413 5414 5415
1806 1 5416 5417 5418
1807 1 5419 5420 5421
1808 1 5422 5423 5424
1809 1 5425 5426 5427
1810 1 5428 5429 5430
1811 1 5431 5432 5433
1812 1 5434 5435 5436
1813 1 5437 5438 5439
1814 1 5440 5441 5442
1815 1 5443 5444 5445
1816 1 5446 5447 5448
1817 1 5449 5450 5451
1818 1 5452 5453 5454
1819 1 5455 5456 5457
1820 1 5458 5459 5460
1821 1 5461 5462 5463
1822 1 5464 5465 5466
1823 1 5467 5468 5469
1824 1 5470 5471 5472
1825 1 5473 5474 5475
1826 1 5476 5477 5478
1827 1 5479 5480 5481
1828 1 5482 5483 5484
1829 1 5485 5486 5487
1830 1 5488 5489 5490
1831 1 5491 5492 5493
1832 1 5494 5495 5496
1833 1 5497 5498 5499
1834 1 5500 5501 5502
1835 1 5503 5504 5505
1836 1 5506 5507 5508
1837 1 5509 5510 5511
1838 1 5512 5513 5514
1839 1 5515 5516 5517
1840 1 5518 5519 5520
1841 1 5521 5522 5523
1842 1 5524 5525 5526
1843 1 5527 5528 5529
1844 1 5530 5531 5532
1845 1 5533 5534 5535
1846 1 5536 5537 5538
1847 1 5539 5540 5541
1848 1 5542 5543 5544
1849 1 5545 5546 5547
1850 1 5548 5549 5550
1851 1 5551 5552 5553
1852 1 5554 5555 5556
1853 1 5557 5558 5559
1854 1 5560 5561 5562
1855 1 5563 5564 5565
1856 1 5566 5567 5568
1857 1 5569 5570 5571
1858 1 5572 5573 5574
1859 1 5575 5576 5577
1860 1 5578 5579 5580
1861 1 5581 5582 5583
1862 1 5584 5585 5586
1863 1 5587 5588 5589
1864 1 5590 5591 5592
1865 1 5593 5594 5595
1866 1 5596 5597 5598
1867 1 5599 5600 5601
1868 1 5602 5603 5604
1869 1 5605 5606 5607
1870 1 5608 5609 5610
1871 1 5611 5612 5613
1872 1 5614 5615 5616
1873 1 5617 5618 5619
1874 1 5620 5621 5622
1875 1 5623 5624 5625
1876 1 5626 5627 5628
1877 1 5629 5630 5631
1878 1 5632 5633 5634
1879 1 5635 5636 5637
1880 1 5638 5639 5640
1881 1 5641 5642 5643
1882 1 5644 5645 5646
1883 1 5647 5648 5649
1884 1 5650 5651 5652
1885 1 5653 5654 5655
1886 1 5656 5657 5658
1887 1 5659 5660 5661
1888 1 5662 5663 5664
1889 1 5665 5666 5667
1890 1 5668 5669 5670
1891 1 5671 5672 5673
1892 1 5674 5675 5676
1893 1 5677 5678 5679
1894 1 5680 5681 5682
1895 1 5683 5684 5685
1896 1 5686 5687 5688
1897 1 5689 5690 5691
1898 1 5692 5693 5694
1899 1 5695 5696 5697
1900 1 5698 5699 5700
1901 1 5701 5702 5703
1902 1 5704 5705 5706
1903 1 5707 5708 5709
1904 1 5710 5711 5712
1905 1 5713 5714 5715
1906 1 5716 5717 5718
1907 1 5719 5720 5721
1908 1 5722 5723 5724
1909 1 5725 5726 5727
1910 1 5728 5729 5730
1911 1 5731 5732 5733
1912 1 5734 5735 5736
1913 1 5737 5738 5739
1914 1 5740 5741 5742
1915 1 5743 5744 5745
1916 1 5746 5747 5748
1917 1 5749 5750 5751
1918 1 5752 5753 5754
1919 1 5755 5756 5757
1920 1 5758 5759 5760
1921 1 5761 5762 5763
1922 1 5764 5765 5766
1923 1 5767 5768 5769
1924 1 5770 5771 5772
1925 1 5773 5774 5775
1926 1 5776 5777 5778
1927 1 5779 5780 5781
1928 1 5782 5783 5784
1929 1 5785 5786 5787
1930 1 5788 5789 5790
1931 1 5791 5792 5793
1932 1 5794 5795 5796
1933 1 5797 5798 5799
1934 1 5800 5801 5802
1935 1 5803 5804 5805
1936 1 5806 5807 5808
1937 1 5809 5810 5811
1938 1 5812 5813 5814
1939 1 5815 5816 5817
1940 1 5818 5819 5820
1941 1 5821 5822 5823
1942 1 5824 5825 5826
1943 1 5827 5828 5829
1944 1 5830 5831 5832
1945 1 5833 5834 5835
1946 1 5836 5837 5838
1947 1 5839 5840 5841
1948 1 5842 5843 5844
1949 1 5845 5846 5847
1950 1 5848 5849 5850
1951 1 5851 5852 5853
1952 1 5854 5855 5856
1953 1 5857 5858 5859
1954 1 5860 5861 5862
1955 1 5863 5864 5865
1956 1 5866 5867 5868
1957 1 5869 5870 5871
1958 1 5872 5873 5874
1959 1 5875 5876 5877
1960 1 5878 5879 5880
1961 1 5881 5882 5883
1962 1 5884 5885 5886
1963 1 5887 5888 5889
1964 1 5890 5891 5892
1965 1 5893 5894 5895
1966 1 5896 5897 5898
1967 1 5899 5900 5901
1968 1 5902 5903 5904
1969 1 5905 5906 5907
1970 1 5908 5909 5910
1971 1 5911 5912 5913
1972 1 5914 5915 5916
1973 1 5917 5918 5919
1974 1 5920 5921 5922
1975 1 5923 5924 5925
1976 1 5926 5927 5928
1977 1 5929 5930 5931
1978 1 5932 5933 5934
1979 1 5935 5936 5937
1980 1 5938 5939 5940
1981 1 5941 5942 5943
1982 1 5944 5945 5946
1983 1 5947 5948 5949
1984 1 5950 5951 5952
1985 1 5953 5954 5955
1986 1 5956 5957 5958
1987 1 5959 5960 5961
1988 1 5962 5963 5964
1989 1 5965 5966 5967
1990 1 5968 5969 5970
1991 1 5971 5972 5973
1992 1 5974 5975 5976
1993 1 5977 5978 5979
1994 1 5980 5981 5982
1995 1 5983 5984 5985
1996 1 5986 5987 5988
1997 1 5989 5990 5991
1998 1 5992 5993 5994
1999 1 5995 5996 5997
2000 1 5998 5999 6000
2001 1 6001 6002 6003
2002 1 6004 6005 6006
2003 1 6007 6008 6009
2004 1 6010 6011 6012
2005 1 6013 6014 6015
2006 1 6016 6017 6018
2007 1 6019 6020 6021
2008 1 6022 6023 6024
2009 1 6025 6026 6027
2010 1 6028 6029 6030
2011 1 6031 6032 6033
2012 1 6034 6035 6036
2013 1 6037 6038 6039
2014 1 6040 6041 6042
2015 1 6043 6044 6045
2016 1 6046 6047 6048
2017 1 6049 6050 6051
2018 1 6052 6053 6054
2019 1 6055 6056 6057
2020 1 6058 6059 6060
2021 1 6061 6062 6063
2022 1 6064 6065 6066
2023 1 6067 6068 6069
2024 1 6070 6071 6072
2025 1 6073 6074 6075
2026 1 6076 6077 6078
2027 1 6079 6080 6081
2028 1 6082 6083 6084
2029 1 6085 6086 6087
2030 1 6088 6089 6090
2031 1 6091 6092 6093
2032 1 6094 6095 6096
2033 1 6097 6098 6099
2034 1 6100 6101 6102
2035 1 6103 6104 6105
2036 1 6106 6107 6108
2037 1 6109 6110 6111
2038 1 6112 6113 6114
2039 1 6115 6116 6117
2040 1 6118 6119 6120
2041 1 6121 6122 6123
2042 1 6124 6125 6126
2043 1 6127 6128 6129
2044 1 6130 6131 6132
2045 1 6133 6134 6135
2046 1 6136 6137 6138
2047 1 6139 6140 6141
2048 1 6142 6143 6144
2049 1 6145 6146 6147
2050 1 6148 6149 6150
2051 1 6151 6152 6153
2052 1 6154 6155 6156
2053 1 6157 6158 6159
2054 1 6160 6161 6162
2055 1 6163 6164 6165
2056 1 6166 6167 6168
2057 1 6169 6170 6171
2058 1 6172 6173 6174
2059 1 6175 6176 6177
2060 1 6178 6179 6180
2061 1 6181 6182 6183
2062 1 6184 6185 6186
2063 1 6187 6188 6189
2064 1 6190 6191 6192
2065 1 6193 6194 6195
2066 1 6196 6197 6198
2067 1 6199 6200 6201
2068 1 6202 6203 6204
2069 1 6205 6206 6207
2070 1 6208 6209 6210
2071 1 6211 6212 6213
2072 1 6214 6215 6216
2073 1 6217 6218 6219
2074 1 6220 6221 6222
2075 1 6223 6224 6225
2076 1 6226 6227 6228
2077 1 6229 6230 6231
2078 1 6232 6233 6234
2079 1 6235 6236 6237
2080 1 6238 6239 6240
2081 1 6241 6242 6243
2082 1 6244 6245 6246
2083 1 6247 6248 6249
2084 1 6250 6251 6252
2085 1 6253 6254 6255
2086 1 6256 6257 6258
2087 1 6259 6260 6261
2088 1 6262 6263 6264
2089 1 6265 6266 6267
2090 1 6268 6269 6270
2091 1 6271 6272 6273
2092 1 6274 6275 6276
2093 1 6277 6278 6279
2094 1 6280 6281 6282
2095 1 6283 6284 6285
2096 1 6286 6287 6288
2097 1 6289 6290 6291
2098 1 6292 6293 6294
2099 1 6295 6296 6297
2100 1 6298 6299 6300
2101 1 6301 6302 6303
2102 1 6304 6305 6306
2103 1 6307 6308 6309
2104 1 6310 6311 6312
2105 1 6313 6314 6315
2106 1 6316 6317 6318
2107 1 6319 6320 6321
2108 1 6322 6323 6324
2109 1 6325 6326 6327
2110 1 6328 6329 6330
2111 1 6331 6332 6333
2112 1 6334 6335 6336
2113 1 6337 6338 6339
2114 1 6340 6341 6342
2115 1 6343 6344 6345
2116 1 6346 6347 6348
2117 1 6349 6350 6351
2118 1 6352 6353 6354
2119 1 6355 6356 6357
2120 1 6358 6359 6360
2121 1 6361 6362 6363
2122 1 6364 6365 6366
2123 1 6367 6368 6369
2124 1 6370 6371 6372
2125 1 6373 6374 6375
2126 1 6376 6377 6378
2127 1 6379 6380 6381
2128 1 6382 6383 6384
2129 1 6385 6386 6387
2130 1 6388 6389 6390
2131 1 6391 6392 6393
2132 1 6394 6395 6396
2133 1 6397 6398 6399
2134 1 6400 6401 6402
2135 1 6403 6404 6405
2136 1 6406 6407 6408
2137 1 6409 6410 6411
2138 1 6412 6413 6414
2139 1 6415 6416 6417
2140 1 6418 6419 6420
2141 1 6421 6422 6423
2142 1 6424 6425 6426
2143 1 6427 6428 6429
2144 1 6430 6431 6432
2145 1 6433 6434 6435
2146 1 6436 6437 6438
2147 1 6439 6440 6441
2148 1 6442 6443 6444
2149 1 6445 6446 6447
2150 1 6448 6449 6450
2151 1 6451 6452 6453
2152 1 6454 6455 6456
2153 1 6457 6458 6459
2154 1 6460 6461 6462
2155 1 6463 6464 6465
2156 1 6466 6467 6468
2157 1 6469 6470 6471
2158 1 6472 6473 6474
2159 1 6475 6476 6477
2160 1 6478 6479 6480
2161 1 6481 6482 6483
2162 1 6484 6485 6486
2163 1 6487 6488 6489
2164 1 6490 6491 6492
2165 1 6493 6494 6495
2166 1 6496 6497 6498
2167 1 6499 6500 6501
2168 1 6502 6503 6504
2169 1 6505 6506 6507
2170 1 6508 6509 6510
2171 1 6511 6512 6513
2172 1 6514 6515 6516
2173 1 6517 6518 6519
2174 1 6520 6521 6522
2175 1 6523 6524 6525
2176 1 6526 6527 6528
2177 1 6529 6530 6531
2178 1 6532 6533 6534
2179 1 6535 6536 6537
2180 1 6538 6539 6540
2181 1 6541 6542 6543
2182 1 6544 6545 6546
2183 1 6547 6548 6549
2184 1 6550 6551 6552
2185 1 6553 6554 6555
2186 1 6556 6557 6558
2187 1 6559 6560 6561
2188 1 6562 6563 6564
2189 1 6565 6566 6567
2190 1 6568 6569 6570
2191 1 6571 6572 6573
2192 1 6574 6575 6576
2193 1 6577 6578 6579
2194 1 6580 6581 6582
2195 1 6583 6584 6585
2196 1 6586 6587 6588
2197 1 6589 6590 6591
2198 1 6592 6593 6594
2199 1 6595 6596 6597
2200 1 6598 6599 6600
2201 1 6601 6602 6603
2202 1 6604 6605 6606
2203 1 6607 6608 6609
2204 1 6610 6611 6612
2205 1 6613 6614 6615
2206 1 6616 6617 6618
2207 1 6619 6620 6621
2208 1 6622 6623 6624
2209 1 6625 6626 6627
2210 1 6628 6629 6630
2211 1 6631 6632 6633
2212 1 6634 6635 6636
2213 1 6637 6638 6639
2214 1 6640 6641 6642
2215 1 6643 6644 6645
2216 1 6646 6647 6648
2217 1 6649 6650 6651
2218 1 6652 6653 6654
2219 1 6655 6656 6657
2220 1 6658 6659 6660
2221 1 6661 6662 6663
2222 1 6664 6665 6666
2223 1 6667 6668 6669
2224 1 6670 6671 6672
2225 1 6673 6674 6675
2226 1 6676 6677 6678
2227 1 6679 6680 6681
2228 1 6682 6683 6684
2229 1 6685 6686 6687
2230 1 6688 6689 6690
2231 1 6691 6692 6693
2232 1 6694 6695 6696
2233 1 6697 6698 6699
2234 1 6700 6701 6702
2235 1 6703 6704 6705
2236 1 6706 6707 6708
2237 1 6709 6710 6711
2238 1 6712 6713 6714
2239 1 6715 6716 6717
2240 1 6718 6719 6720
2241 1 6721 6722 6723
2242 1 6724 6725 6726
2243 1 6727 6728 6729
2244 1 6730 6731 6732
2245 1 6733 6734 6735
2246 1 6736 6737 6738
2247 1 6739 6740 6741
2248 1 6742 6743 6744
2249 1 6745 6746 6747
2250 1 6748 6749 6750
2251 1 6751 6752 6753
2252 1 6754 6755 6756
2253 1 6757 6758 6759
2254 1 6760 6761 6762
2255 1 6763 6764 6765
2256 1 6766 6767 6768
2257 1 6769 6770 6771
2258 1 6772 6773 6774
2259 1 6775 6776 6777
2260 1 6778 6779 6780
2261 1 6781 6782 6783
2262 1 6784 6785 6786
2263 1 6787 6788 6789
2264 1 6790 6791 6792
2265 1 6793 6794 6795
2266 1 6796 6797 6798
2267 1 6799 6800 6801
2268 1 6802 6803 6804
2269 1 6805 6806 6807
2270 1 6808 6809 6810
2271 1 6811 6812 6813
2272 1 6814 6815 6816
2273 1 6817 6818 6819
2274 1 6820 6821 6822
2275 1 6823 6824 6825
2276 1 6826 6827 6828
2277 1 6829 6830 6831
2278 1 6832 6833 6834
2279 1 6835 6836 6837
2280 1 6838 6839 6840
2281 1 6841 6842 6843
2282 1 6844 6845 6846
2283 1 6847 6848 6849
2284 1 6850 6851 6852
2285 1 6853 6854 6855
2286 1 6856 6857 6858
2287 1 6859 6860 6861
2288 1 6862 6863 6864
2289 1 6865 6866 6867
2290 1 6868 6869 6870
2291 1 6871 6872 6873
2292 1 6874 6875 6876
2293 1 6877 6878 6879
2294 1 6880 6881 6882
2295 1 6883 6884 6885
2296 1 6886 6887 6888
2297 1 6889 6890 6891
2298 1 6892 6893 6894
2299 1 6895 6896 6897
2300 1 6898 6899 6900
2301 1 6901 6902 6903
2302 1 6904 6905 6906
2303 1 6907 6908 6909
2304 1 6910 6911 6912
2305 1 6913 6914 6915
2306 1 6916 6917 6918
2307 1 6919 6920 6921
2308 1 6922 6923 6924
2309 1 6925 6926 6927
2310 1 6928 6929 6930
2311 1 6931 6932 6933
2312 1 6934 6935 6936
2313 1 6937 6938 6939
2314 1 6940 6941 6942
2315 1 6943 6944 6945
2316 1 6946 6947 6948
2317 1 6949 6950 6951
2318 1 6952 6953 6954
2319 1 6955 6956 6957
2320 1 6958 6959 6960
2321 1 6961 6962 6963
2322 1 6964 6965 6966
2323 1 6967 6968 6969
2324 1 6970 6971 6972
2325 1 6973 6974 6975
2326 1 6976 6977 6978
2327 1 6979 6980 6981
2328 1 6982 6983 6984
2329 1 6985 6986 6987
2330 1 6988 6989 6990
2331 1 6991 6992 6993
2332 1 6994 6995 6996
2333 1 6997 6998 6999
2334 1 7000 7001 7002
2335 1 7003 7004 7005
2336 1 7006 7007 7008
2337 1 7009 7010 7011
2338 1 7012 7013 7014
2339 1 7015 7016 7017
2340 1 7018 7019 7020
2341 1 7021 7022 7023
2342 1 7024 7025 7026
2343 1 7027 7028 7029
2344 1 7030 7031 7032
2345 1 7033 7034 7035
2346 1 7036 7037 7038
2347 1 7039 7040 7041
2348 1 7042 7043 7044
2349 1 7045 7046 7047
2350 1 7048 7049 7050
2351 1 7051 7052 7053
2352 1 7054 7055 7056
2353 1 7057 7058 7059
2354 1 7060 7061 7062
2355 1 7063 7064 7065
2356 1 7066 7067 7068
2357 1 7069 7070 7071
2358 1 7072 7073 7074
2359 1 7075 7076 7077
2360 1 7078 7079 7080
2361 1 7081 7082 7083
2362 1 7084 7085 7086
2363 1 7087 7088 7089
2364 1 7090 7091 7092
2365 1 7093 7094 7095
2366 1 7096 7097 7098
2367 1 7099 7100 7101
2368 1 7102 7103 7104
2369 1 7105 7106 7107
2370 1 7108 7109 7110
2371 1 7111 7112 7113
2372 1 7114 7115 7116
2373 1 7117 7118 7119
2374 1 7120 7121 7122
2375 1 7123 7124 7125
2376 1 7126 7127 7128
2377 1 7129 7130 7131
2378 1 7132 7133 7134
2379 1 7135 7136 7137
2380 1 7138 7139 7140
2381 1 7141 7142 7143
2382 1 7144 7145 7146
2383 1 7147 7148 7149
2384 1 7150 7151 7152
2385 1 7153 7154 7155
2386 1 7156 7157 7158
2387 1 7159 7160 7161
2388 1 7162 7163 7164
2389 1 7165 7166 7167
2390 1 7168 7169 7170
2391 1 7171 7172 7173
2392 1 7174 7175 7176
2393 1 7177 7178 7179
2394 1 7180 7181 7182
2395 1 7183 7184 7185
2396 1 7186 7187 7188
2397 1 7189 7190 7191
2398 1 7192 7193 7194
2399 1 7195 7196 7197
2400 1 7198 7199 7200
2401 1 7201 7202 7203
2402 1 7204 7205 7206
2403 1 7207 7208 7209
2404 1 7210 7211 7212
2405 1 7213 7214 7215
2406 1 7216 7217 7218
2407 1 7219 7220 7221
2408 1 7222 7223 7224
2409 1 7225 7226 7227
2410 1 7228 7229 7230
2411 1 7231 7232 7233
2412 1 7234 7235 7236
2413 1 7237 7238 7239
2414 1 7240 7241 7242
2415 1 7243 7244 7245
2416 1 7246 7247 7248
2417 1 7249 7250 7251
2418 1 7252 7253 7254
2419 1 7255 7256 7257
2420 1 7258 7259 7260
2421 1 7261 7262 7263
2422 1 7264 7265 7266
2423 1 7267 7268 7269
2424 1 7270 7271 7272
2425 1 7273 7274 7275
2426 1 7276 7277 7278
2427 1 7279 7280 7281
2428 1 7282 7283 7284
2429 1 7285 7286 7287
2430 1 7288 7289 7290
2431 1 7291 7292 7293
2432 1 7294 7295 7296
2433 1 7297 7298 7299
2434 1 7300 7301 7302
2435 1 7303 7304 7305
2436 1 7306 7307 7308
2437 1 7309 7310 7311
2438 1 7312 7313 7314
2439 1 7315 7316 7317
2440 1 7318 7319 7320
2441 1 7321 7322 7323
2442 1 7324 7325 7326
2443 1 7327 7328 7329
2444 1 7330 7331 7332
2445 1 7333 7334 7335
2446 1 7336 7337 7338
2447 1 7339 7340 7341
2448 1 7342 7343 7344
2449 1 7345 7346 7347
2450 1 7348 7349 7350
2451 1 7351 7352 7353
2452 1 7354 7355 7356
2453 1 7357 7358 7359
2454 1 7360 7361 7362
2455 1 7363 7364 7365
2456 1 7366 7367 7368
2457 1 7369 7370 7371
2458 1 7372 7373 7374
2459 1 7375 7376 7377
2460 1 7378 7379 7380
2461 1 7381 7382 7383
2462 1 7384 7385 7386
2463 1 7387 7388 7389
2464 1 7390 7391 7392
2465 1 7393 7394 7395
2466 1 7396 7397 7398
2467 1 7399 7400 7401
2468 1 7402 7403 7404
2469 1 7405 7406 7407
2470 1 7408 7409 7410
2471 1 7411 7412 7413
2472 1 7414 7415 7416
2473 1 7417 7418 7419
2474 1 7420 7421 7422
2475 1 7423 7424 7425
2476 1 7426 7427 7428
2477 1 7429 7430 7431
2478 1 7432 7433 7434
2479 1 7435 7436 7437
2480 1 7438 7439 7440
2481 1 7441 7442 7443
2482 1 7444 7445 7446
2483 1 7447 7448 7449
2484 1 7450 7451 7452
2485 1 7453 7454 7455
2486 1 7456 7457 7458
2487 1 7459 7460 7461
2488 1 7462 7463 7464
2489 1 7465 7466 7467
2490 1 7468 7469 7470
2491 1 7471 7472 7473
2492 1 7474 7475 7476
2493 1 7477 7478 7479
2494 1 7480 7481 7482
2495 1 7483 7484 7485
2496 1 7486 7487 7488
2497 1 7489 7490 7491
2498 1 7492 7493 7494
2499 1 7495 7496 7497
2500 1 7498 7499 7500
2501 1 7501 7502 7503
2502 1 7504 7505 7506
2503 1 7507 7508 7509
2504 1 7510 7511 7512
2505 1 7513 7514 7515
2506 1 7516 7517 7518
2507 1 7519 7520 7521
2508 1 7522 7523 7524
2509 1 7525 7526 7527
2510 1 7528 7529 7530
2511 1 7531 7532 7533
2512 1 7534 7535 7536
2513 1 7537 7538 7539
2514 1 7540 7541 7542
2515 1 7543 7544 7545
2516 1 7546 7547 7548
2517 1 7549 7550 7551
2518 1 7552 7553 7554
2519 1 7555 7556 7557
2520 1 7558 7559 7560
2521 1 7561 7562 7563
2522 1 7564 7565 7566
2523 1 7567 7568 7569
2524 1 7570 7571 7572
2525 1 7573 7574 7575
2526 1 7576 7577 7578
2527 1 7579 7580 7581
2528 1 7582 7583 7584
2529 1 7585 7586 7587
2530 1 7588 7589 7590
2531 1 7591 7592 7593
2532 1 7594 7595 7596
2533 1 7597 7598 7599
2534 1 7600 7601 7602
2535 1 7603 7604 7605
2536 1 7606 7607 7608
2537 1 7609 7610 7611
2538 1 7612 7613 7614
2539 1 7615 7616 7617
2540 1 7618 7619 7620
2541 1 7621 7622 7623
2542 1 7624 7625 7626
2543 1 7627 7628 7629
2544 1 7630 7631 7632
2545 1 7633 7634 7635
2546 1 7636 7637 7638
2547 1 7639 7640 7641
2548 1 7642 7643 7644
2549 1 7645 7646 7647
2550 1 7648 7649 7650
2551 1 7651 7652 7653
2552 1 7654 7655 7656
2553 1 7657 7658 7659
2554 1 7660 7661 7662
2555 1 7663 7664 7665
2556 1 7666 7667 7668
2557 1 7669 7670 7671
2558 1 7672 7673 7674
2559 1 7675 7676 7677
2560 1 7678 7679 7680
2561 1 7681 7682 7683
2562 1 7684 7685 7686
2563 1 7687 7688 7689
2564 1 7690 7691 7692
2565 1 7693 7694 7695
2566 1 7696 7697 7698
2567 1 7699 7700 7701
2568 1 7702 7703 7704
2569 1 7705 7706 7707
2570 1 7708 7709 7710
2571 1 7711 7712 7713
2572 1 7714 7715 7716
2573 1 7717 7718 7719
2574 1 7720 7721 7722
2575 1 7723 7724 7725
2576 1 7726 7727 7728
2577 1 7729 7730 7731
2578 1 7732 7733 7734
2579 1 7735 7736 7737
2580 1 7738 7739 7740
2581 1 7741 7742 7743
2582 1 7744 7745 7746
2583 1 7747 7748 7749
2584 1 7750 7751 7752
2585 1 7753 7754 7755
2586 1 7756 7757 7758
2587 1 7759 7760 7761
2588 1 7762 7763 7764
2589 1 7765 7766 7767
2590 1 7768 7769 7770
2591 1 7771 7772 7773
2592 1 7774 7775 7776
2593 1 7777 7778 7779
2594 1 7780 7781 7782
2595 1 7783 7784 7785
2596 1 7786 7787 7788
2597 1 7789 7790 7791
2598 1 7792 7793 7794
2599 1 7795 7796 7797
2600 1 7798 7799 7800
2601 1 7801 7802 7803
2602 1 7804 7805 7806
2603 1 7807 7808 7809
2604 1 7810 7811 7812
2605 1 7813 7814 7815
2606 1 7816 7817 7818
2607 1 7819 7820 7821
2608 1 7822 7823 7824
2609 1 7825 7826 7827
2610 1 7828 7829 7830
2611 1 7831 7832 7833
2612 1 7834 7835 7836
2613 1 7837 7838 7839
2614 1 7840 7841 7842
2615 1 7843 7844 7845
2616 1 7846 7847 7848
2617 1 7849 7850 7851
2618 1 7852 7853 7854
2619 1 7855 7856 7857
2620 1 7858 7859 7860
2621 1 7861 7862 7863
2622 1 7864 7865 7866
2623 1 7867 7868 7869
2624 1 7870 7871 7872
2625 1 7873 7874 7875
2626 1 7876 7877 7878
2627 1 7879 7880 7881
2628 1 7882 7883 7884
2629 1 7885 7886 7887
2630 1 7888 7889 7890
2631 1 7891 7892 7893
2632 1 7894 7895 7896
2633 1 7897 7898 7899
2634 1 7900 7901 7902
2635 1 7903 7904 7905
2636 1 7906 7907 7908
2637 1 7909 7910 7911
2638 1 7912 7913 7914
2639 1 7915 7916 7917
2640 1 7918 7919 7920
2641 1 7921 7922 7923
2642 1 7924 7925 7926
2643 1 7927 7928 7929
2644 1 7930 7931 7932
2645 1 7933 7934 7935
2646 1 7936 7937 7938
2647 1 7939 7940 7941
2648 1 7942 7943 7944
2649 1 7945 7946 7947
2650 1 7948 7949 7950
2651 1 7951 7952 7953
2652 1 7954 7955 7956
2653 1 7957 7958 7959
2654 1 7960 7961 7962
2655 1 7963 7964 7965
2656 1 7966 7967 7968
2657 1 7969 7970 7971
2658 1 7972 7973 7974
2659 1 7975 7976 7977
2660 1 7978 7979 7980
2661 1 7981 7982 7983
2662 1 7984 7985 7986
2663 1 7987 7988 7989
2664 1 7990 7991 7992
2665 1 7993 7994 7995
2666 1 7996 7997 7998
2667 1 7999 8000 8001
2668 1 8002 8003 8004
2669 1 8005 8006 8007
2670 1 8008 8009 8010
2671 1 8011 8012 8013
2672 1 8014 8015 8016
2673 1 8017 8018 8019
2674 1 8020 8021 8022
2675 1 8023 8024 8025
2676 1 8026 8027 8028
2677 1 8029 8030 8031
2678 1 8032 8033 8034
2679 1 8035 8036 8037
2680 1 8038 8039 8040
2681 1 8041 8042 8043
2682 1 8044 8045 8046
2683 1 8047 8048 8049
2684 1 8050 8051 8052
2685 1 8053 8054 8055
2686 1 8056 8057 8058
2687 1 8059 8060 8061
2688 1 8062 8063 8064
2689 1 8065 8066 8067
2690 1 8068 8069 8070
2691 1 8071 8072 8073
2692 1 8074 8075 8076
2693 1 8077 8078 8079
2694 1 8080 8081 8082
2695 1 8083 8084 8085
2696 1 8086 8087 8088
2697 1 8089 8090 8091
2698 1 8092 8093 8094
2699 1 8095 8096 8097
2700 1 8098 8099 8100
2701 1 8101 8102 8103
2702 1 8104 8105 8106
2703 1 8107 8108 8109
2704 1 8110 8111 8112
2705 1 8113 8114 8115
2706 1 8116 8117 8118
2707 1 8119 8120 8121
2708 1 8122 8123 8124
2709 1 8125 8126 8127
2710 1 8128 8129 8130
2711 1 8131 8132 8133
2712 1 8134 8135 8136
2713 1 8137 8138 8139
2714 1 8140 8141 8142
2715 1 8143 8144 8145
2716 1 8146 8147 8148
2717 1 8149 8150 8151
2718 1 8152 8153 8154
2719 1 8155 8156 8157
2720 1 8158 8159 8160
2721 1 8161 8162 8163
2722 1 8164 8165 8166
2723 1 8167 8168 8169
2724 1 8170 8171 8172
2725 1 8173 8174 8175
2726 1 8176 8177 8178
2727 1 8179 8180 8181
2728 1 8182 8183 8184
2729 1 8185 8186 8187
2730 1 8188 8189 8190
2731 1 8191 8192 8193
2732 1 8194 8195 8196
2733 1 8197 8198 8199
2734 1 8200 8201 8202
2735 1 8203 8204 8205
2736 1 8206 8207 8208
2737 1 8209 8210 8211
2738 1 8212 8213 8214
2739 1 8215 8216 8217
2740 1 8218 8219 8220
2741 1 8221 8222 8223
2742 1 8224 8225 8226
2743 1 8227 8228 8229
2744 1 8230 8231 8232
2745 1 8233 8234 8235
2746 1 8236 8237 8238
2747 1 8239 8240 8241
2748 1 8242 8243 8244
2749 1 8245 8246 8247
2750 1 8248 8249 8250
2751 1 8251 8252 8253
2752 1 8254 8255 8256
2753 1 8257 8258 8259
2754 1 8260 8261 8262
2755 1 8263 8264 8265
2756 1 8266 8267 8268
2757 1 8269 8270 8271
2758 1 8272 8273 8274
2759 1 8275 8276 8277
2760 1 8278 8279 8280
2761 1 8281 8282 8283
2762 1 8284 8285 8286
2763 1 8287 8288 8289
2764 1 8290 8291 8292
2765 1 8293 8294 8295
2766 1 8296 8297 8298
2767 1 8299 8300 8301
2768 1 8302 8303 8304
2769 1 8305 8306 8307
2770 1 8308 8309 8310
2771 1 8311 8312 8313
2772 1 8314 8315 8316
2773 1 8317 8318 8319
2774 1 8320 8321 8322
2775 1 8323 8324 8325
2776 1 8326 8327 8328
2777 1 8329 8330 8331
2778 1 8332 8333 8334
2779 1 8335 8336 8337
2780 1 8338 8339 8340
2781 1 8341 8342 8343
2782 1 8344 8345 8346
2783 1 8347 8348 8349
2784 1 8350 8351 8352
2785 1 8353 8354 8355
2786 1 8356 8357 8358
2787 1 8359 8360 8361
2788 1 8362 8363 8364
2789 1 8365 8366 8367
2790 1 8368 8369 8370
2791 1 8371 8372 8373
2792 1 8374 8375 8376
2793 1 8377 8378 8379
2794 1 8380 8381 8382
2795 1 8383 8384 8385
2796 1 8386 8387 8388
2797 1 8389 8390 8391
2798 1 8392 8393 8394
2799 1 8395 8396 8397
2800 1 8398 8399 8400
2801 1 8401 8402 8403
2802 1 8404 8405 8406
2803 1 8407 8408 8409
2804 1 8410 8411 8412
2805 1 8413 8414 8415
2806 1 8416 8417 8418
2807 1 8419 8420 8421
2808 1 8422 8423 8424
2809 1 8425 8426 8427
2810 1 8428 8429 8430
2811 1 8431 8432 8433
2812 1 8434 8435 8436
2813 1 8437 8438 8439
2814 1 8440 8441 8442
2815 1 8443 8444 8445
2816 1 8446 8447 8448
2817 1 8449 8450 8451
2818 1 8452 8453 8454
2819 1 8455 8456 8457
2820 1 8458 8459 8460
2821 1 8461 8462 8463
2822 1 8464 8465 8466
2823 1 8467 8468 8469
2824 1 8470 8471 8472
2825 1 8473 8474 8475
2826 1 8476 8477 8478
2827 1 8479 8480 8481
2828 1 8482 8483 8484
2829 1 8485 8486 8487
2830 1 8488 8489 8490
2831 1 8491 8492 8493
2832 1 8494 8495 8496
2833 1 8497 8498 8499
2834 1 8500 8501 8502
2835 1 8503 8504 8505
2836 1 8506 8507 8508
2837 1 8509 8510 8511
2838 1 8512 8513 8514
2839 1 8515 8516 8517
2840 1 8518 8519 8520
2841 1 8521 8522 8523
2842 1 8524 8525 8526
2843 1 8527 8528 8529
2844 1 8530 8531 8532
2845 1 8533 8534 8535
2846 1 8536 8537 8538
2847 1 8539 8540 8541
2848 1 8542 8543 8544
2849 1 8545 8546 8547
2850 1 8548 8549 8550
2851 1 8551 8552 8553
2852 1 8554 8555 8556
2853 1 8557 8558 8559
2854 1 8560 8561 8562
2855 1 8563 8564 8565
2856 1 8566 8567 8568
2857 1 8569 8570 8571
2858 1 8572 8573 8574
2859 1 8575 8576 8577
2860 1 8578 8579 8580
2861 1 8581 8582 8583
2862 1 8584 8585 8586
2863 1 8587 8588 8589
2864 1 8590 8591 8592
2865 1 8593 8594 8595
2866 1 8596 8597 8598
2867 1 8599 8600 8601
2868 1 8602 8603 8604
2869 1 8605 8606 8607
2870 1 8608 8609 8610
2871 1 8611 8612 8613
2872 1 8614 8615 8616
2873 1 8617 8618 8619
2874 1 8620 8621 8622
2875 1 8623 8624 8625
2876 1 8626 8627 8628
2877 1 8629 8630 8631
2878 1 8632 8633 8634
2879 1 8635 8636 8637
2880 1 8638 8639 8640
2881 1 8641 8642 8643
2882 1 8644 8645 8646
2883 1 8647 8648 8649
2884 1 8650 8651 8652
2885 1 8653 8654 8655
2886 1 8656 8657 8658
2887 1 8659 8660 8661
2888 1 8662 8663 8664
2889 1 8665 8666 8667
2890 1 8668 8669 8670
2891 1 8671 8672 8673
2892 1 8674 8675 8676
2893 1 8677 8678 8679
2894 1 8680 8681 8682
2895 1 8683 8684 8685
2896 1 8686 8687 8688
2897 1 8689 8690 8691
2898 1 8692 8693 8694
2899 1 8695 8696 8697
2900 1 8698 8699 8700
2901 1 8701 8702 8703
2902 1 8704 8705 8706
2903 1 8707 8708 8709
2904 1 8710 8711 8712
2905 1 8713 8714 8715
2906 1 8716 8717 8718
2907 1 8719 8720 8721
2908 1 8722 8723 8724
2909 1 8725 8726 8727
2910 1 8728 8729 8730
2911 1 8731 8732 8733
2912 1 8734 8735 8736
2913 1 8737 8738 8739
2914 1 8740 8741 8742
2915 1 8743 8744 8745
2916 1 8746 8747 8748
2917 1 8749 8750 8751
2918 1 8752 8753 8754
2919 1 8755 8756 8757
2920 1 8758 8759 8760
2921 1 8761 8762 8763
2922 1 8764 8765 8766
2923 1 8767 8768 8769
2924 1 8770 8771 8772
2925 1 8773 8774 8775
2926 1 8776 8777 8778
2927 1 8779 8780 8781
2928 1 8782 8783 8784
2929 1 8785 8786 8787
2930 1 8788 8789 8790
2931 1 8791 8792 8793
2932 1 8794 8795 8796
2933 1 8797 8798 8799
2934 1 8800 8801 8802
2935 1 8803 8804 8805
2936 1 8806 8807 8808
2937 1 8809 8810 8811
2938 1 8812 8813 8814
2939 1 8815 8816 8817
2940 1 8818 8819 8820
2941 1 8821 8822 8823
2942 1 8824 8825 8826
2943 1 8827 8828 8829
2944 1 8830 8831 8832
2945 1 8833 8834 8835
2946 1 8836 8837 8838
2947 1 8839 8840 8841
2948 1 8842 8843 8844
2949 1 8845 8846 8847
2950 1 8848 8849 8850
2951 1 8851 8852 8853
2952 1 8854 8855 8856
2953 1 8857 8858 8859
2954 1 8860 8861 8862
2955 1 8863 8864 8865
2956 1 8866 8867 8868
2957 1 8869 8870 8871
2958 1 8872 8873 8874
2959 1 8875 8876 8877
2960 1 8878 8879 8880
2961 1 8881 8882 8883
2962 1 8884 8885 8886
2963 1 8887 8888 8889
2964 1 8890 8891 8892
2965 1 8893 8894 8895
2966 1 8896 8897 8898
2967 1 8899 8900 8901
2968 1 8902 8903 8904
2969 1 8905 8906 8907
2970 1 8908 8909 8910
2971 1 8911 8912 8913
2972 1 8914 8915 8916
2973 1 8917 8918 8919
2974 1 8920 8921 8922
2975 1 8923 8924 8925
2976 1 8926 8927 8928
2977 1 8929 8930 8931
2978 1 8932 8933 8934
2979 1 8935 8936 8937
2980 1 8938 8939 8940
2981 1 8941 8942 8943
2982 1 8944 8945 8946
2983 1 8947 8948 8949
2984 1 8950 8951 8952
2985 1 8953 8954 8955
2986 1 8956 8957 8958
2987 1 8959 8960 8961
2988 1 8962 8963 8964
2989 1 8965 8966 8967
2990 1 8968 8969 8970
2991 1 8971 8972 8973
2992 1 8974 8975 8976
2993 1 8977 8978 8979
2994 1 8980 8981 8982
2995 1 8983 8984 8985
2996 1 8986 8987 8988
2997 1 8989 8990 8991
2998 1 8992 8993 8994
2999 1 8995 8996 8997
3000 1 8998 8999 9000
3001 1 9001 9002 9003
3002 1 9004 9005 9006
3003 1 9007 9008 9009
3004 1 9010 9011 9012
3005 1 9013 9014 9015
3006 1 9016 9017 9018
3007 1 9019 9020 9021
3008 1 9022 9023 9024
3009 1 9025 9026 9027
3010 1 9028 9029 9030
3011 1 9031 9032 9033
3012 1 9034 9035 9036
3013 1 9037 9038 9039
3014 1 9040 9041 9042
3015 1 9043 9044 9045
3016 1 9046 9047 9048
3017 1 9049 9050 9051
3018 1 9052 9053 9054
3019 1 9055 9056 9057
3020 1 9058 9059 9060
3021 1 9061 9062 9063
3022 1 9064 9065 9066
3023 1 9067 9068 9069
3024 1 9070 9071 9072
3025 1 9073 9074 9075
3026 1 9076 9077 9078
3027 1 9079 9080 9081
3028 1 9082 9083 9084
3029 1 9085 9086 9087
3030 1 9088 9089 9090
3031 1 9091 9092 9093
3032 1 9094 9095 9096
3033 1 9097 9098 9099
3034 1 9100 9101 9102
3035 1 9103 9104 9105
3036 1 9106 9107 9108
3037 1 9109 9110 9111
3038 1 9112 9113 9114
3039 1 9115 9116 9117
3040 1 9118 9119 9120
3041 1 9121 9122 9123
3042 1 9124 9125 9126
3043 1 9127 9128 9129
3044 1 9130 9131 9132
3045 1 9133 9134 9135
3046 1 9136 9137 9138
3047 1 9139 9140 9141
3048 1 9142 9143 9144
3049 1 9145 9146 9147
3050 1 9148 9149 9150
3051 1 9151 9152 9153
3052 1 9154 9155 9156
3053 1 9157 9158 9159
3054 1 9160 9161 9162
3055 1 9163 9164 9165
3056 1 9166 9167 9168
3057 1 9169 9170 9171
3058 1 9172 9173 9174
3059 1 9175 9176 9177
3060 1 9178 9179 9180
3061 1 9181 9182 9183
3062 1 9184 9185 9186
3063 1 9187 9188 9189
3064 1 9190 9191 9192
3065 1 9193 9194 9195
3066 1 9196 9197 9198
3067 1 9199 9200 9201
3068 1 9202 9203 9204
3069 1 9205 9206 9207
3070 1 9208 9209 9210
3071 1 9211 9212 9213
3072 1 9214 9215 9216
3073 1 9217 9218 9219
3074 1 9220 9221 9222
3075 1 9223 9224 9225
3076 1 9226 9227 9228
3077 1 9229 9230 9231
3078 1 9232 9233 9234
3079 1 9235 9236 9237
3080 1 9238 9239 9240
3081 1 9241 9242 9243
3082 1 9244 9245 9246
3083 1 9247 9248 9249
3084 1 9250 9251 9252
3085 1 9253 9254 9255
3086 1 9256 9257 9258
3087 1 9259 9260 9261
3088 1 9262 9263 9264
3089 1 9265 9266 9267
3090 1 9268 9269 9270
3091 1 9271 9272 9273
3092 1 9274 9275 9276
3093 1 9277 9278 9279
3094 1 9280 9281 9282
3095 1 9283 9284 9285
3096 1 9286 9287 9288
3097 1 9289 9290 9291
3098 1 9292 9293 9294
3099 1 9295 9296 9297
3100 1 9298 9299 9300
3101 1 9301 9302 9303
3102 1 9304 9305 9306
3103 1 9307 9308 9309
3104 1 9310 9311 9312
3105 1 9313 9314 9315
3106 1 9316 9317 9318
3107 1 9319 9320 9321
3108 1 9322 9323 9324
3109 1 9325 9326 9327
3110 1 9328 9329 9330
3111 1 9331 9332 9333
3112 1 9334 9335 9336
3113 1 9337 9338 9339
3114 1 9340 9341 9342
3115 1 9343 9344 9345
3116 1 9346 9347 9348
3117 1 9349 9350 9351
3118 1 9352 9353 9354
3119 1 9355 9356 9357
3120 1 9358 9359 9360
3121 1 9361 9362 9363
3122 1 9364 9365 9366
3123 1 9367 9368 9369
3124 1 9370 9371 9372
3125 1 9373 9374 9375
3126 1 9376 9377 9378
3127 1 9379 9380 9381
3128 1 9382 9383 9384
3129 1 9385 9386 9387
3130 1 9388 9389 9390
3131 1 9391 9392 9393
3132 1 9394 9395 9396
3133 1 9397 9398 9399
3134 1 9400 9401 9402
3135 1 9403 9404 9405
3136 1 9406 9407 9408
3137 1 9409 9410 9411
3138 1 9412 9413 9414
3139 1 9415 9416 9417
3140 1 9418 9419 9420
3141 1 9421 9422 9423
3142 1 9424 9425 9426
3143 1 9427 9428 9429
3144 1 9430 9431 9432
3145 1 9433 9434 9435
3146 1 9436 9437 9438
3147 1 9439 9440 9441
3148 1 9442 9443 9444
3149 1 9445 9446 9447
3150 1 9448 9449 9450
3151 1 9451 9452 9453
3152 1 9454 9455 9456
3153 1 9457 9458 9459
3154 1 9460 9461 9462
3155 1 9463 9464 9465
3156 1 9466 9467 9468
3157 1 9469 9470 9471
3158 1 9472 9473 9474
3159 1 9475 9476 9477
3160 1 9478 9479 9480
3161 1 9481 9482 9483
3162 1 9484 9485 9486
3163 1 9487 9488 9489
3164 1 9490 9491 9492
3165 1 9493 9494 9495
3166 1 9496 9497 9498
3167 1 9499 9500 9501
3168 1 9502 9503 9504
3169 1 9505 9506 9507
3170 1 9508 9509 9510
3171 1 9511 9512 9513
3172 1 9514 9515 9516
3173 1 9517 9518 9519
3174 1 9520 9521 9522
3175 1 9523 9524 9525
3176 1 9526 9527 9528
3177 1 9529 9530 9531
3178 1 9532 9533 9534
3179 1 9535 9536 9537
3180 1 9538 9539 9540
3181 1 9541 9542 9543
3182 1 9544 9545 9546
3183 1 9547 9548 9549
3184 1 9550 9551 9552
3185 1 9553 9554 9555
3186 1 9556 9557 9558
3187 1 9559 9560 9561
3188 1 9562 9563 9564
3189 1 9565 9566 9567
3190 1 9568 9569 9570
3191 1 9571 9572 9573
3192 1 9574 9575 9576
3193 1 9577 9578 9579
3194 1 9580 9581 9582
3195 1 9583 9584 9585
3196 1 9586 9587 9588
3197 1 9589 9590 9591
3198 1 9592 9593 9594
3199 1 9595 9596 9597
3200 1 9598 9599 9600
3201 1 9601 9602 9603
3202 1 9604 9605 9606
3203 1 9607 9608 9609
3204 1 9610 9611 9612
3205 1 9613 9614 9615
3206 1 9616 9617 9618
3207 1 9619 9620 9621
3208 1 9622 9623 9624
3209 1 9625 9626 9627
3210 1 9628 9629 9630
3211 1 9631 9632 9633
3212 1 9634 9635 9636
3213 1 9637 9638 9639
3214 1 9640 9641 9642
3215 1 9643 9644 9645
3216 1 9646 9647 9648
3217 1 9649 9650 9651
3218 1 9652 9653 9654
3219 1 9655 9656 9657
3220 1 9658 9659 9660
3221 1 9661 9662 9663
3222 1 9664 9665 9666
3223 1 9667 9668 9669
3224 1 9670 9671 9672
3225 1 9673 9674 9675
3226 1 9676 9677 9678
3227 1 9679 9680 9681
3228 1 9682 9683 9684
3229 1 9685 9686 9687
3230 1 9688 9689 9690
3231 1 9691 9692 9693
3232 1 9694 9695 9696
3233 1 9697 9698 9699
3234 1 9700 9701 9702
3235 1 9703 9704 9705
3236 1 9706 9707 9708
3237 1 9709 9710 9711
3238 1 9712 9713 9714
3239 1 9715 9716 9717
3240 1 9718 9719 9720
3241 1 9721 9722 9723
3242 1 9724 9725 9726
3243 1 9727 9728 9729
3244 1 9730 9731 9732
3245 1 9733 9734 9735
3246 1 9736 9737 9738
3247 1 9739 9740 9741
3248 1 9742 9743 9744
3249 1 9745 9746 9747
3250 1 9748 9749 9750
3251 1 9751 9752 9753
3252 1 9754 9755 9756
3253 1 9757 9758 9759
3254 1 9760 9761 9762
3255 1 9763 9764 9765
3256 1 9766 9767 9768
3257 1 9769 9770 9771
3258 1 9772 9773 9774
3259 1 9775 9776 9777
3260 1 9778 9779 9780
3261 1 9781 9782 9783
3262 1 9784 9785 9786
3263 1 9787 9788 9789
3264 1 9790 9791 9792
3265 1 9793 9794 9795
3266 1 9796 9797 9798
3267 1 9799 9800 9801
3268 1 9802 9803 9804
3269 1 9805 9806 9807
3270 1 9808 9809 9810
3271 1 9811 9812 9813
3272 1 9814 9815 9816
3273 1 9817 9818 9819
3274 1 9820 9821 9822
3275 1 9823 9824 9825
3276 1 9826 9827 9828
3277 1 9829 9830 9831
3278 1 9832 9833 9834
3279 1 9835 9836 9837
3280 1 9838 9839 9840
3281 1 9841 9842 9843
3282 1 9844 9845 9846
3283 1 9847 9848 9849
3284 1 9850 9851 9852
3285 1 9853 9854 9855
3286 1 9856 9857 9858
3287 1 9859 9860 9861
3288 1 9862 9863 9864
3289 1 9865 9866 9867
3290 1 9868 9869 9870
3291 1 9871 9872 9873
3292 1 9874 9875 9876
3293 1 9877 9878 9879
3294 1 9880 9881 9882
3295 1 9883 9884 9885
3296 1 9886 9887 9888
3297 1 9889 9890 9891
3298 1 9892 9893 9894
3299 1 9895 9896 9897
3300 1 9898 9899 9900
3301 1 9901 9902 9903
3302 1 9904 9905 9906
3303 1 9907 9908 9909
3304 1 9910 9911 9912
3305 1 9913 9914 9915
3306 1 9916 9917 9918
3307 1 9919 9920 9921
3308 1 9922 9923 9924
3309 1 9925 9926 9927
3310 1 9928 9929 9930
3311 1 9931 9932 9933
3312 1 9934 9935 9936
3313 1 9937 9938 9939
3314 1 9940 9941 9942
3315 1 9943 9944 9945
3316 1 9946 9947 9948
3317 1 9949 9950 9951
3318 1 9952 9953 9954
3319 1 9955 9956 9957
3320 1 9958 9959 9960
3321 1 9961 9962 9963
3322 1 9964 9965 9966
3323 1 9967 9968 9969
3324 1 9970 9971 9972
3325 1 9973 9974 9975
3326 1 9976 9977 9978
3327 1 9979 9980 9981
3328 1 9982 9983 9984
3329 1 9985 9986 9987
3330 1 9988 9989 9990
3331 1 9991 9992 9993
3332 1 9994 9995 9996
3333 1 9997 9998 9999
3334 1 10000 10001 10002
3335 1 10003 10004 10005
3336 1 10006 10007 10008
3337 1 10009 10010 10011
3338 1 10012 10013 10014
3339 1 10015 10016 10017
3340 1 10018 10019 10020
3341 1 10021 10022 10023
3342 1 10024 10025 10026
3343 1 10027 10028 10029
3344 1 10030 10031 10032
3345 1 10033 10034 10035
3346 1 10036 10037 10038
3347 1 10039 10040 10041
3348 1 10042 10043 10044
3349 1 10045 10046 10047
3350 1 10048 10049 10050
3351 1 10051 10052 10053
3352 1 10054 10055 10056
3353 1 10057 10058 10059
3354 1 10060 10061 10062
3355 1 10063 10064 10065
3356 1 10066 10067 10068
3357 1 10069 10070 10071
3358 1 10072 10073 10074
3359 1 10075 10076 10077
3360 1 10078 10079 10080
3361 1 10081 10082 10083
3362 1 10084 10085 10086
3363 1 10087 10088 10089
3364 1 10090 10091 10092
3365 1 10093 10094 10095
3366 1 10096 10097 10098
3367 1 10099 10100 10101
3368 1 10102 10103 10104
3369 1 10105 10106 10107
3370 1 10108 10109 10110
3371 1 10111 10112 10113
3372 1 10114 10115 10116
3373 1 10117 10118 10119
3374 1 10120 10121 10122
3375 1 10123 10124 10125
3376 1 10126 10127 10128
3377 1 10129 10130 10131
3378 1 10132 10133 10134
3379 1 10135 10136 10137
3380 1 10138 10139 10140
3381 1 10141 10142 10143
3382 1 10144 10145 10146
3383 1 10147 10148 10149
3384 1 10150 10151 10152
3385 1 10153 10154 10155
3386 1 10156 10157 10158
3387 1 10159 10160 10161
3388 1 10162 10163 10164
3389 1 10165 10166 10167
3390 1 10168 10169 10170
3391 1 10171 10172 10173
3392 1 10174 10175 10176
3393 1 10177 10178 10179
3394 1 10180 10181 10182
3395 1 10183 10184 10185
3396 1 10186 10187 10188
3397 1 10189 10190 10191
3398 1 10192 10193 10194
3399 1 10195 10196 10197
3400 1 10198 10199 10200
3401 1 10201 10202 10203
3402 1 10204 10205 10206
3403 1 10207 10208 10209
3404 1 10210 10211 10212
3405 1 10213 10214 10215
3406 1 10216 10217 10218
3407 1 10219 10220 10221
3408 1 10222 10223 10224
3409 1 10225 10226 10227
3410 1 10228 10229 10230
3411 1 10231 10232 10233
3412 1 10234 10235 10236
3413 1 10237 10238 10239
3414 1 10240 10241 10242
3415 1 10243 10244 10245
3416 1 10246 10247 10248
3417 1 10249 10250 10251
3418 1 10252 10253 10254
3419 1 10255 10256 10257
3420 1 10258 10259 10260
3421 1 10261 10262 10263
3422 1 10264 10265 10266
3423 1 10267 10268 10269
3424 1 10270 10271 10272
3425 1 10273 10274 10275
3426 1 10276 10277 10278
3427 1 10279 10280 10281
3428 1 10282 10283 10284
3429 1 10285 10286 10287
3430 1 10288 10289 10290
3431 1 10291 10292 10293
3432 1 10294 10295 10296
3433 1 10297 10298 10299
3434 1 10300 10301 10302
3435 1 10303 10304 10305
3436 1 10306 10307 10308
3437 1 10309 10310 10311
3438 1 10312 10313 10314
3439 1 10315 10316 10317
3440 1 10318 10319 10320
3441 1 10321 10322 10323
3442 1 10324 10325 10326
3443 1 10327 10328 10329
3444 1 10330 10331 10332
3445 1 10333 10334 10335
3446 1 10336 10337 10338
3447 1 10339 10340 10341
3448 1 10342 10343 10344
3449 1 10345 10346 10347
3450 1 10348 10349 10350
3451 1 10351 10352 10353
3452 1 10354 10355 10356
3453 1 10357 10358 10359
3454 1 10360 10361 10362
3455 1 10363 10364 10365
3456 1 10366 10367 10368
3457 1 10369 10370 10371
3458 1 10372 10373 10374
3459 1 10375 10376 10377
3460 1 10378 10379 10380
3461 1 10381 10382 10383
3462 1 10384 10385 10386
3463 1 10387 10388 10389
3464 1 10390 10391 10392
3465 1 10393 10394 10395
3466 1 10396 10397 10398
3467 1 10399 10400 10401
3468 1 10402 10403 10404
3469 1 10405 10406 10407
3470 1 10408 10409 10410
3471 1 10411 10412 10413
3472 1 10414 10415 10416
3473 1 10417 10418 10419
3474 1 10420 10421 10422
3475 1 10423 10424 10425
3476 1 10426 10427 10428
3477 1 10429 10430 10431
3478 1 10432 10433 10434
3479 1 10435 10436 10437
3480 1 10438 10439 10440
3481 1 10441 10442 10443
3482 1 10444 10445 10446
3483 1 10447 10448 10449
3484 1 10450 10451 10452
3485 1 10453 10454 10455
3486 1 10456 10457 10458
3487 1 10459 10460 10461
3488 1 10462 10463 10464
3489 1 10465 10466 10467
3490 1 10468 10469 10470
3491 1 10471 10472 10473
3492 1 10474 10475 10476
3493 1 10477 10478 10479
3494 1 10480 10481 10482
3495 1 10483 10484 10485
3496 1 10486 10487 10488
3497 1 10489 10490 10491
3498 1 10492 10493 10494
3499 1 10495 10496 10497
3500 1 10498 10499 10500
3501 1 10501 10502 10503
3502 1 10504 10505 10506
3503 1 10507 10508 10509
3504 1 10510 10511 10512
3505 1 10513 10514 10515
3506 1 10516 10517 10518
3507 1 10519 10520 10521
3508 1 10522 10523 10524
3509 1 10525 10526 10527
3510 1 10528 10529 10530
3511 1 10531 10532 10533
3512 1 10534 10535 10536
3513 1 10537 10538 10539
3514 1 10540 10541 10542
3515 1 10543 10544 10545
3516 1 10546 10547 10548
3517 1 10549 10550 10551
3518 1 10552 10553 10554
3519 1 10555 10556 10557
3520 1 10558 10559 10560
3521 1 10561 10562 10563
3522 1 10564 10565 10566
3523 1 10567 10568 10569
3524 1 10570 10571 10572
3525 1 10573 10574 10575
3526 1 10576 10577 10578
3527 1 10579 10580 10581
3528 1 10582 10583 10584
3529 1 10585 10586 10587
3530 1 10588 10589 10590
3531 1 10591 10592 10593
3532 1 10594 10595 10596
3533 1 10597 10598 10599
3534 1 10600 10601 10602
3535 1 10603 10604 10605
3536 1 10606 10607 10608
3537 1 10609 10610 10611
3538 1 10612 10613 10614
3539 1 10615 10616 10617
3540 1 10618 10619 10620
3541 1 10621 10622 10623
3542 1 10624 10625 10626
3543 1 10627 10628 10629
3544 1 10630 10631 10632
3545 1 10633 10634 10635
3546 1 10636 10637 10638
3547 1 10639 10640 10641
3548 1 10642 10643 10644
3549 1 10645 10646 10647
3550 1 10648 10649 10650
3551 1 10651 10652 10653
3552 1 10654 10655 10656
3553 1 10657 10658 10659
3554 1 10660 10661 10662
3555 1 10663 10664 10665
3556 1 10666 10667 10668
3557 1 10669 10670 10671
3558 1 10672 10673 10674
3559 1 10675 10676 10677
3560 1 10678 10679 10680
3561 1 10681 10682 10683
3562 1 10684 10685 10686
3563 1 10687 10688 10689
3564 1 10690 10691 10692
3565 1 10693 10694 10695
3566 1 10696 10697 10698
3567 1 10699 10700 10701
3568 1 10702 10703 10704
3569 1 10705 10706 10707
3570 1 10708 10709 10710
3571 1 10711 10712 10713
3572 1 10714 10715 10716
3573 1 10717 10718 10719
3574 1 10720 10721 10722
3575 1 10723 10724 10725
3576 1 10726 10727 10728
3577 1 10729 10730 10731
3578 1 10732 10733 10734
3579 1 10735 10736 10737
3580 1 10738 10739 10740
3581 1 10741 10742 10743
3582 1 10744 10745 10746
3583 1 10747 10748 10749
3584 1 10750 10751 10752
3585 1 10753 10754 10755
3586 1 10756 10757 10758
3587 1 10759 10760 10761
3588 1 10762 10763 10764
3589 1 10765 10766 10767
3590 1 10768 10769 10770
3591 1 10771 10772 10773
3592 1 10774 10775 10776
3593 1 10777 10778 10779
3594 1 10780 10781 10782
3595 1 10783 10784 10785
3596 1 10786 10787 10788
3597 1 10789 10790 10791
3598 1 10792 10793 10794
3599 1 10795 10796 10797
3600 1 10798 10799 10800
3601 1 10801 10802 10803
3602 1 10804 10805 10806
3603 1 10807 10808 10809
3604 1 10810 10811 10812
3605 1 10813 10814 10815
3606 1 10816 10817 10818
3607 1 10819 10820 10821
3608 1 10822 10823 10824
3609 1 10825 10826 10827
3610 1 10828 10829 10830
3611 1 10831 10832 10833
3612 1 10834 10835 10836
3613 1 10837 10838 10839
3614 1 10840 10841 10842
3615 1 10843 10844 10845
3616 1 10846 10847 10848
3617 1 10849 10850 10851
3618 1 10852 10853 10854
3619 1 10855 10856 10857
3620 1 10858 10859 10860
3621 1 10861 10862 10863
3622 1 10864 10865 10866
3623 1 10867 10868 10869
3624 1 10870 10871 10872
3625 1 10873 10874 10875
3626 1 10876 10877 10878
3627 1 10879 10880 10881
3628 1 10882 10883 10884
3629 1 10885 10886 10887
3630 1 10888 10889 10890
3631 1 10891 10892 10893
3632 1 10894 10895 10896
3633 1 10897 10898 10899
3634 1 10900 10901 10902
3635 1 10903 10904 10905
3636 1 10906 10907 10908
3637 1 10909 10910 10911
3638 1 10912 10913 10914
3639 1 10915 10916 10917
3640 1 10918 10919 10920
3641 1 10921 10922 10923
3642 1 10924 10925 10926
3643 1 10927 10928 10929
3644 1 10930 10931 10932
3645 1 10933 10934 10935
3646 1 10936 10937 10938
3647 1 10939 10940 10941
3648 1 10942 10943 10944
3649 1 10945 10946 10947
3650 1 10948 10949 10950
3651 1 10951 10952 10953
3652 1 10954 10955 10956
3653 1 10957 10958 10959
3654 1 10960 10961 10962
3655 1 10963 10964 10965
3656 1 10966 10967 10968
3657 1 10969 10970 10971
3658 1 10972 10973 10974
3659 1 10975 10976 10977
3660 1 10978 10979 10980
3661 1 10981 10982 10983
3662 1 10984 10985 10986
3663 1 10987 10988 10989
3664 1 10990 10991 10992
3665 1 10993 10994 10995
3666 1 10996 10997 10998
3667 1 10999 11000 11001
3668 1 11002 11003 11004
3669 1 11005 11006 11007
3670 1 11008 11009 11010
3671 1 11011 11012 11013
3672 1 11014 11015 11016
3673 1 11017 11018 11019
3674 1 11020 11021 11022
3675 1 11023 11024 11025
3676 1 11026 11027 11028
3677 1 11029 11030 11031
3678 1 11032 11033 11034
3679 1 11035 11036 11037
3680 1 11038 11039 11040
3681 1 11041 11042 11043
3682 1 11044 11045 11046
3683 1 11047 11048 11049
3684 1 11050 11051 11052
3685 1 11053 11054 11055
3686 1 11056 11057 11058
3687 1 11059 11060 11061
3688 1 11062 11063 11064
3689 1 11065 11066 11067
3690 1 11068 11069 11070
3691 1 11071 11072 11073
3692 1 11074 11075 11076
3693 1 11077 11078 11079
3694 1 11080 11081 11082
3695 1 11083 11084 11085
3696 1 11086 11087 11088
3697 1 11089 11090 11091
3698 1 11092 11093 11094
3699 1 11095 11096 11097
3700 1 11098 11099 11100
3701 1 11101 11102 11103
3702 1 11104 11105 11106
3703 1 11107 11108 11109
3704 1 11110 11111 11112
3705 1 11113 11114 11115
3706 1 11116 11117 11118
3707 1 11119 11120 11121
3708 1 11122 11123 11124
3709 1 11125 11126 11127
3710 1 11128 11129 11130
3711 1 11131 11132 11133
3712 1 11134 11135 11136
3713 1 11137 11138 11139
3714 1 11140 11141 11142
3715 1 11143 11144 11145
3716 1 11146 11147 11148
3717 1 11149 11150 11151
3718 1 11152 11153 11154
3719 1 11155 11156 11157
3720 1 11158 11159 11160
3721 1 11161 11162 11163
3722 1 11164 11165 11166
3723 1 11167 11168 11169
3724 1 11170 11171 11172
3725 1 11173 11174 11175
3726 1 11176 11177 11178
3727 1 11179 11180 11181
3728 1 11182 11183 11184
3729 1 11185 11186 11187
3730 1 11188 11189 11190
3731 1 11191 11192 11193
3732 1 11194 11195 11196
3733 1 11197 11198 11199
3734 1 11200 11201 11202
3735 1 11203 11204 11205
3736 1 11206 11207 11208
3737 1 11209 11210 11211
3738 1 11212 11213 11214
3739 1 11215 11216 11217
3740 1 11218 11219 11220
3741 1 11221 11222 11223
3742 1 11224 11225 11226
3743 1 11227 11228 11229
3744 1 11230 11231 11232
3745 1 11233 11234 11235
3746 1 11236 11237 11238
3747 1 11239 11240 11241
3748 1 11242 11243 11244
3749 1 11245 11246 11247
3750 1 11248 11249 11250
3751 1 11251 11252 11253
3752 1 11254 11255 11256
3753 1 11257 11258 11259
3754 1 11260 11261 11262
3755 1 11263 11264 11265
3756 1 11266 11267 11268
3757 1 11269 11270 11271
3758 1 11272 11273 11274
3759 1 11275 11276 11277
3760 1 11278 11279 11280
3761 1 11281 11282 11283
3762 1 11284 11285 11286
3763 1 11287 11288 11289
3764 1 11290 11291 11292
3765 1 11293 11294 11295
3766 1 11296 11297 11298
3767 1 11299 11300 11301
3768 1 11302 11303 11304
3769 1 11305 11306 11307
3770 1 11308 11309 11310
3771 1 11311 11312 11313
3772 1 11314 11315 11316
3773 1 11317 11318 11319
3774 1 11320 11321 11322
3775 1 11323 11324 11325
3776 1 11326 11327 11328
3777 1 11329 11330 11331
3778 1 11332 11333 11334
3779 1 11335 11336 11337
3780 1 11338 11339 11340
3781 1 11341 11342 11343
3782 1 11344 11345 11346
3783 1 11347 11348 11349
3784 1 11350 11351 11352
3785 1 11353 11354 11355
3786 1 11356 11357 11358
3787 1 11359 11360 11361
3788 1 11362 11363 11364
3789 1 11365 11366 11367
3790 1 11368 11369 11370
3791 1 11371 11372 11373
3792 1 11374 11375 11376
3793 1 11377 11378 11379
3794 1 11380 11381 11382
3795 1 11383 11384 11385
3796 1 11386 11387 11388
3797 1 11389 11390 11391
3798 1 11392 11393 11394
3799 1 11395 11396 11397
3800 1 11398 11399 11400
3801 1 11401 11402 11403
3802 1 11404 11405 11406
3803 1 11407 11408 11409
3804 1 11410 11411 11412
3805 1 11413 11414 11415
3806 1 11416 11417 11418
3807 1 11419 11420 11421
3808 1 11422 11423 11424
3809 1 11425 11426 11427
3810 1 11428 11429 11430
3811 1 11431 11432 11433
3812 1 11434 11435 11436
3813 1 11437 11438 11439
3814 1 11440 11441 11442
3815 1 11443 11444 11445
3816 1 11446 11447 11448
3817 1 11449 11450 11451
3818 1 11452 11453 11454
3819 1 11455 11456 11457
3820 1 11458 11459 11460
3821 1 11461 11462 11463
3822 1 11464 11465 11466
3823 1 11467 11468 11469
3824 1 11470 11471 11472
3825 1 11473 11474 11475
3826 1 11476 11477 11478
3827 1 11479 11480 11481
3828 1 11482 11483 11484
3829 1 11485 11486 11487
3830 1 11488 11489 11490
3831 1 11491 11492 11493
3832 1 11494 11495 11496
3833 1 11497 11498 11499
3834 1 11500 11501 11502
3835 1 11503 11504 11505
3836 1 11506 11507 11508
3837 1 11509 11510 11511
3838 1 11512 11513 11514
3839 1 11515 11516 11517
3840 1 11518 11519 11520
3841 1 11521 11522 11523
3842 1 11524 11525 11526
3843 1 11527 11528 11529
3844 1 11530 11531 11532
3845 1 11533 11534 11535
3846 1 11536 11537 11538
3847 1 11539 11540 11541
3848 1 11542 11543 11544
3849 1 11545 11546 11547
3850 1 11548 11549 11550
3851 1 11551 11552 11553
3852 1 11554 11555 11556
3853 1 11557 11558 11559
3854 1 11560 11561 11562
3855 1 11563 11564 11565
3856 1 11566 11567 11568
3857 1 11569 11570 11571
3858 1 11572 11573 11574
3859 1 11575 11576 11577
3860 1 11578 11579 11580
3861 1 11581 11582 11583
3862 1 11584 11585 11586
3863 1 11587 11588 11589
3864 1 11590 11591 11592
3865 1 11593 11594 11595
3866 1 11596 11597 11598
3867 1 11599 11600 11601
3868 1 11602 11603 11604
3869 1 11605 11606 11607
3870 1 11608 11609 11610
3871 1 11611 11612 11613
3872 1 11614 11615 11616
3873 1 11617 11618 11619
3874 1 11620 11621 11622
3875 1 11623 11624 11625
3876 1 11626 11627 11628
3877 1 11629 11630 11631
3878 1 11632 11633 11634
3879 1 11635 11636 11637
3880 1 11638 11639 11640
3881 1 11641 11642 11643
3882 1 11644 11645 11646
3883 1 11647 11648 11649
3884 1 11650 11651 11652
3885 1 11653 11654 11655
3886 1 11656 11657 11658
3887 1 11659 11660 11661
3888 1 11662 11663 11664
3889 1 11665 11666 11667
3890 1 11668 11669 11670
3891 1 11671 11672 11673
3892 1 11674 11675 11676
3893 1 11677 11678 11679
3894 1 11680 11681 11682
3895 1 11683 11684 11685
3896 1 11686 11687 11688
3897 1 11689 11690 11691
3898 1 11692 11693 11694
3899 1 11695 11696 11697
3900 1 11698 11699 11700
3901 1 11701 11702 11703
3902 1 11704 11705 11706
3903 1 11707 11708 11709
3904 1 11710 11711 11712
3905 1 11713 11714 11715
3906 1 11716 11717 11718
3907 1 11719 11720 11721
3908 1 11722 11723 11724
3909 1 11725 11726 11727
3910 1 11728 11729 11730
3911 1 11731 11732 11733
3912 1 11734 11735 11736
3913 1 11737 11738 11739
3914 1 11740 11741 11742
3915 1 11743 11744 11745
3916 1 11746 11747 11748
3917 1 11749 11750 11751
3918 1 11752 11753 11754
3919 1 11755 11756 11757
3920 1 11758 11759 11760
3921 1 11761 11762 11763
3922 1 11764 11765 11766
3923 1 11767 11768 11769
3924 1 11770 11771 11772
3925 1 11773 11774 11775
3926 1 11776 11777 11778
3927 1 11779 11780 11781
3928 1 11782 11783 11784
3929 1 11785 11786 11787
3930 1 11788 11789 11790
3931 1 11791 11792 11793
3932 1 11794 11795 11796
3933 1 11797 11798 11799
3934 1 11800 11801 11802
3935 1 11803 11804 11805
3936 1 11806 11807 11808
3937 1 11809 11810 11811
3938 1 11812 11813 11814
3939 1 11815 11816 11817
3940 1 11818 11819 11820
3941 1 11821 11822 11823
3942 1 11824 11825 11826
3943 1 11827 11828 11829
3944 1 11830 11831 11832
3945 1 11833 11834 11835
3946 1 11836 11837 11838
3947 1 11839 11840 11841
3948 1 11842 11843 11844
3949 1 11845 11846 11847
3950 1 11848 11849 11850
3951 1 11851 11852 11853
3952 1 11854 11855 11856
3953 1 11857 11858 11859
3954 1 11860 11861 11862
3955 1 11863 11864 11865
3956 1 11866 11867 11868
3957 1 11869 11870 11871
3958 1 11872 11873 11874
3959 1 11875 11876 11877
3960 1 11878 11879 11880
3961 1 11881 11882 11883
3962 1 11884 11885 11886
3963 1 11887 11888 11889
3964 1 11890 11891 11892
3965 1 11893 11894 11895
3966 1 11896 11897 11898
3967 1 11899 11900 11901
3968 1 11902 11903 11904
3969 1 11905 11906 11907
3970 1 11908 11909 11910
3971 1 11911 11912 11913
3972 1 11914 11915 11916
3973 1 11917 11918 11919
3974 1 11920 11921 11922
3975 1 11923 11924 11925
3976 1 11926 11927 11928
3977 1 11929 11930 11931
3978 1 11932 11933 11934
3979 1 11935 11936 11937
3980 1 11938 11939 11940
3981 1 11941 11942 11943
3982 1 11944 11945 11946
3983 1 11947 11948 11949
3984 1 11950 11951 11952
3985 1 11953 11954 11955
3986 1 11956 11957 11958
3987 1 11959 11960 11961
3988 1 11962 11963 11964
3989 1 11965 11966 11967
3990 1 11968 11969 11970
3991 1 11971 11972 11973
3992 1 11974 11975 11976
3993 1 11977 11978 11979
3994 1 11980 11981 11982
3995 1 11983 11984 11985
3996 1 11986 11987 11988
3997 1 11989 11990 11991
3998 1 11992 11993 11994
3999 1 11995 11996 11997
4000 1 11998 11999 12000
4001 1 12001 12002 12003
4002 1 12004 12005 12006
4003 1 12007 12008 12009
4004 1 12010 12011 12012
4005 1 12013 12014 12015
4006 1 12016 12017 12018
4007 1 12019 12020 12021
4008 1 12022 12023 12024
4009 1 12025 12026 12027
4010 1 12028 12029 12030
4011 1 12031 12032 12033
4012 1 12034 12035 12036
4013 1 12037 12038 12039
4014 1 12040 12041 12042
4015 1 12043 12044 12045
4016 1 12046 12047 12048
4017 1 12049 12050 12051
4018 1 12052 12053 12054
4019 1 12055 12056 12057
4020 1 12058 12059 12060
4021 1 12061 12062 12063
4022 1 12064 12065 12066
4023 1 12067 12068 12069
4024 1 12070 12071 12072
4025 1 12073 12074 12075
4026 1 12076 12077 12078
4027 1 12079 12080 12081
4028 1 12082 12083 12084
4029 1 12085 12086 12087
4030 1 12088 12089 12090
4031 1 12091 12092 12093
4032 1 12094 12095 12096
4033 1 12097 12098 12099
4034 1 12100 12101 12102
4035 1 12103 12104 12105
4036 1 12106 12107 12108
4037 1 12109 12110 12111
4038 1 12112 12113 12114
4039 1 12115 12116 12117
4040 1 12118 12119 12120
4041 1 12121 12122 12123
4042 1 12124 12125 12126
4043 1 12127 12128 12129
4044 1 12130 12131 12132
4045 1 12133 12134 12135
4046 1 12136 12137 12138
4047 1 12139 12140 12141
4048 1 12142 12143 12144
4049 1 12145 12146 12147
4050 1 12148 12149 12150
4051 1 12151 12152 12153
4052 1 12154 12155 12156
4053 1 12157 12158 12159
4054 1 12160 12161 12162
4055 1 12163 12164 12165
4056 1 12166 12167 12168
4057 1 12169 12170 12171
4058 1 12172 12173 12174
4059 1 12175 12176 12177
4060 1 12178 12179 12180
4061 1 12181 12182 12183
4062 1 12184 12185 12186
4063 1 12187 12188 12189
4064 1 12190 12191 12192
4065 1 12193 12194 12195
4066 1 12196 12197 12198
4067 1 12199 12200 12201
4068 1 12202 12203 12204
4069 1 12205 12206 12207
4070 1 12208 12209 12210
4071 1 12211 12212 12213
4072 1 12214 12215 12216
4073 1 12217 12218 12219
4074 1 12220 12221 12222
4075 1 12223 12224 12225
4076 1 12226 12227 12228
4077 1 12229 12230 12231
4078 1 12232 12233 12234
4079 1 12235 12236 12237
4080 1 12238 12239 12240
