400
Lattice="23.22664106805878 0.0 0.0 0.0 23.22664106805878 0.0 0.0 0.0 23.22664106805878" Properties=species:S:1:pos:R:3 pbc="T T T"
Na       7.14583188       3.28526458       0.03106068
Na       8.54714984       8.16339564      13.11298672
Na       1.57672102       6.10309987      15.03701204
Na       3.32997373       3.16508245       7.13569156
Na       4.91057277       1.00890766      12.71985098
Na      11.33026073       6.36655289       2.85664566
Na      10.61481908       2.71069683      15.04291717
Na       8.21490680       4.48876063      16.51267593
Na       0.88858266      11.49622351       5.46861885
Na       2.74273059       8.10656668      13.97992993
Na       7.30284965       9.09218399       7.51919178
Na       5.45414651       6.92954055       9.12464158
Na       5.41340586       5.48733113      20.57943869
Na       3.12500057      10.77252737      15.50716849
Na       2.32441072       3.19873535      14.65400392
Na       9.12996414       4.55847928       5.09619869
Na      10.59148428       0.14839263      20.01718124
Na       0.79718011       3.39814467       8.31697193
Na       9.58110352       0.89886902       7.86462612
Na       5.76041967       7.52260152      15.15849585
Na      10.61886695       6.22556786      20.57467649
Na       4.63426974       4.59576733      10.46075705
Na       5.03026281      10.52719454      18.99362504
Na       3.36915873       6.93927131       3.23743143
Na       1.85059532       0.40847480      22.76592490
Na       1.91536922       0.57646152      10.55030234
Na       5.90124596       7.77729208       2.23035245
Na       4.52827897       9.56419769      10.36394146
Na       6.12606957       1.37486710       7.47022046
Na       8.31308755       6.51899101      20.69928747
Na       4.96383801      10.77467037       2.50035349
Na       8.29221323       0.94791178       3.72023945
Na      10.78379792       5.74521237      13.72915232
Na       8.26594174       9.40466389      18.99394252
Na      11.49463611       9.68428458      11.89059267
Na       8.52587867       8.95765175       1.66707906
Na       4.71852899       1.44258563      20.08305838
Na       2.19580743       5.84463923       8.28555726
Na       2.98507911       2.31398150       1.61825060
Na       8.28697481       4.16385932       9.61383096
Na       5.97178212       4.05471756       5.46452335
Na       7.33066092       1.83709448      18.81520116
Na      10.68974441       9.70476206       4.07499184
Na       1.87207286       5.11032338      20.69420779
Na       2.47494397       7.95735098      19.80383454
Na      11.06921263       7.57526355       7.55698780
Na       2.29332941       9.53070353       2.25438570
Na      11.09516664       9.52316338      19.08124958
Na      11.46344368       3.27680373       1.72765428
Na       8.55127708      11.32367302      14.91451230
Cl       6.61927507       1.46289643      22.54368875
Cl       9.07829423       3.64298541      13.36100226
Cl       1.76351844       1.60396876       6.36873874
Cl       4.15846215       6.50448217      12.16814974
Cl       5.64253133       2.90724883       9.89253097
Cl       7.97981270       3.04436853       5.92266317
Cl       9.61269280       5.33346435      18.26024575
Cl       7.64776809      11.47947643       8.80492313
Cl       7.69445355       7.13778375      16.05486947
Cl       3.08587113       3.37095249      20.82453341
Cl       2.13915308       9.54443455      11.46829637
Cl       2.64921679       3.36873013      10.73801251
Cl       6.78744434       9.95446024       2.50127419
Cl       1.41085348       7.82684280       5.66258338
Cl       9.24870173       1.31768891      16.98445153
Cl       1.29553673       7.02923727      22.81116583
Cl       6.76482388       7.66890433      21.69966761
Cl      10.23797007       7.96544672       0.08296869
Cl      11.03881390      10.48639834       7.54951114
Cl       6.78653159      10.73998565      17.14223919
Cl       1.15865514      10.57021311      17.72592656
Cl       6.70001823       8.70438191      11.85459041
Cl       3.26751744       0.16565959       2.76281438
Cl       4.64188133      11.42471110       8.34510067
Cl       6.78814280       4.35361724      19.18887537
Cl       0.48457560       4.04990773      15.50527948
Cl       0.07518884       1.55535460      21.43917510
Cl       6.91620638       5.40588158       9.51582482
Cl      10.13439215       1.80489404       4.42350574
Cl       8.85074029      10.72871511      22.75116207
Cl       1.75036682       4.02613640       3.17128442
Cl       4.14939809       5.43293883       6.84354627
Cl       4.71502877       2.72199913       4.12636014
Cl       2.48564305       1.16124260      14.26985286
Cl       6.11148135       5.52834164       1.86485336
Cl      10.22527086       7.87031378      10.91240439
Cl       0.68136015      10.29170360       0.93724603
Cl       3.87086477       8.53714921       0.33274625
Cl      10.73982691       5.12270511       7.16828090
Cl       3.45756109       6.07829673      17.56036063
Cl       5.21154401       8.47452624       5.81546598
Cl       9.72992236       9.59967611      16.14360519
Cl       4.34686285       9.17464948      16.33044229
Cl       9.77548077       4.81437627       1.19242392
Cl       3.27681167      11.54511547      20.22989298
Cl       9.10924855       8.65374382       5.92506015
Cl       5.46362330       1.72118245      16.66554266
Cl       0.21541667       7.31914432      17.12033306
Cl       0.96387309       6.04392950      11.47372528
Cl      10.63220112       0.70163126      11.81496888
Na       7.14583188      14.89858511       0.03106068
Na       8.54714984      19.77671617      13.11298672
Na       1.57672102      17.71642041      15.03701204
Na       3.32997373      14.77840298       7.13569156
Na       4.91057277      12.62222820      12.71985098
Na      11.33026073      17.97987342       2.85664566
Na      10.61481908      14.32401737      15.04291717
Na       8.21490680      16.10208116      16.51267593
Na       0.88858266      23.10954405       5.46861885
Na       2.74273059      19.71988721      13.97992993
Na       7.30284965      20.70550453       7.51919178
Na       5.45414651      18.54286108       9.12464158
Na       5.41340586      17.10065167      20.57943869
Na       3.12500057      22.38584791      15.50716849
Na       2.32441072      14.81205588      14.65400392
Na       9.12996414      16.17179981       5.09619869
Na      10.59148428      11.76171317      20.01718124
Na       0.79718011      15.01146520       8.31697193
Na       9.58110352      12.51218955       7.86462612
Na       5.76041967      19.13592205      15.15849585
Na      10.61886695      17.83888840      20.57467649
Na       4.63426974      16.20908786      10.46075705
Na       5.03026281      22.14051508      18.99362504
Na       3.36915873      18.55259185       3.23743143
Na       1.85059532      12.02179533      22.76592490
Na       1.91536922      12.18978205      10.55030234
Na       5.90124596      19.39061261       2.23035245
Na       4.52827897      21.17751823      10.36394146
Na       6.12606957      12.98818763       7.47022046
Na       8.31308755      18.13231155      20.69928747
Na       4.96383801      22.38799090       2.50035349
Na       8.29221323      12.56123231       3.72023945
Na      10.78379792      17.35853290      13.72915232
Na       8.26594174      21.01798442      18.99394252
Na      11.49463611      21.29760512      11.89059267
Na       8.52587867      20.57097229       1.66707906
Na       4.71852899      13.05590616      20.08305838
Na       2.19580743      17.45795977       8.28555726
Na       2.98507911      13.92730203       1.61825060
Na       8.28697481      15.77717985       9.61383096
Na       5.97178212      15.66803809       5.46452335
Na       7.33066092      13.45041501      18.81520116
Na      10.68974441      21.31808259       4.07499184
Na       1.87207286      16.72364392      20.69420779
Na       2.47494397      19.57067151      19.80383454
Na      11.06921263      19.18858408       7.55698780
Na       2.29332941      21.14402407       2.25438570
Na      11.09516664      21.13648391      19.08124958
Na      11.46344368      14.89012427       1.72765428
Na       8.55127708      22.93699355      14.91451230
Cl       6.61927507      13.07621696      22.54368875
Cl       9.07829423      15.25630594      13.36100226
Cl       1.76351844      13.21728929       6.36873874
Cl       4.15846215      18.11780270      12.16814974
Cl       5.64253133      14.52056937       9.89253097
Cl       7.97981270      14.65768907       5.92266317
Cl       9.61269280      16.94678488      18.26024575
Cl       7.64776809      23.09279697       8.80492313
Cl       7.69445355      18.75110429      16.05486947
Cl       3.08587113      14.98427302      20.82453341
Cl       2.13915308      21.15775508      11.46829637
Cl       2.64921679      14.98205066      10.73801251
Cl       6.78744434      21.56778078       2.50127419
Cl       1.41085348      19.44016334       5.66258338
Cl       9.24870173      12.93100945      16.98445153
Cl       1.29553673      18.64255780      22.81116583
Cl       6.76482388      19.28222487      21.69966761
Cl      10.23797007      19.57876726       0.08296869
Cl      11.03881390      22.09971887       7.54951114
Cl       6.78653159      22.35330619      17.14223919
Cl       1.15865514      22.18353364      17.72592656
Cl       6.70001823      20.31770245      11.85459041
Cl       3.26751744      11.77898012       2.76281438
Cl       4.64188133      23.03803163       8.34510067
Cl       6.78814280      15.96693777      19.18887537
Cl       0.48457560      15.66322826      15.50527948
Cl       0.07518884      13.16867513      21.43917510
Cl       6.91620638      17.01920212       9.51582482
Cl      10.13439215      13.41821458       4.42350574
Cl       8.85074029      22.34203564      22.75116207
Cl       1.75036682      15.63945693       3.17128442
Cl       4.14939809      17.04625937       6.84354627
Cl       4.71502877      14.33531966       4.12636014
Cl       2.48564305      12.77456314      14.26985286
Cl       6.11148135      17.14166217       1.86485336
Cl      10.22527086      19.48363431      10.91240439
Cl       0.68136015      21.90502413       0.93724603
Cl       3.87086477      20.15046975       0.33274625
Cl      10.73982691      16.73602564       7.16828090
Cl       3.45756109      17.69161727      17.56036063
Cl       5.21154401      20.08784678       5.81546598
Cl       9.72992236      21.21299664      16.14360519
Cl       4.34686285      20.78797001      16.33044229
Cl       9.77548077      16.42769680       1.19242392
Cl       3.27681167      23.15843600      20.22989298
Cl       9.10924855      20.26706435       5.92506015
Cl       5.46362330      13.33450298      16.66554266
Cl       0.21541667      18.93246486      17.12033306
Cl       0.96387309      17.65725003      11.47372528
Cl      10.63220112      12.31495180      11.81496888
Na      18.75915241       3.28526458       0.03106068
Na      20.16047037       8.16339564      13.11298672
Na      13.19004155       6.10309987      15.03701204
Na      14.94329427       3.16508245       7.13569156
Na      16.52389330       1.00890766      12.71985098
Na      22.94358127       6.36655289       2.85664566
Na      22.22813961       2.71069683      15.04291717
Na      19.82822733       4.48876063      16.51267593
Na      12.50190320      11.49622351       5.46861885
Na      14.35605112       8.10656668      13.97992993
Na      18.91617019       9.09218399       7.51919178
Na      17.06746705       6.92954055       9.12464158
Na      17.02672640       5.48733113      20.57943869
Na      14.73832110      10.77252737      15.50716849
Na      13.93773126       3.19873535      14.65400392
Na      20.74328467       4.55847928       5.09619869
Na      22.20480482       0.14839263      20.01718124
Na      12.41050064       3.39814467       8.31697193
Na      21.19442405       0.89886902       7.86462612
Na      17.37374021       7.52260152      15.15849585
Na      22.23218749       6.22556786      20.57467649
Na      16.24759028       4.59576733      10.46075705
Na      16.64358334      10.52719454      18.99362504
Na      14.98247926       6.93927131       3.23743143
Na      13.46391586       0.40847480      22.76592490
Na      13.52868976       0.57646152      10.55030234
Na      17.51456649       7.77729208       2.23035245
Na      16.14159951       9.56419769      10.36394146
Na      17.73939010       1.37486710       7.47022046
Na      19.92640809       6.51899101      20.69928747
Na      16.57715855      10.77467037       2.50035349
Na      19.90553377       0.94791178       3.72023945
Na      22.39711846       5.74521237      13.72915232
Na      19.87926228       9.40466389      18.99394252
Na      23.10795665       9.68428458      11.89059267
Na      20.13919920       8.95765175       1.66707906
Na      16.33184952       1.44258563      20.08305838
Na      13.80912796       5.84463923       8.28555726
Na      14.59839964       2.31398150       1.61825060
Na      19.90029534       4.16385932       9.61383096
Na      17.58510266       4.05471756       5.46452335
Na      18.94398145       1.83709448      18.81520116
Na      22.30306494       9.70476206       4.07499184
Na      13.48539339       5.11032338      20.69420779
Na      14.08826450       7.95735098      19.80383454
Na      22.68253317       7.57526355       7.55698780
Na      13.90664995       9.53070353       2.25438570
Na      22.70848717       9.52316338      19.08124958
Na      23.07676422       3.27680373       1.72765428
Na      20.16459762      11.32367302      14.91451230
Cl      18.23259561       1.46289643      22.54368875
Cl      20.69161477       3.64298541      13.36100226
Cl      13.37683897       1.60396876       6.36873874
Cl      15.77178269       6.50448217      12.16814974
Cl      17.25585187       2.90724883       9.89253097
Cl      19.59313324       3.04436853       5.92266317
Cl      21.22601333       5.33346435      18.26024575
Cl      19.26108862      11.47947643       8.80492313
Cl      19.30777409       7.13778375      16.05486947
Cl      14.69919167       3.37095249      20.82453341
Cl      13.75247362       9.54443455      11.46829637
Cl      14.26253732       3.36873013      10.73801251
Cl      18.40076487       9.95446024       2.50127419
Cl      13.02417402       7.82684280       5.66258338
Cl      20.86202227       1.31768891      16.98445153
Cl      12.90885727       7.02923727      22.81116583
Cl      18.37814441       7.66890433      21.69966761
Cl      21.85129060       7.96544672       0.08296869
Cl      22.65213444      10.48639834       7.54951114
Cl      18.39985212      10.73998565      17.14223919
Cl      12.77197567      10.57021311      17.72592656
Cl      18.31333876       8.70438191      11.85459041
Cl      14.88083797       0.16565959       2.76281438
Cl      16.25520186      11.42471110       8.34510067
Cl      18.40146333       4.35361724      19.18887537
Cl      12.09789614       4.04990773      15.50527948
Cl      11.68850937       1.55535460      21.43917510
Cl      18.52952691       5.40588158       9.51582482
Cl      21.74771269       1.80489404       4.42350574
Cl      20.46406083      10.72871511      22.75116207
Cl      13.36368735       4.02613640       3.17128442
Cl      15.76271863       5.43293883       6.84354627
Cl      16.32834931       2.72199913       4.12636014
Cl      14.09896358       1.16124260      14.26985286
Cl      17.72480188       5.52834164       1.86485336
Cl      21.83859140       7.87031378      10.91240439
Cl      12.29468069      10.29170360       0.93724603
Cl      15.48418530       8.53714921       0.33274625
Cl      22.35314745       5.12270511       7.16828090
Cl      15.07088163       6.07829673      17.56036063
Cl      16.82486454       8.47452624       5.81546598
Cl      21.34324290       9.59967611      16.14360519
Cl      15.96018338       9.17464948      16.33044229
Cl      21.38880131       4.81437627       1.19242392
Cl      14.89013220      11.54511547      20.22989298
Cl      20.72256909       8.65374382       5.92506015
Cl      17.07694383       1.72118245      16.66554266
Cl      11.82873721       7.31914432      17.12033306
Cl      12.57719363       6.04392950      11.47372528
Cl      22.24552166       0.70163126      11.81496888
Na      18.75915241      14.89858511       0.03106068
Na      20.16047037      19.77671617      13.11298672
Na      13.19004155      17.71642041      15.03701204
Na      14.94329427      14.77840298       7.13569156
Na      16.52389330      12.62222820      12.71985098
Na      22.94358127      17.97987342       2.85664566
Na      22.22813961      14.32401737      15.04291717
Na      19.82822733      16.10208116      16.51267593
Na      12.50190320      23.10954405       5.46861885
Na      14.35605112      19.71988721      13.97992993
Na      18.91617019      20.70550453       7.51919178
Na      17.06746705      18.54286108       9.12464158
Na      17.02672640      17.10065167      20.57943869
Na      14.73832110      22.38584791      15.50716849
Na      13.93773126      14.81205588      14.65400392
Na      20.74328467      16.17179981       5.09619869
Na      22.20480482      11.76171317      20.01718124
Na      12.41050064      15.01146520       8.31697193
Na      21.19442405      12.51218955       7.86462612
Na      17.37374021      19.13592205      15.15849585
Na      22.23218749      17.83888840      20.57467649
Na      16.24759028      16.20908786      10.46075705
Na      16.64358334      22.14051508      18.99362504
Na      14.98247926      18.55259185       3.23743143
Na      13.46391586      12.02179533      22.76592490
Na      13.52868976      12.18978205      10.55030234
Na      17.51456649      19.39061261       2.23035245
Na      16.14159951      21.17751823      10.36394146
Na      17.73939010      12.98818763       7.47022046
Na      19.92640809      18.13231155      20.69928747
Na      16.57715855      22.38799090       2.50035349
Na      19.90553377      12.56123231       3.72023945
Na      22.39711846      17.35853290      13.72915232
Na      19.87926228      21.01798442      18.99394252
Na      23.10795665      21.29760512      11.89059267
Na      20.13919920      20.57097229       1.66707906
Na      16.33184952      13.05590616      20.08305838
Na      13.80912796      17.45795977       8.28555726
Na      14.59839964      13.92730203       1.61825060
Na      19.90029534      15.77717985       9.61383096
Na      17.58510266      15.66803809       5.46452335
Na      18.94398145      13.45041501      18.81520116
Na      22.30306494      21.31808259       4.07499184
Na      13.48539339      16.72364392      20.69420779
Na      14.08826450      19.57067151      19.80383454
Na      22.68253317      19.18858408       7.55698780
Na      13.90664995      21.14402407       2.25438570
Na      22.70848717      21.13648391      19.08124958
Na      23.07676422      14.89012427       1.72765428
Na      20.16459762      22.93699355      14.91451230
Cl      18.23259561      13.07621696      22.54368875
Cl      20.69161477      15.25630594      13.36100226
Cl      13.37683897      13.21728929       6.36873874
Cl      15.77178269      18.11780270      12.16814974
Cl      17.25585187      14.52056937       9.89253097
Cl      19.59313324      14.65768907       5.92266317
Cl      21.22601333      16.94678488      18.26024575
Cl      19.26108862      23.09279697       8.80492313
Cl      19.30777409      18.75110429      16.05486947
Cl      14.69919167      14.98427302      20.82453341
Cl      13.75247362      21.15775508      11.46829637
Cl      14.26253732      14.98205066      10.73801251
Cl      18.40076487      21.56778078       2.50127419
Cl      13.02417402      19.44016334       5.66258338
Cl      20.86202227      12.93100945      16.98445153
Cl      12.90885727      18.64255780      22.81116583
Cl      18.37814441      19.28222487      21.69966761
Cl      21.85129060      19.57876726       0.08296869
Cl      22.65213444      22.09971887       7.54951114
Cl      18.39985212      22.35330619      17.14223919
Cl      12.77197567      22.18353364      17.72592656
Cl      18.31333876      20.31770245      11.85459041
Cl      14.88083797      11.77898012       2.76281438
Cl      16.25520186      23.03803163       8.34510067
Cl      18.40146333      15.96693777      19.18887537
Cl      12.09789614      15.66322826      15.50527948
Cl      11.68850937      13.16867513      21.43917510
Cl      18.52952691      17.01920212       9.51582482
Cl      21.74771269      13.41821458       4.42350574
Cl      20.46406083      22.34203564      22.75116207
Cl      13.36368735      15.63945693       3.17128442
Cl      15.76271863      17.04625937       6.84354627
Cl      16.32834931      14.33531966       4.12636014
Cl      14.09896358      12.77456314      14.26985286
Cl      17.72480188      17.14166217       1.86485336
Cl      21.83859140      19.48363431      10.91240439
Cl      12.29468069      21.90502413       0.93724603
Cl      15.48418530      20.15046975       0.33274625
Cl      22.35314745      16.73602564       7.16828090
Cl      15.07088163      17.69161727      17.56036063
Cl      16.82486454      20.08784678       5.81546598
Cl      21.34324290      21.21299664      16.14360519
Cl      15.96018338      20.78797001      16.33044229
Cl      21.38880131      16.42769680       1.19242392
Cl      14.89013220      23.15843600      20.22989298
Cl      20.72256909      20.26706435       5.92506015
Cl      17.07694383      13.33450298      16.66554266
Cl      11.82873721      18.93246486      17.12033306
Cl      12.57719363      17.65725003      11.47372528
Cl      22.24552166      12.31495180      11.81496888
