800
Lattice="29.263734 0.0 0.0 0.0 29.263734 0.0 0.0 0.0 29.263734" Properties=species:S:1:pos:R:3 pbc="T T T"
Na       9.00318400       4.13917400      14.65143400
Na      10.76873400      10.28523400       8.26066400
Na       1.98654400       7.68942400       9.47272400
Na       4.19550400       3.98775400       4.49520400
Na       6.18693400       1.27114400       8.01300400
Na      14.27523400       8.02135400       1.79957400
Na      13.37383400       3.41526400       9.47644400
Na      10.35013400       5.65548400      10.40233400
Na       1.11954400      14.48433400       3.44501400
Na       3.45562400      10.21363400       8.80680400
Na       9.20101400      11.45543400       4.73679400
Na       6.87179400       8.73067400       5.74816400
Na       6.82046400       6.91360400      12.96423400
Na       3.93725400      13.57253400       9.76890400
Na       2.92857400       4.03015400       9.23144400
Na      11.50303400       5.74332400       3.21040400
Na      13.34443400       0.18696300      12.61003400
Na       1.00438400       4.28139400       5.23936400
Na      12.07143400       1.13250400       4.95440400
Na       7.25767400       9.47788400       9.54925400
Na      13.37893400       7.84372400      12.96123400
Na       5.83881400       5.79030400       6.58986400
Na       6.33773400      13.26343400      11.96523400
Na       4.24487400       8.74293400       2.03945400
Na       2.33160400       0.51464600      14.34163400
Na       2.41321400       0.72629600       6.64627400
Na       7.43510400       9.79877400       1.40503400
Na       5.70527400      12.05013400       6.52887400
Na       7.71836400       1.73222400       4.70594400
Na      10.47383400       8.21341400      13.03973400
Na       6.25404400      13.57523400       1.57512400
Na      10.44753400       1.19429400       2.34360400
Na      13.58673400       7.23851400       8.64882400
Na      10.41443400      11.84913400      11.96543400
Na      14.48233400      12.20143400       7.49060400
Na      10.74193400      11.28593400       1.05019400
Na       5.94497400       1.81754400      12.65153400
Na       2.76654400       7.36378400       5.21957400
Na       3.76096400       2.91543400       1.01943400
Na      10.44093400       5.24613400       6.05633400
Na       7.52397400       5.10862400       3.44243400
Na       9.23605400       2.31459400      11.85283400
Na      13.46823400      12.22723400       2.56708400
Na       2.35866400       6.43860400      13.03653400
Na       3.11823400      10.02563400      12.47563400
Na      13.94633400       9.54423400       4.76060400
Na       2.88941400      12.00793400       1.42017400
Na      13.97903400      11.99843400      12.02043400
Na      14.44303400       4.12851400       1.08835400
Na      10.77393400      14.26693400       9.39555400
Cl       8.33976400       1.84313400      14.20163400
Cl      11.43793400       4.58987400       8.41690400
Cl       2.22189400       2.02087400       4.01205400
Cl       5.23933400       8.19513400       7.66545400
Cl       7.10914400       3.66290400       6.23190400
Cl      10.05393400       3.83566400       3.73104400
Cl      12.11123400       6.71974400      11.50323400
Cl       9.63558400      14.46323400       5.54675400
Cl       9.69440400       8.99304400      10.11393400
Cl       3.88795400       4.24713400      13.11863400
Cl       2.69516400      12.02523400       7.22457400
Cl       3.33780400       4.24433400       6.76452400
Cl       8.55164400      12.54183400       1.57570400
Cl       1.77756400       9.86120400       3.56720400
Cl      11.65263400       1.66018400      10.69953400
Cl       1.63227400       8.85628400      14.37013400
Cl       8.52314400       9.66221400      13.66993400
Cl      12.89903400      10.03583400      14.68413400
Cl      13.90803400      13.21203400       4.75589400
Cl       8.55049400      13.53153400      10.79893400
Cl       1.45981400      13.31763400      11.16663400
Cl       8.44149400      10.96683400       7.46792400
Cl       4.11681400       0.20871800       1.74046400
Cl       5.84840400      14.39423400       5.25708400
Cl       8.55252400       5.48521400      12.08823400
Cl       0.61052700       5.10256400       9.76771400
Cl       0.09473200       1.95962400      13.50583400
Cl       8.71387400       6.81098400       5.99459400
Cl      12.76853400       2.27402400       2.78663400
Cl      11.15123400      13.51733400      14.33233400
Cl       2.20532400       5.07261400       1.99778400
Cl       5.22791400       6.84507400       4.31116400
Cl       5.94056400       3.42950400       2.59944400
Cl       3.13171400       1.46307400       8.98944400
Cl       7.69998400       6.96527400       1.17478400
Cl      12.88303400       9.91597400       6.87438400
Cl       0.85846000      12.96673400       0.59042800
Cl       4.87698400      10.75613400       0.20961700
Cl      13.53133400       6.45420400       4.51573400
Cl       4.35625400       7.65817400      11.06233400
Cl       6.56613400      10.67723400       3.66351400
Cl      12.25893400      12.09483400      10.16983400
Cl       5.47670400      11.55933400      10.28753400
Cl      12.31633400       6.06573400       0.75118000
Cl       4.12852400      14.54593400      12.74403400
Cl      11.47693400      10.90303400       3.73255400
Cl       6.88373400       2.16855400      10.49863400
Cl       0.27140800       9.22154400      10.78513400
Cl       1.21440400       7.61487400       7.22799400
Cl      13.39573400       0.88400000       7.44296400
Na       9.00318400       4.13917400      29.28330100
Na      10.76873400      10.28523400      22.89253100
Na       1.98654400       7.68942400      24.10459100
Na       4.19550400       3.98775400      19.12707100
Na       6.18693400       1.27114400      22.64487100
Na      14.27523400       8.02135400      16.43144100
Na      13.37383400       3.41526400      24.10831100
Na      10.35013400       5.65548400      25.03420100
Na       1.11954400      14.48433400      18.07688100
Na       3.45562400      10.21363400      23.43867100
Na       9.20101400      11.45543400      19.36866100
Na       6.87179400       8.73067400      20.38003100
Na       6.82046400       6.91360400      27.59610100
Na       3.93725400      13.57253400      24.40077100
Na       2.92857400       4.03015400      23.86331100
Na      11.50303400       5.74332400      17.84227100
Na      13.34443400       0.18696300      27.24190100
Na       1.00438400       4.28139400      19.87123100
Na      12.07143400       1.13250400      19.58627100
Na       7.25767400       9.47788400      24.18112100
Na      13.37893400       7.84372400      27.59310100
Na       5.83881400       5.79030400      21.22173100
Na       6.33773400      13.26343400      26.59710100
Na       4.24487400       8.74293400      16.67132100
Na       2.33160400       0.51464600      28.97350100
Na       2.41321400       0.72629600      21.27814100
Na       7.43510400       9.79877400      16.03690100
Na       5.70527400      12.05013400      21.16074100
Na       7.71836400       1.73222400      19.33781100
Na      10.47383400       8.21341400      27.67160100
Na       6.25404400      13.57523400      16.20699100
Na      10.44753400       1.19429400      16.97547100
Na      13.58673400       7.23851400      23.28069100
Na      10.41443400      11.84913400      26.59730100
Na      14.48233400      12.20143400      22.12247100
Na      10.74193400      11.28593400      15.68206100
Na       5.94497400       1.81754400      27.28340100
Na       2.76654400       7.36378400      19.85144100
Na       3.76096400       2.91543400      15.65130100
Na      10.44093400       5.24613400      20.68820100
Na       7.52397400       5.10862400      18.07430100
Na       9.23605400       2.31459400      26.48470100
Na      13.46823400      12.22723400      17.19895100
Na       2.35866400       6.43860400      27.66840100
Na       3.11823400      10.02563400      27.10750100
Na      13.94633400       9.54423400      19.39247100
Na       2.88941400      12.00793400      16.05204100
Na      13.97903400      11.99843400      26.65230100
Na      14.44303400       4.12851400      15.72022100
Na      10.77393400      14.26693400      24.02742100
Cl       8.33976400       1.84313400      28.83350100
Cl      11.43793400       4.58987400      23.04877100
Cl       2.22189400       2.02087400      18.64392100
Cl       5.23933400       8.19513400      22.29732100
Cl       7.10914400       3.66290400      20.86377100
Cl      10.05393400       3.83566400      18.36291100
Cl      12.11123400       6.71974400      26.13510100
Cl       9.63558400      14.46323400      20.17862100
Cl       9.69440400       8.99304400      24.74580100
Cl       3.88795400       4.24713400      27.75050100
Cl       2.69516400      12.02523400      21.85644100
Cl       3.33780400       4.24433400      21.39639100
Cl       8.55164400      12.54183400      16.20757100
Cl       1.77756400       9.86120400      18.19907100
Cl      11.65263400       1.66018400      25.33140100
Cl       1.63227400       8.85628400      29.00200100
Cl       8.52314400       9.66221400      28.30180100
Cl      12.89903400      10.03583400      29.31600100
Cl      13.90803400      13.21203400      19.38776100
Cl       8.55049400      13.53153400      25.43080100
Cl       1.45981400      13.31763400      25.79850100
Cl       8.44149400      10.96683400      22.09979100
Cl       4.11681400       0.20871800      16.37233100
Cl       5.84840400      14.39423400      19.88895100
Cl       8.55252400       5.48521400      26.72010100
Cl       0.61052700       5.10256400      24.39958100
Cl       0.09473200       1.95962400      28.13770100
Cl       8.71387400       6.81098400      20.62646100
Cl      12.76853400       2.27402400      17.41850100
Cl      11.15123400      13.51733400      28.96420100
Cl       2.20532400       5.07261400      16.62965100
Cl       5.22791400       6.84507400      18.94303100
Cl       5.94056400       3.42950400      17.23131100
Cl       3.13171400       1.46307400      23.62131100
Cl       7.69998400       6.96527400      15.80665100
Cl      12.88303400       9.91597400      21.50625100
Cl       0.85846000      12.96673400      15.22229500
Cl       4.87698400      10.75613400      14.84148400
Cl      13.53133400       6.45420400      19.14760100
Cl       4.35625400       7.65817400      25.69420100
Cl       6.56613400      10.67723400      18.29538100
Cl      12.25893400      12.09483400      24.80170100
Cl       5.47670400      11.55933400      24.91940100
Cl      12.31633400       6.06573400      15.38304700
Cl       4.12852400      14.54593400      27.37590100
Cl      11.47693400      10.90303400      18.36442100
Cl       6.88373400       2.16855400      25.13050100
Cl       0.27140800       9.22154400      25.41700100
Cl       1.21440400       7.61487400      21.85986100
Cl      13.39573400       0.88400000      22.07483100
Na       9.00318400      18.77104100      14.65143400
Na      10.76873400      24.91710100       8.26066400
Na       1.98654400      22.32129100       9.47272400
Na       4.19550400      18.61962100       4.49520400
Na       6.18693400      15.90301100       8.01300400
Na      14.27523400      22.65322100       1.79957400
Na      13.37383400      18.04713100       9.47644400
Na      10.35013400      20.28735100      10.40233400
Na       1.11954400      29.11620100       3.44501400
Na       3.45562400      24.84550100       8.80680400
Na       9.20101400      26.08730100       4.73679400
Na       6.87179400      23.36254100       5.74816400
Na       6.82046400      21.54547100      12.96423400
Na       3.93725400      28.20440100       9.76890400
Na       2.92857400      18.66202100       9.23144400
Na      11.50303400      20.37519100       3.21040400
Na      13.34443400      14.81883000      12.61003400
Na       1.00438400      18.91326100       5.23936400
Na      12.07143400      15.76437100       4.95440400
Na       7.25767400      24.10975100       9.54925400
Na      13.37893400      22.47559100      12.96123400
Na       5.83881400      20.42217100       6.58986400
Na       6.33773400      27.89530100      11.96523400
Na       4.24487400      23.37480100       2.03945400
Na       2.33160400      15.14651300      14.34163400
Na       2.41321400      15.35816300       6.64627400
Na       7.43510400      24.43064100       1.40503400
Na       5.70527400      26.68200100       6.52887400
Na       7.71836400      16.36409100       4.70594400
Na      10.47383400      22.84528100      13.03973400
Na       6.25404400      28.20710100       1.57512400
Na      10.44753400      15.82616100       2.34360400
Na      13.58673400      21.87038100       8.64882400
Na      10.41443400      26.48100100      11.96543400
Na      14.48233400      26.83330100       7.49060400
Na      10.74193400      25.91780100       1.05019400
Na       5.94497400      16.44941100      12.65153400
Na       2.76654400      21.99565100       5.21957400
Na       3.76096400      17.54730100       1.01943400
Na      10.44093400      19.87800100       6.05633400
Na       7.52397400      19.74049100       3.44243400
Na       9.23605400      16.94646100      11.85283400
Na      13.46823400      26.85910100       2.56708400
Na       2.35866400      21.07047100      13.03653400
Na       3.11823400      24.65750100      12.47563400
Na      13.94633400      24.17610100       4.76060400
Na       2.88941400      26.63980100       1.42017400
Na      13.97903400      26.63030100      12.02043400
Na      14.44303400      18.76038100       1.08835400
Na      10.77393400      28.89880100       9.39555400
Cl       8.33976400      16.47500100      14.20163400
Cl      11.43793400      19.22174100       8.41690400
Cl       2.22189400      16.65274100       4.01205400
Cl       5.23933400      22.82700100       7.66545400
Cl       7.10914400      18.29477100       6.23190400
Cl      10.05393400      18.46753100       3.73104400
Cl      12.11123400      21.35161100      11.50323400
Cl       9.63558400      29.09510100       5.54675400
Cl       9.69440400      23.62491100      10.11393400
Cl       3.88795400      18.87900100      13.11863400
Cl       2.69516400      26.65710100       7.22457400
Cl       3.33780400      18.87620100       6.76452400
Cl       8.55164400      27.17370100       1.57570400
Cl       1.77756400      24.49307100       3.56720400
Cl      11.65263400      16.29205100      10.69953400
Cl       1.63227400      23.48815100      14.37013400
Cl       8.52314400      24.29408100      13.66993400
Cl      12.89903400      24.66770100      14.68413400
Cl      13.90803400      27.84390100       4.75589400
Cl       8.55049400      28.16340100      10.79893400
Cl       1.45981400      27.94950100      11.16663400
Cl       8.44149400      25.59870100       7.46792400
Cl       4.11681400      14.84058500       1.74046400
Cl       5.84840400      29.02610100       5.25708400
Cl       8.55252400      20.11708100      12.08823400
Cl       0.61052700      19.73443100       9.76771400
Cl       0.09473200      16.59149100      13.50583400
Cl       8.71387400      21.44285100       5.99459400
Cl      12.76853400      16.90589100       2.78663400
Cl      11.15123400      28.14920100      14.33233400
Cl       2.20532400      19.70448100       1.99778400
Cl       5.22791400      21.47694100       4.31116400
Cl       5.94056400      18.06137100       2.59944400
Cl       3.13171400      16.09494100       8.98944400
Cl       7.69998400      21.59714100       1.17478400
Cl      12.88303400      24.54784100       6.87438400
Cl       0.85846000      27.59860100       0.59042800
Cl       4.87698400      25.38800100       0.20961700
Cl      13.53133400      21.08607100       4.51573400
Cl       4.35625400      22.29004100      11.06233400
Cl       6.56613400      25.30910100       3.66351400
Cl      12.25893400      26.72670100      10.16983400
Cl       5.47670400      26.19120100      10.28753400
Cl      12.31633400      20.69760100       0.75118000
Cl       4.12852400      29.17780100      12.74403400
Cl      11.47693400      25.53490100       3.73255400
Cl       6.88373400      16.80042100      10.49863400
Cl       0.27140800      23.85341100      10.78513400
Cl       1.21440400      22.24674100       7.22799400
Cl      13.39573400      15.51586700       7.44296400
Na       9.00318400      18.77104100      29.28330100
Na      10.76873400      24.91710100      22.89253100
Na       1.98654400      22.32129100      24.10459100
Na       4.19550400      18.61962100      19.12707100
Na       6.18693400      15.90301100      22.64487100
Na      14.27523400      22.65322100      16.43144100
Na      13.37383400      18.04713100      24.10831100
Na      10.35013400      20.28735100      25.03420100
Na       1.11954400      29.11620100      18.07688100
Na       3.45562400      24.84550100      23.43867100
Na       9.20101400      26.08730100      19.36866100
Na       6.87179400      23.36254100      20.38003100
Na       6.82046400      21.54547100      27.59610100
Na       3.93725400      28.20440100      24.40077100
Na       2.92857400      18.66202100      23.86331100
Na      11.50303400      20.37519100      17.84227100
Na      13.34443400      14.81883000      27.24190100
Na       1.00438400      18.91326100      19.87123100
Na      12.07143400      15.76437100      19.58627100
Na       7.25767400      24.10975100      24.18112100
Na      13.37893400      22.47559100      27.59310100
Na       5.83881400      20.42217100      21.22173100
Na       6.33773400      27.89530100      26.59710100
Na       4.24487400      23.37480100      16.67132100
Na       2.33160400      15.14651300      28.97350100
Na       2.41321400      15.35816300      21.27814100
Na       7.43510400      24.43064100      16.03690100
Na       5.70527400      26.68200100      21.16074100
Na       7.71836400      16.36409100      19.33781100
Na      10.47383400      22.84528100      27.67160100
Na       6.25404400      28.20710100      16.20699100
Na      10.44753400      15.82616100      16.97547100
Na      13.58673400      21.87038100      23.28069100
Na      10.41443400      26.48100100      26.59730100
Na      14.48233400      26.83330100      22.12247100
Na      10.74193400      25.91780100      15.68206100
Na       5.94497400      16.44941100      27.28340100
Na       2.76654400      21.99565100      19.85144100
Na       3.76096400      17.54730100      15.65130100
Na      10.44093400      19.87800100      20.68820100
Na       7.52397400      19.74049100      18.07430100
Na       9.23605400      16.94646100      26.48470100
Na      13.46823400      26.85910100      17.19895100
Na       2.35866400      21.07047100      27.66840100
Na       3.11823400      24.65750100      27.10750100
Na      13.94633400      24.17610100      19.39247100
Na       2.88941400      26.63980100      16.05204100
Na      13.97903400      26.63030100      26.65230100
Na      14.44303400      18.76038100      15.72022100
Na      10.77393400      28.89880100      24.02742100
Cl       8.33976400      16.47500100      28.83350100
Cl      11.43793400      19.22174100      23.04877100
Cl       2.22189400      16.65274100      18.64392100
Cl       5.23933400      22.82700100      22.29732100
Cl       7.10914400      18.29477100      20.86377100
Cl      10.05393400      18.46753100      18.36291100
Cl      12.11123400      21.35161100      26.13510100
Cl       9.63558400      29.09510100      20.17862100
Cl       9.69440400      23.62491100      24.74580100
Cl       3.88795400      18.87900100      27.75050100
Cl       2.69516400      26.65710100      21.85644100
Cl       3.33780400      18.87620100      21.39639100
Cl       8.55164400      27.17370100      16.20757100
Cl       1.77756400      24.49307100      18.19907100
Cl      11.65263400      16.29205100      25.33140100
Cl       1.63227400      23.48815100      29.00200100
Cl       8.52314400      24.29408100      28.30180100
Cl      12.89903400      24.66770100      29.31600100
Cl      13.90803400      27.84390100      19.38776100
Cl       8.55049400      28.16340100      25.43080100
Cl       1.45981400      27.94950100      25.79850100
Cl       8.44149400      25.59870100      22.09979100
Cl       4.11681400      14.84058500      16.37233100
Cl       5.84840400      29.02610100      19.88895100
Cl       8.55252400      20.11708100      26.72010100
Cl       0.61052700      19.73443100      24.39958100
Cl       0.09473200      16.59149100      28.13770100
Cl       8.71387400      21.44285100      20.62646100
Cl      12.76853400      16.90589100      17.41850100
Cl      11.15123400      28.14920100      28.96420100
Cl       2.20532400      19.70448100      16.62965100
Cl       5.22791400      21.47694100      18.94303100
Cl       5.94056400      18.06137100      17.23131100
Cl       3.13171400      16.09494100      23.62131100
Cl       7.69998400      21.59714100      15.80665100
Cl      12.88303400      24.54784100      21.50625100
Cl       0.85846000      27.59860100      15.22229500
Cl       4.87698400      25.38800100      14.84148400
Cl      13.53133400      21.08607100      19.14760100
Cl       4.35625400      22.29004100      25.69420100
Cl       6.56613400      25.30910100      18.29538100
Cl      12.25893400      26.72670100      24.80170100
Cl       5.47670400      26.19120100      24.91940100
Cl      12.31633400      20.69760100      15.38304700
Cl       4.12852400      29.17780100      27.37590100
Cl      11.47693400      25.53490100      18.36442100
Cl       6.88373400      16.80042100      25.13050100
Cl       0.27140800      23.85341100      25.41700100
Cl       1.21440400      22.24674100      21.85986100
Cl      13.39573400      15.51586700      22.07483100
Na      23.63505100       4.13917400      14.65143400
Na      25.40060100      10.28523400       8.26066400
Na      16.61841100       7.68942400       9.47272400
Na      18.82737100       3.98775400       4.49520400
Na      20.81880100       1.27114400       8.01300400
Na      28.90710100       8.02135400       1.79957400
Na      28.00570100       3.41526400       9.47644400
Na      24.98200100       5.65548400      10.40233400
Na      15.75141100      14.48433400       3.44501400
Na      18.08749100      10.21363400       8.80680400
Na      23.83288100      11.45543400       4.73679400
Na      21.50366100       8.73067400       5.74816400
Na      21.45233100       6.91360400      12.96423400
Na      18.56912100      13.57253400       9.76890400
Na      17.56044100       4.03015400       9.23144400
Na      26.13490100       5.74332400       3.21040400
Na      27.97630100       0.18696300      12.61003400
Na      15.63625100       4.28139400       5.23936400
Na      26.70330100       1.13250400       4.95440400
Na      21.88954100       9.47788400       9.54925400
Na      28.01080100       7.84372400      12.96123400
Na      20.47068100       5.79030400       6.58986400
Na      20.96960100      13.26343400      11.96523400
Na      18.87674100       8.74293400       2.03945400
Na      16.96347100       0.51464600      14.34163400
Na      17.04508100       0.72629600       6.64627400
Na      22.06697100       9.79877400       1.40503400
Na      20.33714100      12.05013400       6.52887400
Na      22.35023100       1.73222400       4.70594400
Na      25.10570100       8.21341400      13.03973400
Na      20.88591100      13.57523400       1.57512400
Na      25.07940100       1.19429400       2.34360400
Na      28.21860100       7.23851400       8.64882400
Na      25.04630100      11.84913400      11.96543400
Na      29.11420100      12.20143400       7.49060400
Na      25.37380100      11.28593400       1.05019400
Na      20.57684100       1.81754400      12.65153400
Na      17.39841100       7.36378400       5.21957400
Na      18.39283100       2.91543400       1.01943400
Na      25.07280100       5.24613400       6.05633400
Na      22.15584100       5.10862400       3.44243400
Na      23.86792100       2.31459400      11.85283400
Na      28.10010100      12.22723400       2.56708400
Na      16.99053100       6.43860400      13.03653400
Na      17.75010100      10.02563400      12.47563400
Na      28.57820100       9.54423400       4.76060400
Na      17.52128100      12.00793400       1.42017400
Na      28.61090100      11.99843400      12.02043400
Na      29.07490100       4.12851400       1.08835400
Na      25.40580100      14.26693400       9.39555400
Cl      22.97163100       1.84313400      14.20163400
Cl      26.06980100       4.58987400       8.41690400
Cl      16.85376100       2.02087400       4.01205400
Cl      19.87120100       8.19513400       7.66545400
Cl      21.74101100       3.66290400       6.23190400
Cl      24.68580100       3.83566400       3.73104400
Cl      26.74310100       6.71974400      11.50323400
Cl      24.26745100      14.46323400       5.54675400
Cl      24.32627100       8.99304400      10.11393400
Cl      18.51982100       4.24713400      13.11863400
Cl      17.32703100      12.02523400       7.22457400
Cl      17.96967100       4.24433400       6.76452400
Cl      23.18351100      12.54183400       1.57570400
Cl      16.40943100       9.86120400       3.56720400
Cl      26.28450100       1.66018400      10.69953400
Cl      16.26414100       8.85628400      14.37013400
Cl      23.15501100       9.66221400      13.66993400
Cl      27.53090100      10.03583400      14.68413400
Cl      28.53990100      13.21203400       4.75589400
Cl      23.18236100      13.53153400      10.79893400
Cl      16.09168100      13.31763400      11.16663400
Cl      23.07336100      10.96683400       7.46792400
Cl      18.74868100       0.20871800       1.74046400
Cl      20.48027100      14.39423400       5.25708400
Cl      23.18439100       5.48521400      12.08823400
Cl      15.24239400       5.10256400       9.76771400
Cl      14.72659900       1.95962400      13.50583400
Cl      23.34574100       6.81098400       5.99459400
Cl      27.40040100       2.27402400       2.78663400
Cl      25.78310100      13.51733400      14.33233400
Cl      16.83719100       5.07261400       1.99778400
Cl      19.85978100       6.84507400       4.31116400
Cl      20.57243100       3.42950400       2.59944400
Cl      17.76358100       1.46307400       8.98944400
Cl      22.33185100       6.96527400       1.17478400
Cl      27.51490100       9.91597400       6.87438400
Cl      15.49032700      12.96673400       0.59042800
Cl      19.50885100      10.75613400       0.20961700
Cl      28.16320100       6.45420400       4.51573400
Cl      18.98812100       7.65817400      11.06233400
Cl      21.19800100      10.67723400       3.66351400
Cl      26.89080100      12.09483400      10.16983400
Cl      20.10857100      11.55933400      10.28753400
Cl      26.94820100       6.06573400       0.75118000
Cl      18.76039100      14.54593400      12.74403400
Cl      26.10880100      10.90303400       3.73255400
Cl      21.51560100       2.16855400      10.49863400
Cl      14.90327500       9.22154400      10.78513400
Cl      15.84627100       7.61487400       7.22799400
Cl      28.02760100       0.88400000       7.44296400
Na      23.63505100       4.13917400      29.28330100
Na      25.40060100      10.28523400      22.89253100
Na      16.61841100       7.68942400      24.10459100
Na      18.82737100       3.98775400      19.12707100
Na      20.81880100       1.27114400      22.64487100
Na      28.90710100       8.02135400      16.43144100
Na      28.00570100       3.41526400      24.10831100
Na      24.98200100       5.65548400      25.03420100
Na      15.75141100      14.48433400      18.07688100
Na      18.08749100      10.21363400      23.43867100
Na      23.83288100      11.45543400      19.36866100
Na      21.50366100       8.73067400      20.38003100
Na      21.45233100       6.91360400      27.59610100
Na      18.56912100      13.57253400      24.40077100
Na      17.56044100       4.03015400      23.86331100
Na      26.13490100       5.74332400      17.84227100
Na      27.97630100       0.18696300      27.24190100
Na      15.63625100       4.28139400      19.87123100
Na      26.70330100       1.13250400      19.58627100
Na      21.88954100       9.47788400      24.18112100
Na      28.01080100       7.84372400      27.59310100
Na      20.47068100       5.79030400      21.22173100
Na      20.96960100      13.26343400      26.59710100
Na      18.87674100       8.74293400      16.67132100
Na      16.96347100       0.51464600      28.97350100
Na      17.04508100       0.72629600      21.27814100
Na      22.06697100       9.79877400      16.03690100
Na      20.33714100      12.05013400      21.16074100
Na      22.35023100       1.73222400      19.33781100
Na      25.10570100       8.21341400      27.67160100
Na      20.88591100      13.57523400      16.20699100
Na      25.07940100       1.19429400      16.97547100
Na      28.21860100       7.23851400      23.28069100
Na      25.04630100      11.84913400      26.59730100
Na      29.11420100      12.20143400      22.12247100
Na      25.37380100      11.28593400      15.68206100
Na      20.57684100       1.81754400      27.28340100
Na      17.39841100       7.36378400      19.85144100
Na      18.39283100       2.91543400      15.65130100
Na      25.07280100       5.24613400      20.68820100
Na      22.15584100       5.10862400      18.07430100
Na      23.86792100       2.31459400      26.48470100
Na      28.10010100      12.22723400      17.19895100
Na      16.99053100       6.43860400      27.66840100
Na      17.75010100      10.02563400      27.10750100
Na      28.57820100       9.54423400      19.39247100
Na      17.52128100      12.00793400      16.05204100
Na      28.61090100      11.99843400      26.65230100
Na      29.07490100       4.12851400      15.72022100
Na      25.40580100      14.26693400      24.02742100
Cl      22.97163100       1.84313400      28.83350100
Cl      26.06980100       4.58987400      23.04877100
Cl      16.85376100       2.02087400      18.64392100
Cl      19.87120100       8.19513400      22.29732100
Cl      21.74101100       3.66290400      20.86377100
Cl      24.68580100       3.83566400      18.36291100
Cl      26.74310100       6.71974400      26.13510100
Cl      24.26745100      14.46323400      20.17862100
Cl      24.32627100       8.99304400      24.74580100
Cl      18.51982100       4.24713400      27.75050100
Cl      17.32703100      12.02523400      21.85644100
Cl      17.96967100       4.24433400      21.39639100
Cl      23.18351100      12.54183400      16.20757100
Cl      16.40943100       9.86120400      18.19907100
Cl      26.28450100       1.66018400      25.33140100
Cl      16.26414100       8.85628400      29.00200100
Cl      23.15501100       9.66221400      28.30180100
Cl      27.53090100      10.03583400      29.31600100
Cl      28.53990100      13.21203400      19.38776100
Cl      23.18236100      13.53153400      25.43080100
Cl      16.09168100      13.31763400      25.79850100
Cl      23.07336100      10.96683400      22.09979100
Cl      18.74868100       0.20871800      16.37233100
Cl      20.48027100      14.39423400      19.88895100
Cl      23.18439100       5.48521400      26.72010100
Cl      15.24239400       5.10256400      24.39958100
Cl      14.72659900       1.95962400      28.13770100
Cl      23.34574100       6.81098400      20.62646100
Cl      27.40040100       2.27402400      17.41850100
Cl      25.78310100      13.51733400      28.96420100
Cl      16.83719100       5.07261400      16.62965100
Cl      19.85978100       6.84507400      18.94303100
Cl      20.57243100       3.42950400      17.23131100
Cl      17.76358100       1.46307400      23.62131100
Cl      22.33185100       6.96527400      15.80665100
Cl      27.51490100       9.91597400      21.50625100
Cl      15.49032700      12.96673400      15.22229500
Cl      19.50885100      10.75613400      14.84148400
Cl      28.16320100       6.45420400      19.14760100
Cl      18.98812100       7.65817400      25.69420100
Cl      21.19800100      10.67723400      18.29538100
Cl      26.89080100      12.09483400      24.80170100
Cl      20.10857100      11.55933400      24.91940100
Cl      26.94820100       6.06573400      15.38304700
Cl      18.76039100      14.54593400      27.37590100
Cl      26.10880100      10.90303400      18.36442100
Cl      21.51560100       2.16855400      25.13050100
Cl      14.90327500       9.22154400      25.41700100
Cl      15.84627100       7.61487400      21.85986100
Cl      28.02760100       0.88400000      22.07483100
Na      23.63505100      18.77104100      14.65143400
Na      25.40060100      24.91710100       8.26066400
Na      16.61841100      22.32129100       9.47272400
Na      18.82737100      18.61962100       4.49520400
Na      20.81880100      15.90301100       8.01300400
Na      28.90710100      22.65322100       1.79957400
Na      28.00570100      18.04713100       9.47644400
Na      24.98200100      20.28735100      10.40233400
Na      15.75141100      29.11620100       3.44501400
Na      18.08749100      24.84550100       8.80680400
Na      23.83288100      26.08730100       4.73679400
Na      21.50366100      23.36254100       5.74816400
Na      21.45233100      21.54547100      12.96423400
Na      18.56912100      28.20440100       9.76890400
Na      17.56044100      18.66202100       9.23144400
Na      26.13490100      20.37519100       3.21040400
Na      27.97630100      14.81883000      12.61003400
Na      15.63625100      18.91326100       5.23936400
Na      26.70330100      15.76437100       4.95440400
Na      21.88954100      24.10975100       9.54925400
Na      28.01080100      22.47559100      12.96123400
Na      20.47068100      20.42217100       6.58986400
Na      20.96960100      27.89530100      11.96523400
Na      18.87674100      23.37480100       2.03945400
Na      16.96347100      15.14651300      14.34163400
Na      17.04508100      15.35816300       6.64627400
Na      22.06697100      24.43064100       1.40503400
Na      20.33714100      26.68200100       6.52887400
Na      22.35023100      16.36409100       4.70594400
Na      25.10570100      22.84528100      13.03973400
Na      20.88591100      28.20710100       1.57512400
Na      25.07940100      15.82616100       2.34360400
Na      28.21860100      21.87038100       8.64882400
Na      25.04630100      26.48100100      11.96543400
Na      29.11420100      26.83330100       7.49060400
Na      25.37380100      25.91780100       1.05019400
Na      20.57684100      16.44941100      12.65153400
Na      17.39841100      21.99565100       5.21957400
Na      18.39283100      17.54730100       1.01943400
Na      25.07280100      19.87800100       6.05633400
Na      22.15584100      19.74049100       3.44243400
Na      23.86792100      16.94646100      11.85283400
Na      28.10010100      26.85910100       2.56708400
Na      16.99053100      21.07047100      13.03653400
Na      17.75010100      24.65750100      12.47563400
Na      28.57820100      24.17610100       4.76060400
Na      17.52128100      26.63980100       1.42017400
Na      28.61090100      26.63030100      12.02043400
Na      29.07490100      18.76038100       1.08835400
Na      25.40580100      28.89880100       9.39555400
Cl      22.97163100      16.47500100      14.20163400
Cl      26.06980100      19.22174100       8.41690400
Cl      16.85376100      16.65274100       4.01205400
Cl      19.87120100      22.82700100       7.66545400
Cl      21.74101100      18.29477100       6.23190400
Cl      24.68580100      18.46753100       3.73104400
Cl      26.74310100      21.35161100      11.50323400
Cl      24.26745100      29.09510100       5.54675400
Cl      24.32627100      23.62491100      10.11393400
Cl      18.51982100      18.87900100      13.11863400
Cl      17.32703100      26.65710100       7.22457400
Cl      17.96967100      18.87620100       6.76452400
Cl      23.18351100      27.17370100       1.57570400
Cl      16.40943100      24.49307100       3.56720400
Cl      26.28450100      16.29205100      10.69953400
Cl      16.26414100      23.48815100      14.37013400
Cl      23.15501100      24.29408100      13.66993400
Cl      27.53090100      24.66770100      14.68413400
Cl      28.53990100      27.84390100       4.75589400
Cl      23.18236100      28.16340100      10.79893400
Cl      16.09168100      27.94950100      11.16663400
Cl      23.07336100      25.59870100       7.46792400
Cl      18.74868100      14.84058500       1.74046400
Cl      20.48027100      29.02610100       5.25708400
Cl      23.18439100      20.11708100      12.08823400
Cl      15.24239400      19.73443100       9.76771400
Cl      14.72659900      16.59149100      13.50583400
Cl      23.34574100      21.44285100       5.99459400
Cl      27.40040100      16.90589100       2.78663400
Cl      25.78310100      28.14920100      14.33233400
Cl      16.83719100      19.70448100       1.99778400
Cl      19.85978100      21.47694100       4.31116400
Cl      20.57243100      18.06137100       2.59944400
Cl      17.76358100      16.09494100       8.98944400
Cl      22.33185100      21.59714100       1.17478400
Cl      27.51490100      24.54784100       6.87438400
Cl      15.49032700      27.59860100       0.59042800
Cl      19.50885100      25.38800100       0.20961700
Cl      28.16320100      21.08607100       4.51573400
Cl      18.98812100      22.29004100      11.06233400
Cl      21.19800100      25.30910100       3.66351400
Cl      26.89080100      26.72670100      10.16983400
Cl      20.10857100      26.19120100      10.28753400
Cl      26.94820100      20.69760100       0.75118000
Cl      18.76039100      29.17780100      12.74403400
Cl      26.10880100      25.53490100       3.73255400
Cl      21.51560100      16.80042100      10.49863400
Cl      14.90327500      23.85341100      10.78513400
Cl      15.84627100      22.24674100       7.22799400
Cl      28.02760100      15.51586700       7.44296400
Na      23.63505100      18.77104100      29.28330100
Na      25.40060100      24.91710100      22.89253100
Na      16.61841100      22.32129100      24.10459100
Na      18.82737100      18.61962100      19.12707100
Na      20.81880100      15.90301100      22.64487100
Na      28.90710100      22.65322100      16.43144100
Na      28.00570100      18.04713100      24.10831100
Na      24.98200100      20.28735100      25.03420100
Na      15.75141100      29.11620100      18.07688100
Na      18.08749100      24.84550100      23.43867100
Na      23.83288100      26.08730100      19.36866100
Na      21.50366100      23.36254100      20.38003100
Na      21.45233100      21.54547100      27.59610100
Na      18.56912100      28.20440100      24.40077100
Na      17.56044100      18.66202100      23.86331100
Na      26.13490100      20.37519100      17.84227100
Na      27.97630100      14.81883000      27.24190100
Na      15.63625100      18.91326100      19.87123100
Na      26.70330100      15.76437100      19.58627100
Na      21.88954100      24.10975100      24.18112100
Na      28.01080100      22.47559100      27.59310100
Na      20.47068100      20.42217100      21.22173100
Na      20.96960100      27.89530100      26.59710100
Na      18.87674100      23.37480100      16.67132100
Na      16.96347100      15.14651300      28.97350100
Na      17.04508100      15.35816300      21.27814100
Na      22.06697100      24.43064100      16.03690100
Na      20.33714100      26.68200100      21.16074100
Na      22.35023100      16.36409100      19.33781100
Na      25.10570100      22.84528100      27.67160100
Na      20.88591100      28.20710100      16.20699100
Na      25.07940100      15.82616100      16.97547100
Na      28.21860100      21.87038100      23.28069100
Na      25.04630100      26.48100100      26.59730100
Na      29.11420100      26.83330100      22.12247100
Na      25.37380100      25.91780100      15.68206100
Na      20.57684100      16.44941100      27.28340100
Na      17.39841100      21.99565100      19.85144100
Na      18.39283100      17.54730100      15.65130100
Na      25.07280100      19.87800100      20.68820100
Na      22.15584100      19.74049100      18.07430100
Na      23.86792100      16.94646100      26.48470100
Na      28.10010100      26.85910100      17.19895100
Na      16.99053100      21.07047100      27.66840100
Na      17.75010100      24.65750100      27.10750100
Na      28.57820100      24.17610100      19.39247100
Na      17.52128100      26.63980100      16.05204100
Na      28.61090100      26.63030100      26.65230100
Na      29.07490100      18.76038100      15.72022100
Na      25.40580100      28.89880100      24.02742100
Cl      22.97163100      16.47500100      28.83350100
Cl      26.06980100      19.22174100      23.04877100
Cl      16.85376100      16.65274100      18.64392100
Cl      19.87120100      22.82700100      22.29732100
Cl      21.74101100      18.29477100      20.86377100
Cl      24.68580100      18.46753100      18.36291100
Cl      26.74310100      21.35161100      26.13510100
Cl      24.26745100      29.09510100      20.17862100
Cl      24.32627100      23.62491100      24.74580100
Cl      18.51982100      18.87900100      27.75050100
Cl      17.32703100      26.65710100      21.85644100
Cl      17.96967100      18.87620100      21.39639100
Cl      23.18351100      27.17370100      16.20757100
Cl      16.40943100      24.49307100      18.19907100
Cl      26.28450100      16.29205100      25.33140100
Cl      16.26414100      23.48815100      29.00200100
Cl      23.15501100      24.29408100      28.30180100
Cl      27.53090100      24.66770100      29.31600100
Cl      28.53990100      27.84390100      19.38776100
Cl      23.18236100      28.16340100      25.43080100
Cl      16.09168100      27.94950100      25.79850100
Cl      23.07336100      25.59870100      22.09979100
Cl      18.74868100      14.84058500      16.37233100
Cl      20.48027100      29.02610100      19.88895100
Cl      23.18439100      20.11708100      26.72010100
Cl      15.24239400      19.73443100      24.39958100
Cl      14.72659900      16.59149100      28.13770100
Cl      23.34574100      21.44285100      20.62646100
Cl      27.40040100      16.90589100      17.41850100
Cl      25.78310100      28.14920100      28.96420100
Cl      16.83719100      19.70448100      16.62965100
Cl      19.85978100      21.47694100      18.94303100
Cl      20.57243100      18.06137100      17.23131100
Cl      17.76358100      16.09494100      23.62131100
Cl      22.33185100      21.59714100      15.80665100
Cl      27.51490100      24.54784100      21.50625100
Cl      15.49032700      27.59860100      15.22229500
Cl      19.50885100      25.38800100      14.84148400
Cl      28.16320100      21.08607100      19.14760100
Cl      18.98812100      22.29004100      25.69420100
Cl      21.19800100      25.30910100      18.29538100
Cl      26.89080100      26.72670100      24.80170100
Cl      20.10857100      26.19120100      24.91940100
Cl      26.94820100      20.69760100      15.38304700
Cl      18.76039100      29.17780100      27.37590100
Cl      26.10880100      25.53490100      18.36442100
Cl      21.51560100      16.80042100      25.13050100
Cl      14.90327500      23.85341100      25.41700100
Cl      15.84627100      22.24674100      21.85986100
Cl      28.02760100      15.51586700      22.07483100
