1600
Lattice="36.86999446512429 0.0 0.0 0.0 36.86999446512429 0.0 0.0 0.0 36.86999446512429" Properties=species:S:1:pos:R:3 pbc="T T T"
Na       5.67165052       5.21503245      18.45965011
Na       6.78387732      12.95858282      10.40778446
Na       1.25144430       9.68806716      11.93488437
Na       2.64300190       5.02425521       5.66360214
Na       3.89752419       1.60154108      10.09575241
Na       8.99283390      10.10627275       2.26732116
Na       8.42498749       4.30296300      11.93957127
Na       6.52017585       7.12546334      13.10611957
Na       0.70526853      18.24911730       4.34044566
Na       2.17690671      12.86837247      11.09587774
Na       5.79627561      14.43294243       5.96798647
Na       4.32895896      10.99995995       7.24223282
Na       4.29662308       8.71059521      16.33391131
Na       2.48031460      17.10032129      12.30804778
Na       1.84488601       5.07767586      11.63089062
Na       7.24645734       7.23613480       4.04485558
Na       8.40646665       0.23555862      15.88764728
Na       0.63272227       5.39421842       6.60118499
Na       7.60452690       1.42686563       6.24215789
Na       4.57204812      11.94138556      12.03130613
Na       8.42820029       9.88247298      16.33013155
Na       3.67822233       7.29532589       8.30270837
Na       3.99252224      16.71087969      15.07525018
Na       2.67410305      11.01540658       2.56955102
Na       1.46881848       0.64841333      18.06932657
Na       1.52022956       0.91507562       8.37378052
Na       4.68382202      12.34568163       1.77023191
Na       3.59409740      15.18221748       8.22586578
Na       4.86226464       2.18246548       5.92911791
Na       6.59810196      10.34825319      16.42903535
Na       3.93980084      17.10372307       1.98453188
Na       6.58153400       1.50471615       2.95275601
Na       8.55910608       9.11995616      10.89683541
Na       6.56068231      14.92897335      15.07550217
Na       9.12329873      15.37284354       9.43756966
Na       6.76699438      14.21938581       1.32316153
Na       3.74509894       2.28996194      15.93993400
Na       1.74281351       9.27778647       6.57625115
Na       2.36925886       3.67321667       1.28440636
Na       6.57737626       6.60971466       7.63050269
Na       4.73980661       6.43646291       4.33719506
Na       5.81834943       2.91620570      14.93363506
Na       8.48445576      15.40534950       3.23432317
Na       1.48586521       8.11213271      16.42500360
Na       1.96436433      12.63150732      15.71831389
Na       8.78563989      12.02498132       5.99798519
Na       1.82021676      15.12904881       1.78930712
Na       8.80623960      15.11707956      15.14479783
Na       9.09854128       5.20160169       1.37124011
Na       6.78715312      17.97521046      11.83765626
Cl       5.25372211       2.32220332      17.89293762
Cl       7.20544691       5.78287887      10.60463452
Cl       1.39970551       2.54614169       5.05487129
Cl       3.30057360      10.32522183       9.65786685
Cl       4.47848009       4.61496985       7.85170703
Cl       6.33358154       4.83263381       4.70082087
Cl       7.62959933       8.46634692      14.49316666
Cl       6.07003755      18.22253297       6.98847212
Cl       6.10709183      11.33052544      12.74275834
Cl       2.44925754       5.35105353      16.52844312
Cl       1.69784693      15.15084545       9.10239286
Cl       2.10268476       5.34752575       8.52276618
Cl       5.38719814      15.80172066       1.98526264
Cl       1.11979515      12.42433850       4.49439541
Cl       7.34069943       2.09170077      13.48056811
Cl       1.02826819      11.15821864      18.10523432
Cl       5.36924427      12.17362681      17.22303760
Cl       8.12588223      12.64435851      18.50084953
Cl       8.76151240      16.64611975       5.99205096
Cl       5.38647369      17.04866452      13.60580426
Cl       0.91962519      16.77916741      14.06907723
Cl       5.31780799      13.81734501       9.40899465
Cl       2.59343031       0.26296820       2.19284723
Cl       3.68426365      18.13559841       6.62351079
Cl       5.38775251       6.91093658      15.23022047
Cl       0.38460791       6.42882779      12.30654848
Cl       0.05967742       2.46897153      17.01628455
Cl       5.48939664       8.58130211       7.55271517
Cl       8.04367238       2.86509071       3.51093883
Cl       7.02483722      17.03077365      18.05760930
Cl       1.38926706       6.39109316       2.51705011
Cl       3.29337945       8.62425282       5.43172627
Cl       3.74232082       4.32090428       3.27509421
Cl       1.97285620       1.84335773      11.32598972
Cl       4.85068596       8.77569533       1.48013509
Cl       8.11580286      12.49334437       8.66118111
Cl       0.54079591      16.33706111       0.74389267
Cl       3.07230740      13.55187964       0.26410087
Cl       8.52420627       8.13178748       5.68946832
Cl       2.74426806       9.64869463      13.93766747
Cl       4.13640522      13.45247187       4.61573841
Cl       7.72264450      15.23853595      12.81318793
Cl       3.45010733      14.56384823      12.96148064
Cl       7.75880423       7.64234595       0.94642749
Cl       2.60080715      18.32672844      16.05647670
Cl       7.23001537      13.73696204       4.70272335
Cl       4.33648068       2.73220683      13.22744997
Cl       0.17097633      11.61841740      13.58841735
Cl       0.76502658       9.59414004       9.10670179
Cl       8.43878362       1.11377021       9.37754702
Na       5.67165052       5.21503245       0.02465288
Na       6.78387732      12.95858282      28.84278169
Na       1.25144430       9.68806716      30.36988160
Na       2.64300190       5.02425521      24.09859938
Na       3.89752419       1.60154108      28.53074965
Na       8.99283390      10.10627275      20.70231840
Na       8.42498749       4.30296300      30.37456851
Na       6.52017585       7.12546334      31.54111681
Na       0.70526853      18.24911730      22.77544289
Na       2.17690671      12.86837247      29.53087497
Na       5.79627561      14.43294243      24.40298370
Na       4.32895896      10.99995995      25.67723005
Na       4.29662308       8.71059521      34.76890854
Na       2.48031460      17.10032129      30.74304502
Na       1.84488601       5.07767586      30.06588785
Na       7.24645734       7.23613480      22.47985281
Na       8.40646665       0.23555862      34.32264451
Na       0.63272227       5.39421842      25.03618222
Na       7.60452690       1.42686563      24.67715512
Na       4.57204812      11.94138556      30.46630336
Na       8.42820029       9.88247298      34.76512878
Na       3.67822233       7.29532589      26.73770560
Na       3.99252224      16.71087969      33.51024742
Na       2.67410305      11.01540658      21.00454826
Na       1.46881848       0.64841333      36.50432380
Na       1.52022956       0.91507562      26.80877775
Na       4.68382202      12.34568163      20.20522914
Na       3.59409740      15.18221748      26.66086302
Na       4.86226464       2.18246548      24.36411514
Na       6.59810196      10.34825319      34.86403258
Na       3.93980084      17.10372307      20.41952912
Na       6.58153400       1.50471615      21.38775324
Na       8.55910608       9.11995616      29.33183265
Na       6.56068231      14.92897335      33.51049940
Na       9.12329873      15.37284354      27.87256689
Na       6.76699438      14.21938581      19.75815876
Na       3.74509894       2.28996194      34.37493123
Na       1.74281351       9.27778647      25.01124839
Na       2.36925886       3.67321667      19.71940359
Na       6.57737626       6.60971466      26.06549992
Na       4.73980661       6.43646291      22.77219229
Na       5.81834943       2.91620570      33.36863229
Na       8.48445576      15.40534950      21.66932040
Na       1.48586521       8.11213271      34.86000084
Na       1.96436433      12.63150732      34.15331112
Na       8.78563989      12.02498132      24.43298242
Na       1.82021676      15.12904881      20.22430435
Na       8.80623960      15.11707956      33.57979506
Na       9.09854128       5.20160169      19.80623735
Na       6.78715312      17.97521046      30.27265349
Cl       5.25372211       2.32220332      36.32793485
Cl       7.20544691       5.78287887      29.03963176
Cl       1.39970551       2.54614169      23.48986852
Cl       3.30057360      10.32522183      28.09286408
Cl       4.47848009       4.61496985      26.28670426
Cl       6.33358154       4.83263381      23.13581811
Cl       7.62959933       8.46634692      32.92816389
Cl       6.07003755      18.22253297      25.42346936
Cl       6.10709183      11.33052544      31.17775558
Cl       2.44925754       5.35105353      34.96344036
Cl       1.69784693      15.15084545      27.53739009
Cl       2.10268476       5.34752575      26.95776341
Cl       5.38719814      15.80172066      20.42025987
Cl       1.11979515      12.42433850      22.92939264
Cl       7.34069943       2.09170077      31.91556534
Cl       1.02826819      11.15821864      36.54023155
Cl       5.36924427      12.17362681      35.65803483
Cl       8.12588223      12.64435851       0.06585229
Cl       8.76151240      16.64611975      24.42704819
Cl       5.38647369      17.04866452      32.04080150
Cl       0.91962519      16.77916741      32.50407447
Cl       5.31780799      13.81734501      27.84399188
Cl       2.59343031       0.26296820      20.62784446
Cl       3.68426365      18.13559841      25.05850803
Cl       5.38775251       6.91093658      33.66521771
Cl       0.38460791       6.42882779      30.74154571
Cl       0.05967742       2.46897153      35.45128179
Cl       5.48939664       8.58130211      25.98771240
Cl       8.04367238       2.86509071      21.94593607
Cl       7.02483722      17.03077365      36.49260653
Cl       1.38926706       6.39109316      20.95204735
Cl       3.29337945       8.62425282      23.86672351
Cl       3.74232082       4.32090428      21.71009145
Cl       1.97285620       1.84335773      29.76098696
Cl       4.85068596       8.77569533      19.91513232
Cl       8.11580286      12.49334437      27.09617834
Cl       0.54079591      16.33706111      19.17888990
Cl       3.07230740      13.55187964      18.69909810
Cl       8.52420627       8.13178748      24.12446555
Cl       2.74426806       9.64869463      32.37266470
Cl       4.13640522      13.45247187      23.05073564
Cl       7.72264450      15.23853595      31.24818516
Cl       3.45010733      14.56384823      31.39647787
Cl       7.75880423       7.64234595      19.38142473
Cl       2.60080715      18.32672844      34.49147393
Cl       7.23001537      13.73696204      23.13772059
Cl       4.33648068       2.73220683      31.66244720
Cl       0.17097633      11.61841740      32.02341459
Cl       0.76502658       9.59414004      27.54169902
Cl       8.43878362       1.11377021      27.81254425
Na       5.67165052      23.65002968      18.45965011
Na       6.78387732      31.39358005      10.40778446
Na       1.25144430      28.12306439      11.93488437
Na       2.64300190      23.45925244       5.66360214
Na       3.89752419      20.03653832      10.09575241
Na       8.99283390      28.54126999       2.26732116
Na       8.42498749      22.73796024      11.93957127
Na       6.52017585      25.56046057      13.10611957
Na       0.70526853      36.68411453       4.34044566
Na       2.17690671      31.30336971      11.09587774
Na       5.79627561      32.86793966       5.96798647
Na       4.32895896      29.43495718       7.24223282
Na       4.29662308      27.14559244      16.33391131
Na       2.48031460      35.53531852      12.30804778
Na       1.84488601      23.51267309      11.63089062
Na       7.24645734      25.67113204       4.04485558
Na       8.40646665      18.67055585      15.88764728
Na       0.63272227      23.82921566       6.60118499
Na       7.60452690      19.86186286       6.24215789
Na       4.57204812      30.37638279      12.03130613
Na       8.42820029      28.31747021      16.33013155
Na       3.67822233      25.73032313       8.30270837
Na       3.99252224      35.14587692      15.07525018
Na       2.67410305      29.45040382       2.56955102
Na       1.46881848      19.08341056      18.06932657
Na       1.52022956      19.35007285       8.37378052
Na       4.68382202      30.78067886       1.77023191
Na       3.59409740      33.61721471       8.22586578
Na       4.86226464      20.61746271       5.92911791
Na       6.59810196      28.78325042      16.42903535
Na       3.93980084      35.53872031       1.98453188
Na       6.58153400      19.93971338       2.95275601
Na       8.55910608      27.55495339      10.89683541
Na       6.56068231      33.36397058      15.07550217
Na       9.12329873      33.80784077       9.43756966
Na       6.76699438      32.65438305       1.32316153
Na       3.74509894      20.72495918      15.93993400
Na       1.74281351      27.71278370       6.57625115
Na       2.36925886      22.10821390       1.28440636
Na       6.57737626      25.04471189       7.63050269
Na       4.73980661      24.87146015       4.33719506
Na       5.81834943      21.35120294      14.93363506
Na       8.48445576      33.84034673       3.23432317
Na       1.48586521      26.54712994      16.42500360
Na       1.96436433      31.06650455      15.71831389
Na       8.78563989      30.45997855       5.99798519
Na       1.82021676      33.56404604       1.78930712
Na       8.80623960      33.55207679      15.14479783
Na       9.09854128      23.63659893       1.37124011
Na       6.78715312      36.41020770      11.83765626
Cl       5.25372211      20.75720056      17.89293762
Cl       7.20544691      24.21787610      10.60463452
Cl       1.39970551      20.98113892       5.05487129
Cl       3.30057360      28.76021907       9.65786685
Cl       4.47848009      23.04996709       7.85170703
Cl       6.33358154      23.26763105       4.70082087
Cl       7.62959933      26.90134415      14.49316666
Cl       6.07003755      36.65753020       6.98847212
Cl       6.10709183      29.76552267      12.74275834
Cl       2.44925754      23.78605076      16.52844312
Cl       1.69784693      33.58584268       9.10239286
Cl       2.10268476      23.78252298       8.52276618
Cl       5.38719814      34.23671789       1.98526264
Cl       1.11979515      30.85933573       4.49439541
Cl       7.34069943      20.52669800      13.48056811
Cl       1.02826819      29.59321587      18.10523432
Cl       5.36924427      30.60862404      17.22303760
Cl       8.12588223      31.07935574      18.50084953
Cl       8.76151240      35.08111698       5.99205096
Cl       5.38647369      35.48366176      13.60580426
Cl       0.91962519      35.21416464      14.06907723
Cl       5.31780799      32.25234224       9.40899465
Cl       2.59343031      18.69796543       2.19284723
Cl       3.68426365      36.57059565       6.62351079
Cl       5.38775251      25.34593381      15.23022047
Cl       0.38460791      24.86382502      12.30654848
Cl       0.05967742      20.90396876      17.01628455
Cl       5.48939664      27.01629934       7.55271517
Cl       8.04367238      21.30008794       3.51093883
Cl       7.02483722      35.46577088      18.05760930
Cl       1.38926706      24.82609039       2.51705011
Cl       3.29337945      27.05925005       5.43172627
Cl       3.74232082      22.75590151       3.27509421
Cl       1.97285620      20.27835496      11.32598972
Cl       4.85068596      27.21069256       1.48013509
Cl       8.11580286      30.92834161       8.66118111
Cl       0.54079591      34.77205835       0.74389267
Cl       3.07230740      31.98687687       0.26410087
Cl       8.52420627      26.56678471       5.68946832
Cl       2.74426806      28.08369186      13.93766747
Cl       4.13640522      31.88746910       4.61573841
Cl       7.72264450      33.67353318      12.81318793
Cl       3.45010733      32.99884546      12.96148064
Cl       7.75880423      26.07734318       0.94642749
Cl       2.60080715      36.76172567      16.05647670
Cl       7.23001537      32.17195928       4.70272335
Cl       4.33648068      21.16720406      13.22744997
Cl       0.17097633      30.05341463      13.58841735
Cl       0.76502658      28.02913728       9.10670179
Cl       8.43878362      19.54876744       9.37754702
Na       5.67165052      23.65002968       0.02465288
Na       6.78387732      31.39358005      28.84278169
Na       1.25144430      28.12306439      30.36988160
Na       2.64300190      23.45925244      24.09859938
Na       3.89752419      20.03653832      28.53074965
Na       8.99283390      28.54126999      20.70231840
Na       8.42498749      22.73796024      30.37456851
Na       6.52017585      25.56046057      31.54111681
Na       0.70526853      36.68411453      22.77544289
Na       2.17690671      31.30336971      29.53087497
Na       5.79627561      32.86793966      24.40298370
Na       4.32895896      29.43495718      25.67723005
Na       4.29662308      27.14559244      34.76890854
Na       2.48031460      35.53531852      30.74304502
Na       1.84488601      23.51267309      30.06588785
Na       7.24645734      25.67113204      22.47985281
Na       8.40646665      18.67055585      34.32264451
Na       0.63272227      23.82921566      25.03618222
Na       7.60452690      19.86186286      24.67715512
Na       4.57204812      30.37638279      30.46630336
Na       8.42820029      28.31747021      34.76512878
Na       3.67822233      25.73032313      26.73770560
Na       3.99252224      35.14587692      33.51024742
Na       2.67410305      29.45040382      21.00454826
Na       1.46881848      19.08341056      36.50432380
Na       1.52022956      19.35007285      26.80877775
Na       4.68382202      30.78067886      20.20522914
Na       3.59409740      33.61721471      26.66086302
Na       4.86226464      20.61746271      24.36411514
Na       6.59810196      28.78325042      34.86403258
Na       3.93980084      35.53872031      20.41952912
Na       6.58153400      19.93971338      21.38775324
Na       8.55910608      27.55495339      29.33183265
Na       6.56068231      33.36397058      33.51049940
Na       9.12329873      33.80784077      27.87256689
Na       6.76699438      32.65438305      19.75815876
Na       3.74509894      20.72495918      34.37493123
Na       1.74281351      27.71278370      25.01124839
Na       2.36925886      22.10821390      19.71940359
Na       6.57737626      25.04471189      26.06549992
Na       4.73980661      24.87146015      22.77219229
Na       5.81834943      21.35120294      33.36863229
Na       8.48445576      33.84034673      21.66932040
Na       1.48586521      26.54712994      34.86000084
Na       1.96436433      31.06650455      34.15331112
Na       8.78563989      30.45997855      24.43298242
Na       1.82021676      33.56404604      20.22430435
Na       8.80623960      33.55207679      33.57979506
Na       9.09854128      23.63659893      19.80623735
Na       6.78715312      36.41020770      30.27265349
Cl       5.25372211      20.75720056      36.32793485
Cl       7.20544691      24.21787610      29.03963176
Cl       1.39970551      20.98113892      23.48986852
Cl       3.30057360      28.76021907      28.09286408
Cl       4.47848009      23.04996709      26.28670426
Cl       6.33358154      23.26763105      23.13581811
Cl       7.62959933      26.90134415      32.92816389
Cl       6.07003755      36.65753020      25.42346936
Cl       6.10709183      29.76552267      31.17775558
Cl       2.44925754      23.78605076      34.96344036
Cl       1.69784693      33.58584268      27.53739009
Cl       2.10268476      23.78252298      26.95776341
Cl       5.38719814      34.23671789      20.42025987
Cl       1.11979515      30.85933573      22.92939264
Cl       7.34069943      20.52669800      31.91556534
Cl       1.02826819      29.59321587      36.54023155
Cl       5.36924427      30.60862404      35.65803483
Cl       8.12588223      31.07935574       0.06585229
Cl       8.76151240      35.08111698      24.42704819
Cl       5.38647369      35.48366176      32.04080150
Cl       0.91962519      35.21416464      32.50407447
Cl       5.31780799      32.25234224      27.84399188
Cl       2.59343031      18.69796543      20.62784446
Cl       3.68426365      36.57059565      25.05850803
Cl       5.38775251      25.34593381      33.66521771
Cl       0.38460791      24.86382502      30.74154571
Cl       0.05967742      20.90396876      35.45128179
Cl       5.48939664      27.01629934      25.98771240
Cl       8.04367238      21.30008794      21.94593607
Cl       7.02483722      35.46577088      36.49260653
Cl       1.38926706      24.82609039      20.95204735
Cl       3.29337945      27.05925005      23.86672351
Cl       3.74232082      22.75590151      21.71009145
Cl       1.97285620      20.27835496      29.76098696
Cl       4.85068596      27.21069256      19.91513232
Cl       8.11580286      30.92834161      27.09617834
Cl       0.54079591      34.77205835      19.17888990
Cl       3.07230740      31.98687687      18.69909810
Cl       8.52420627      26.56678471      24.12446555
Cl       2.74426806      28.08369186      32.37266470
Cl       4.13640522      31.88746910      23.05073564
Cl       7.72264450      33.67353318      31.24818516
Cl       3.45010733      32.99884546      31.39647787
Cl       7.75880423      26.07734318      19.38142473
Cl       2.60080715      36.76172567      34.49147393
Cl       7.23001537      32.17195928      23.13772059
Cl       4.33648068      21.16720406      31.66244720
Cl       0.17097633      30.05341463      32.02341459
Cl       0.76502658      28.02913728      27.54169902
Cl       8.43878362      19.54876744      27.81254425
Na      14.88914914       5.21503245      18.45965011
Na      16.00137594      12.95858282      10.40778446
Na      10.46894292       9.68806716      11.93488437
Na      11.86050052       5.02425521       5.66360214
Na      13.11502281       1.60154108      10.09575241
Na      18.21033252      10.10627275       2.26732116
Na      17.64248610       4.30296300      11.93957127
Na      15.73767446       7.12546334      13.10611957
Na       9.92276714      18.24911730       4.34044566
Na      11.39440533      12.86837247      11.09587774
Na      15.01377423      14.43294243       5.96798647
Na      13.54645757      10.99995995       7.24223282
Na      13.51412170       8.71059521      16.33391131
Na      11.69781321      17.10032129      12.30804778
Na      11.06238463       5.07767586      11.63089062
Na      16.46395595       7.23613480       4.04485558
Na      17.62396526       0.23555862      15.88764728
Na       9.85022089       5.39421842       6.60118499
Na      16.82202552       1.42686563       6.24215789
Na      13.78954674      11.94138556      12.03130613
Na      17.64569890       9.88247298      16.33013155
Na      12.89572095       7.29532589       8.30270837
Na      13.21002085      16.71087969      15.07525018
Na      11.89160167      11.01540658       2.56955102
Na      10.68631710       0.64841333      18.06932657
Na      10.73772817       0.91507562       8.37378052
Na      13.90132064      12.34568163       1.77023191
Na      12.81159602      15.18221748       8.22586578
Na      14.07976325       2.18246548       5.92911791
Na      15.81560058      10.34825319      16.42903535
Na      13.15729946      17.10372307       1.98453188
Na      15.79903262       1.50471615       2.95275601
Na      17.77660470       9.11995616      10.89683541
Na      15.77818093      14.92897335      15.07550217
Na      18.34079735      15.37284354       9.43756966
Na      15.98449300      14.21938581       1.32316153
Na      12.96259756       2.28996194      15.93993400
Na      10.96031213       9.27778647       6.57625115
Na      11.58675747       3.67321667       1.28440636
Na      15.79487488       6.60971466       7.63050269
Na      13.95730523       6.43646291       4.33719506
Na      15.03584804       2.91620570      14.93363506
Na      17.70195438      15.40534950       3.23432317
Na      10.70336383       8.11213271      16.42500360
Na      11.18186294      12.63150732      15.71831389
Na      18.00313850      12.02498132       5.99798519
Na      11.03771538      15.12904881       1.78930712
Na      18.02373821      15.11707956      15.14479783
Na      18.31603990       5.20160169       1.37124011
Na      16.00465173      17.97521046      11.83765626
Cl      14.47122072       2.32220332      17.89293762
Cl      16.42294552       5.78287887      10.60463452
Cl      10.61720413       2.54614169       5.05487129
Cl      12.51807221      10.32522183       9.65786685
Cl      13.69597870       4.61496985       7.85170703
Cl      15.55108016       4.83263381       4.70082087
Cl      16.84709794       8.46634692      14.49316666
Cl      15.28753617      18.22253297       6.98847212
Cl      15.32459045      11.33052544      12.74275834
Cl      11.66675616       5.35105353      16.52844312
Cl      10.91534554      15.15084545       9.10239286
Cl      11.32018338       5.34752575       8.52276618
Cl      14.60469676      15.80172066       1.98526264
Cl      10.33729377      12.42433850       4.49439541
Cl      16.55819805       2.09170077      13.48056811
Cl      10.24576680      11.15821864      18.10523432
Cl      14.58674288      12.17362681      17.22303760
Cl      17.34338085      12.64435851      18.50084953
Cl      17.97901102      16.64611975       5.99205096
Cl      14.60397231      17.04866452      13.60580426
Cl      10.13712381      16.77916741      14.06907723
Cl      14.53530661      13.81734501       9.40899465
Cl      11.81092892       0.26296820       2.19284723
Cl      12.90176227      18.13559841       6.62351079
Cl      14.60525112       6.91093658      15.23022047
Cl       9.60210653       6.42882779      12.30654848
Cl       9.27717604       2.46897153      17.01628455
Cl      14.70689526       8.58130211       7.55271517
Cl      17.26117100       2.86509071       3.51093883
Cl      16.24233584      17.03077365      18.05760930
Cl      10.60676568       6.39109316       2.51705011
Cl      12.51087806       8.62425282       5.43172627
Cl      12.95981943       4.32090428       3.27509421
Cl      11.19035481       1.84335773      11.32598972
Cl      14.06818458       8.77569533       1.48013509
Cl      17.33330148      12.49334437       8.66118111
Cl       9.75829453      16.33706111       0.74389267
Cl      12.28980602      13.55187964       0.26410087
Cl      17.74170489       8.13178748       5.68946832
Cl      11.96176667       9.64869463      13.93766747
Cl      13.35390384      13.45247187       4.61573841
Cl      16.94014311      15.23853595      12.81318793
Cl      12.66760594      14.56384823      12.96148064
Cl      16.97630285       7.64234595       0.94642749
Cl      11.81830576      18.32672844      16.05647670
Cl      16.44751398      13.73696204       4.70272335
Cl      13.55397930       2.73220683      13.22744997
Cl       9.38847494      11.61841740      13.58841735
Cl       9.98252520       9.59414004       9.10670179
Cl      17.65628224       1.11377021       9.37754702
Na      14.88914914       5.21503245       0.02465288
Na      16.00137594      12.95858282      28.84278169
Na      10.46894292       9.68806716      30.36988160
Na      11.86050052       5.02425521      24.09859938
Na      13.11502281       1.60154108      28.53074965
Na      18.21033252      10.10627275      20.70231840
Na      17.64248610       4.30296300      30.37456851
Na      15.73767446       7.12546334      31.54111681
Na       9.92276714      18.24911730      22.77544289
Na      11.39440533      12.86837247      29.53087497
Na      15.01377423      14.43294243      24.40298370
Na      13.54645757      10.99995995      25.67723005
Na      13.51412170       8.71059521      34.76890854
Na      11.69781321      17.10032129      30.74304502
Na      11.06238463       5.07767586      30.06588785
Na      16.46395595       7.23613480      22.47985281
Na      17.62396526       0.23555862      34.32264451
Na       9.85022089       5.39421842      25.03618222
Na      16.82202552       1.42686563      24.67715512
Na      13.78954674      11.94138556      30.46630336
Na      17.64569890       9.88247298      34.76512878
Na      12.89572095       7.29532589      26.73770560
Na      13.21002085      16.71087969      33.51024742
Na      11.89160167      11.01540658      21.00454826
Na      10.68631710       0.64841333      36.50432380
Na      10.73772817       0.91507562      26.80877775
Na      13.90132064      12.34568163      20.20522914
Na      12.81159602      15.18221748      26.66086302
Na      14.07976325       2.18246548      24.36411514
Na      15.81560058      10.34825319      34.86403258
Na      13.15729946      17.10372307      20.41952912
Na      15.79903262       1.50471615      21.38775324
Na      17.77660470       9.11995616      29.33183265
Na      15.77818093      14.92897335      33.51049940
Na      18.34079735      15.37284354      27.87256689
Na      15.98449300      14.21938581      19.75815876
Na      12.96259756       2.28996194      34.37493123
Na      10.96031213       9.27778647      25.01124839
Na      11.58675747       3.67321667      19.71940359
Na      15.79487488       6.60971466      26.06549992
Na      13.95730523       6.43646291      22.77219229
Na      15.03584804       2.91620570      33.36863229
Na      17.70195438      15.40534950      21.66932040
Na      10.70336383       8.11213271      34.86000084
Na      11.18186294      12.63150732      34.15331112
Na      18.00313850      12.02498132      24.43298242
Na      11.03771538      15.12904881      20.22430435
Na      18.02373821      15.11707956      33.57979506
Na      18.31603990       5.20160169      19.80623735
Na      16.00465173      17.97521046      30.27265349
Cl      14.47122072       2.32220332      36.32793485
Cl      16.42294552       5.78287887      29.03963176
Cl      10.61720413       2.54614169      23.48986852
Cl      12.51807221      10.32522183      28.09286408
Cl      13.69597870       4.61496985      26.28670426
Cl      15.55108016       4.83263381      23.13581811
Cl      16.84709794       8.46634692      32.92816389
Cl      15.28753617      18.22253297      25.42346936
Cl      15.32459045      11.33052544      31.17775558
Cl      11.66675616       5.35105353      34.96344036
Cl      10.91534554      15.15084545      27.53739009
Cl      11.32018338       5.34752575      26.95776341
Cl      14.60469676      15.80172066      20.42025987
Cl      10.33729377      12.42433850      22.92939264
Cl      16.55819805       2.09170077      31.91556534
Cl      10.24576680      11.15821864      36.54023155
Cl      14.58674288      12.17362681      35.65803483
Cl      17.34338085      12.64435851       0.06585229
Cl      17.97901102      16.64611975      24.42704819
Cl      14.60397231      17.04866452      32.04080150
Cl      10.13712381      16.77916741      32.50407447
Cl      14.53530661      13.81734501      27.84399188
Cl      11.81092892       0.26296820      20.62784446
Cl      12.90176227      18.13559841      25.05850803
Cl      14.60525112       6.91093658      33.66521771
Cl       9.60210653       6.42882779      30.74154571
Cl       9.27717604       2.46897153      35.45128179
Cl      14.70689526       8.58130211      25.98771240
Cl      17.26117100       2.86509071      21.94593607
Cl      16.24233584      17.03077365      36.49260653
Cl      10.60676568       6.39109316      20.95204735
Cl      12.51087806       8.62425282      23.86672351
Cl      12.95981943       4.32090428      21.71009145
Cl      11.19035481       1.84335773      29.76098696
Cl      14.06818458       8.77569533      19.91513232
Cl      17.33330148      12.49334437      27.09617834
Cl       9.75829453      16.33706111      19.17888990
Cl      12.28980602      13.55187964      18.69909810
Cl      17.74170489       8.13178748      24.12446555
Cl      11.96176667       9.64869463      32.37266470
Cl      13.35390384      13.45247187      23.05073564
Cl      16.94014311      15.23853595      31.24818516
Cl      12.66760594      14.56384823      31.39647787
Cl      16.97630285       7.64234595      19.38142473
Cl      11.81830576      18.32672844      34.49147393
Cl      16.44751398      13.73696204      23.13772059
Cl      13.55397930       2.73220683      31.66244720
Cl       9.38847494      11.61841740      32.02341459
Cl       9.98252520       9.59414004      27.54169902
Cl      17.65628224       1.11377021      27.81254425
Na      14.88914914      23.65002968      18.45965011
Na      16.00137594      31.39358005      10.40778446
Na      10.46894292      28.12306439      11.93488437
Na      11.86050052      23.45925244       5.66360214
Na      13.11502281      20.03653832      10.09575241
Na      18.21033252      28.54126999       2.26732116
Na      17.64248610      22.73796024      11.93957127
Na      15.73767446      25.56046057      13.10611957
Na       9.92276714      36.68411453       4.34044566
Na      11.39440533      31.30336971      11.09587774
Na      15.01377423      32.86793966       5.96798647
Na      13.54645757      29.43495718       7.24223282
Na      13.51412170      27.14559244      16.33391131
Na      11.69781321      35.53531852      12.30804778
Na      11.06238463      23.51267309      11.63089062
Na      16.46395595      25.67113204       4.04485558
Na      17.62396526      18.67055585      15.88764728
Na       9.85022089      23.82921566       6.60118499
Na      16.82202552      19.86186286       6.24215789
Na      13.78954674      30.37638279      12.03130613
Na      17.64569890      28.31747021      16.33013155
Na      12.89572095      25.73032313       8.30270837
Na      13.21002085      35.14587692      15.07525018
Na      11.89160167      29.45040382       2.56955102
Na      10.68631710      19.08341056      18.06932657
Na      10.73772817      19.35007285       8.37378052
Na      13.90132064      30.78067886       1.77023191
Na      12.81159602      33.61721471       8.22586578
Na      14.07976325      20.61746271       5.92911791
Na      15.81560058      28.78325042      16.42903535
Na      13.15729946      35.53872031       1.98453188
Na      15.79903262      19.93971338       2.95275601
Na      17.77660470      27.55495339      10.89683541
Na      15.77818093      33.36397058      15.07550217
Na      18.34079735      33.80784077       9.43756966
Na      15.98449300      32.65438305       1.32316153
Na      12.96259756      20.72495918      15.93993400
Na      10.96031213      27.71278370       6.57625115
Na      11.58675747      22.10821390       1.28440636
Na      15.79487488      25.04471189       7.63050269
Na      13.95730523      24.87146015       4.33719506
Na      15.03584804      21.35120294      14.93363506
Na      17.70195438      33.84034673       3.23432317
Na      10.70336383      26.54712994      16.42500360
Na      11.18186294      31.06650455      15.71831389
Na      18.00313850      30.45997855       5.99798519
Na      11.03771538      33.56404604       1.78930712
Na      18.02373821      33.55207679      15.14479783
Na      18.31603990      23.63659893       1.37124011
Na      16.00465173      36.41020770      11.83765626
Cl      14.47122072      20.75720056      17.89293762
Cl      16.42294552      24.21787610      10.60463452
Cl      10.61720413      20.98113892       5.05487129
Cl      12.51807221      28.76021907       9.65786685
Cl      13.69597870      23.04996709       7.85170703
Cl      15.55108016      23.26763105       4.70082087
Cl      16.84709794      26.90134415      14.49316666
Cl      15.28753617      36.65753020       6.98847212
Cl      15.32459045      29.76552267      12.74275834
Cl      11.66675616      23.78605076      16.52844312
Cl      10.91534554      33.58584268       9.10239286
Cl      11.32018338      23.78252298       8.52276618
Cl      14.60469676      34.23671789       1.98526264
Cl      10.33729377      30.85933573       4.49439541
Cl      16.55819805      20.52669800      13.48056811
Cl      10.24576680      29.59321587      18.10523432
Cl      14.58674288      30.60862404      17.22303760
Cl      17.34338085      31.07935574      18.50084953
Cl      17.97901102      35.08111698       5.99205096
Cl      14.60397231      35.48366176      13.60580426
Cl      10.13712381      35.21416464      14.06907723
Cl      14.53530661      32.25234224       9.40899465
Cl      11.81092892      18.69796543       2.19284723
Cl      12.90176227      36.57059565       6.62351079
Cl      14.60525112      25.34593381      15.23022047
Cl       9.60210653      24.86382502      12.30654848
Cl       9.27717604      20.90396876      17.01628455
Cl      14.70689526      27.01629934       7.55271517
Cl      17.26117100      21.30008794       3.51093883
Cl      16.24233584      35.46577088      18.05760930
Cl      10.60676568      24.82609039       2.51705011
Cl      12.51087806      27.05925005       5.43172627
Cl      12.95981943      22.75590151       3.27509421
Cl      11.19035481      20.27835496      11.32598972
Cl      14.06818458      27.21069256       1.48013509
Cl      17.33330148      30.92834161       8.66118111
Cl       9.75829453      34.77205835       0.74389267
Cl      12.28980602      31.98687687       0.26410087
Cl      17.74170489      26.56678471       5.68946832
Cl      11.96176667      28.08369186      13.93766747
Cl      13.35390384      31.88746910       4.61573841
Cl      16.94014311      33.67353318      12.81318793
Cl      12.66760594      32.99884546      12.96148064
Cl      16.97630285      26.07734318       0.94642749
Cl      11.81830576      36.76172567      16.05647670
Cl      16.44751398      32.17195928       4.70272335
Cl      13.55397930      21.16720406      13.22744997
Cl       9.38847494      30.05341463      13.58841735
Cl       9.98252520      28.02913728       9.10670179
Cl      17.65628224      19.54876744       9.37754702
Na      14.88914914      23.65002968       0.02465288
Na      16.00137594      31.39358005      28.84278169
Na      10.46894292      28.12306439      30.36988160
Na      11.86050052      23.45925244      24.09859938
Na      13.11502281      20.03653832      28.53074965
Na      18.21033252      28.54126999      20.70231840
Na      17.64248610      22.73796024      30.37456851
Na      15.73767446      25.56046057      31.54111681
Na       9.92276714      36.68411453      22.77544289
Na      11.39440533      31.30336971      29.53087497
Na      15.01377423      32.86793966      24.40298370
Na      13.54645757      29.43495718      25.67723005
Na      13.51412170      27.14559244      34.76890854
Na      11.69781321      35.53531852      30.74304502
Na      11.06238463      23.51267309      30.06588785
Na      16.46395595      25.67113204      22.47985281
Na      17.62396526      18.67055585      34.32264451
Na       9.85022089      23.82921566      25.03618222
Na      16.82202552      19.86186286      24.67715512
Na      13.78954674      30.37638279      30.46630336
Na      17.64569890      28.31747021      34.76512878
Na      12.89572095      25.73032313      26.73770560
Na      13.21002085      35.14587692      33.51024742
Na      11.89160167      29.45040382      21.00454826
Na      10.68631710      19.08341056      36.50432380
Na      10.73772817      19.35007285      26.80877775
Na      13.90132064      30.78067886      20.20522914
Na      12.81159602      33.61721471      26.66086302
Na      14.07976325      20.61746271      24.36411514
Na      15.81560058      28.78325042      34.86403258
Na      13.15729946      35.53872031      20.41952912
Na      15.79903262      19.93971338      21.38775324
Na      17.77660470      27.55495339      29.33183265
Na      15.77818093      33.36397058      33.51049940
Na      18.34079735      33.80784077      27.87256689
Na      15.98449300      32.65438305      19.75815876
Na      12.96259756      20.72495918      34.37493123
Na      10.96031213      27.71278370      25.01124839
Na      11.58675747      22.10821390      19.71940359
Na      15.79487488      25.04471189      26.06549992
Na      13.95730523      24.87146015      22.77219229
Na      15.03584804      21.35120294      33.36863229
Na      17.70195438      33.84034673      21.66932040
Na      10.70336383      26.54712994      34.86000084
Na      11.18186294      31.06650455      34.15331112
Na      18.00313850      30.45997855      24.43298242
Na      11.03771538      33.56404604      20.22430435
Na      18.02373821      33.55207679      33.57979506
Na      18.31603990      23.63659893      19.80623735
Na      16.00465173      36.41020770      30.27265349
Cl      14.47122072      20.75720056      36.32793485
Cl      16.42294552      24.21787610      29.03963176
Cl      10.61720413      20.98113892      23.48986852
Cl      12.51807221      28.76021907      28.09286408
Cl      13.69597870      23.04996709      26.28670426
Cl      15.55108016      23.26763105      23.13581811
Cl      16.84709794      26.90134415      32.92816389
Cl      15.28753617      36.65753020      25.42346936
Cl      15.32459045      29.76552267      31.17775558
Cl      11.66675616      23.78605076      34.96344036
Cl      10.91534554      33.58584268      27.53739009
Cl      11.32018338      23.78252298      26.95776341
Cl      14.60469676      34.23671789      20.42025987
Cl      10.33729377      30.85933573      22.92939264
Cl      16.55819805      20.52669800      31.91556534
Cl      10.24576680      29.59321587      36.54023155
Cl      14.58674288      30.60862404      35.65803483
Cl      17.34338085      31.07935574       0.06585229
Cl      17.97901102      35.08111698      24.42704819
Cl      14.60397231      35.48366176      32.04080150
Cl      10.13712381      35.21416464      32.50407447
Cl      14.53530661      32.25234224      27.84399188
Cl      11.81092892      18.69796543      20.62784446
Cl      12.90176227      36.57059565      25.05850803
Cl      14.60525112      25.34593381      33.66521771
Cl       9.60210653      24.86382502      30.74154571
Cl       9.27717604      20.90396876      35.45128179
Cl      14.70689526      27.01629934      25.98771240
Cl      17.26117100      21.30008794      21.94593607
Cl      16.24233584      35.46577088      36.49260653
Cl      10.60676568      24.82609039      20.95204735
Cl      12.51087806      27.05925005      23.86672351
Cl      12.95981943      22.75590151      21.71009145
Cl      11.19035481      20.27835496      29.76098696
Cl      14.06818458      27.21069256      19.91513232
Cl      17.33330148      30.92834161      27.09617834
Cl       9.75829453      34.77205835      19.17888990
Cl      12.28980602      31.98687687      18.69909810
Cl      17.74170489      26.56678471      24.12446555
Cl      11.96176667      28.08369186      32.37266470
Cl      13.35390384      31.88746910      23.05073564
Cl      16.94014311      33.67353318      31.24818516
Cl      12.66760594      32.99884546      31.39647787
Cl      16.97630285      26.07734318      19.38142473
Cl      11.81830576      36.76172567      34.49147393
Cl      16.44751398      32.17195928      23.13772059
Cl      13.55397930      21.16720406      31.66244720
Cl       9.38847494      30.05341463      32.02341459
Cl       9.98252520      28.02913728      27.54169902
Cl      17.65628224      19.54876744      27.81254425
Na      24.10664775       5.21503245      18.45965011
Na      25.21887456      12.95858282      10.40778446
Na      19.68644153       9.68806716      11.93488437
Na      21.07799913       5.02425521       5.66360214
Na      22.33252142       1.60154108      10.09575241
Na      27.42783114      10.10627275       2.26732116
Na      26.85998472       4.30296300      11.93957127
Na      24.95517308       7.12546334      13.10611957
Na      19.14026576      18.24911730       4.34044566
Na      20.61190394      12.86837247      11.09587774
Na      24.23127284      14.43294243       5.96798647
Na      22.76395619      10.99995995       7.24223282
Na      22.73162031       8.71059521      16.33391131
Na      20.91531183      17.10032129      12.30804778
Na      20.27988325       5.07767586      11.63089062
Na      25.68145457       7.23613480       4.04485558
Na      26.84146388       0.23555862      15.88764728
Na      19.06771950       5.39421842       6.60118499
Na      26.03952413       1.42686563       6.24215789
Na      23.00704536      11.94138556      12.03130613
Na      26.86319752       9.88247298      16.33013155
Na      22.11321957       7.29532589       8.30270837
Na      22.42751947      16.71087969      15.07525018
Na      21.10910029      11.01540658       2.56955102
Na      19.90381571       0.64841333      18.06932657
Na      19.95522679       0.91507562       8.37378052
Na      23.11881925      12.34568163       1.77023191
Na      22.02909464      15.18221748       8.22586578
Na      23.29726187       2.18246548       5.92911791
Na      25.03309920      10.34825319      16.42903535
Na      22.37479807      17.10372307       1.98453188
Na      25.01653124       1.50471615       2.95275601
Na      26.99410332       9.11995616      10.89683541
Na      24.99567954      14.92897335      15.07550217
Na      27.55829596      15.37284354       9.43756966
Na      25.20199161      14.21938581       1.32316153
Na      22.18009617       2.28996194      15.93993400
Na      20.17781074       9.27778647       6.57625115
Na      20.80425609       3.67321667       1.28440636
Na      25.01237350       6.60971466       7.63050269
Na      23.17480384       6.43646291       4.33719506
Na      24.25334666       2.91620570      14.93363506
Na      26.91945299      15.40534950       3.23432317
Na      19.92086244       8.11213271      16.42500360
Na      20.39936156      12.63150732      15.71831389
Na      27.22063712      12.02498132       5.99798519
Na      20.25521399      15.12904881       1.78930712
Na      27.24123683      15.11707956      15.14479783
Na      27.53353851       5.20160169       1.37124011
Na      25.22215035      17.97521046      11.83765626
Cl      23.68871934       2.32220332      17.89293762
Cl      25.64044414       5.78287887      10.60463452
Cl      19.83470274       2.54614169       5.05487129
Cl      21.73557083      10.32522183       9.65786685
Cl      22.91347732       4.61496985       7.85170703
Cl      24.76857877       4.83263381       4.70082087
Cl      26.06459656       8.46634692      14.49316666
Cl      24.50503479      18.22253297       6.98847212
Cl      24.54208907      11.33052544      12.74275834
Cl      20.88425478       5.35105353      16.52844312
Cl      20.13284416      15.15084545       9.10239286
Cl      20.53768199       5.34752575       8.52276618
Cl      23.82219538      15.80172066       1.98526264
Cl      19.55479238      12.42433850       4.49439541
Cl      25.77569666       2.09170077      13.48056811
Cl      19.46326542      11.15821864      18.10523432
Cl      23.80424150      12.17362681      17.22303760
Cl      26.56087946      12.64435851      18.50084953
Cl      27.19650963      16.64611975       5.99205096
Cl      23.82147092      17.04866452      13.60580426
Cl      19.35462243      16.77916741      14.06907723
Cl      23.75280522      13.81734501       9.40899465
Cl      21.02842754       0.26296820       2.19284723
Cl      22.11926089      18.13559841       6.62351079
Cl      23.82274974       6.91093658      15.23022047
Cl      18.81960514       6.42882779      12.30654848
Cl      18.49467465       2.46897153      17.01628455
Cl      23.92439387       8.58130211       7.55271517
Cl      26.47866961       2.86509071       3.51093883
Cl      25.45983446      17.03077365      18.05760930
Cl      19.82426430       6.39109316       2.51705011
Cl      21.72837668       8.62425282       5.43172627
Cl      22.17731805       4.32090428       3.27509421
Cl      20.40785343       1.84335773      11.32598972
Cl      23.28568320       8.77569533       1.48013509
Cl      26.55080009      12.49334437       8.66118111
Cl      18.97579314      16.33706111       0.74389267
Cl      21.50730463      13.55187964       0.26410087
Cl      26.95920350       8.13178748       5.68946832
Cl      21.17926529       9.64869463      13.93766747
Cl      22.57140245      13.45247187       4.61573841
Cl      26.15764173      15.23853595      12.81318793
Cl      21.88510456      14.56384823      12.96148064
Cl      26.19380146       7.64234595       0.94642749
Cl      21.03580438      18.32672844      16.05647670
Cl      25.66501260      13.73696204       4.70272335
Cl      22.77147792       2.73220683      13.22744997
Cl      18.60597356      11.61841740      13.58841735
Cl      19.20002381       9.59414004       9.10670179
Cl      26.87378086       1.11377021       9.37754702
Na      24.10664775       5.21503245       0.02465288
Na      25.21887456      12.95858282      28.84278169
Na      19.68644153       9.68806716      30.36988160
Na      21.07799913       5.02425521      24.09859938
Na      22.33252142       1.60154108      28.53074965
Na      27.42783114      10.10627275      20.70231840
Na      26.85998472       4.30296300      30.37456851
Na      24.95517308       7.12546334      31.54111681
Na      19.14026576      18.24911730      22.77544289
Na      20.61190394      12.86837247      29.53087497
Na      24.23127284      14.43294243      24.40298370
Na      22.76395619      10.99995995      25.67723005
Na      22.73162031       8.71059521      34.76890854
Na      20.91531183      17.10032129      30.74304502
Na      20.27988325       5.07767586      30.06588785
Na      25.68145457       7.23613480      22.47985281
Na      26.84146388       0.23555862      34.32264451
Na      19.06771950       5.39421842      25.03618222
Na      26.03952413       1.42686563      24.67715512
Na      23.00704536      11.94138556      30.46630336
Na      26.86319752       9.88247298      34.76512878
Na      22.11321957       7.29532589      26.73770560
Na      22.42751947      16.71087969      33.51024742
Na      21.10910029      11.01540658      21.00454826
Na      19.90381571       0.64841333      36.50432380
Na      19.95522679       0.91507562      26.80877775
Na      23.11881925      12.34568163      20.20522914
Na      22.02909464      15.18221748      26.66086302
Na      23.29726187       2.18246548      24.36411514
Na      25.03309920      10.34825319      34.86403258
Na      22.37479807      17.10372307      20.41952912
Na      25.01653124       1.50471615      21.38775324
Na      26.99410332       9.11995616      29.33183265
Na      24.99567954      14.92897335      33.51049940
Na      27.55829596      15.37284354      27.87256689
Na      25.20199161      14.21938581      19.75815876
Na      22.18009617       2.28996194      34.37493123
Na      20.17781074       9.27778647      25.01124839
Na      20.80425609       3.67321667      19.71940359
Na      25.01237350       6.60971466      26.06549992
Na      23.17480384       6.43646291      22.77219229
Na      24.25334666       2.91620570      33.36863229
Na      26.91945299      15.40534950      21.66932040
Na      19.92086244       8.11213271      34.86000084
Na      20.39936156      12.63150732      34.15331112
Na      27.22063712      12.02498132      24.43298242
Na      20.25521399      15.12904881      20.22430435
Na      27.24123683      15.11707956      33.57979506
Na      27.53353851       5.20160169      19.80623735
Na      25.22215035      17.97521046      30.27265349
Cl      23.68871934       2.32220332      36.32793485
Cl      25.64044414       5.78287887      29.03963176
Cl      19.83470274       2.54614169      23.48986852
Cl      21.73557083      10.32522183      28.09286408
Cl      22.91347732       4.61496985      26.28670426
Cl      24.76857877       4.83263381      23.13581811
Cl      26.06459656       8.46634692      32.92816389
Cl      24.50503479      18.22253297      25.42346936
Cl      24.54208907      11.33052544      31.17775558
Cl      20.88425478       5.35105353      34.96344036
Cl      20.13284416      15.15084545      27.53739009
Cl      20.53768199       5.34752575      26.95776341
Cl      23.82219538      15.80172066      20.42025987
Cl      19.55479238      12.42433850      22.92939264
Cl      25.77569666       2.09170077      31.91556534
Cl      19.46326542      11.15821864      36.54023155
Cl      23.80424150      12.17362681      35.65803483
Cl      26.56087946      12.64435851       0.06585229
Cl      27.19650963      16.64611975      24.42704819
Cl      23.82147092      17.04866452      32.04080150
Cl      19.35462243      16.77916741      32.50407447
Cl      23.75280522      13.81734501      27.84399188
Cl      21.02842754       0.26296820      20.62784446
Cl      22.11926089      18.13559841      25.05850803
Cl      23.82274974       6.91093658      33.66521771
Cl      18.81960514       6.42882779      30.74154571
Cl      18.49467465       2.46897153      35.45128179
Cl      23.92439387       8.58130211      25.98771240
Cl      26.47866961       2.86509071      21.94593607
Cl      25.45983446      17.03077365      36.49260653
Cl      19.82426430       6.39109316      20.95204735
Cl      21.72837668       8.62425282      23.86672351
Cl      22.17731805       4.32090428      21.71009145
Cl      20.40785343       1.84335773      29.76098696
Cl      23.28568320       8.77569533      19.91513232
Cl      26.55080009      12.49334437      27.09617834
Cl      18.97579314      16.33706111      19.17888990
Cl      21.50730463      13.55187964      18.69909810
Cl      26.95920350       8.13178748      24.12446555
Cl      21.17926529       9.64869463      32.37266470
Cl      22.57140245      13.45247187      23.05073564
Cl      26.15764173      15.23853595      31.24818516
Cl      21.88510456      14.56384823      31.39647787
Cl      26.19380146       7.64234595      19.38142473
Cl      21.03580438      18.32672844      34.49147393
Cl      25.66501260      13.73696204      23.13772059
Cl      22.77147792       2.73220683      31.66244720
Cl      18.60597356      11.61841740      32.02341459
Cl      19.20002381       9.59414004      27.54169902
Cl      26.87378086       1.11377021      27.81254425
Na      24.10664775      23.65002968      18.45965011
Na      25.21887456      31.39358005      10.40778446
Na      19.68644153      28.12306439      11.93488437
Na      21.07799913      23.45925244       5.66360214
Na      22.33252142      20.03653832      10.09575241
Na      27.42783114      28.54126999       2.26732116
Na      26.85998472      22.73796024      11.93957127
Na      24.95517308      25.56046057      13.10611957
Na      19.14026576      36.68411453       4.34044566
Na      20.61190394      31.30336971      11.09587774
Na      24.23127284      32.86793966       5.96798647
Na      22.76395619      29.43495718       7.24223282
Na      22.73162031      27.14559244      16.33391131
Na      20.91531183      35.53531852      12.30804778
Na      20.27988325      23.51267309      11.63089062
Na      25.68145457      25.67113204       4.04485558
Na      26.84146388      18.67055585      15.88764728
Na      19.06771950      23.82921566       6.60118499
Na      26.03952413      19.86186286       6.24215789
Na      23.00704536      30.37638279      12.03130613
Na      26.86319752      28.31747021      16.33013155
Na      22.11321957      25.73032313       8.30270837
Na      22.42751947      35.14587692      15.07525018
Na      21.10910029      29.45040382       2.56955102
Na      19.90381571      19.08341056      18.06932657
Na      19.95522679      19.35007285       8.37378052
Na      23.11881925      30.78067886       1.77023191
Na      22.02909464      33.61721471       8.22586578
Na      23.29726187      20.61746271       5.92911791
Na      25.03309920      28.78325042      16.42903535
Na      22.37479807      35.53872031       1.98453188
Na      25.01653124      19.93971338       2.95275601
Na      26.99410332      27.55495339      10.89683541
Na      24.99567954      33.36397058      15.07550217
Na      27.55829596      33.80784077       9.43756966
Na      25.20199161      32.65438305       1.32316153
Na      22.18009617      20.72495918      15.93993400
Na      20.17781074      27.71278370       6.57625115
Na      20.80425609      22.10821390       1.28440636
Na      25.01237350      25.04471189       7.63050269
Na      23.17480384      24.87146015       4.33719506
Na      24.25334666      21.35120294      14.93363506
Na      26.91945299      33.84034673       3.23432317
Na      19.92086244      26.54712994      16.42500360
Na      20.39936156      31.06650455      15.71831389
Na      27.22063712      30.45997855       5.99798519
Na      20.25521399      33.56404604       1.78930712
Na      27.24123683      33.55207679      15.14479783
Na      27.53353851      23.63659893       1.37124011
Na      25.22215035      36.41020770      11.83765626
Cl      23.68871934      20.75720056      17.89293762
Cl      25.64044414      24.21787610      10.60463452
Cl      19.83470274      20.98113892       5.05487129
Cl      21.73557083      28.76021907       9.65786685
Cl      22.91347732      23.04996709       7.85170703
Cl      24.76857877      23.26763105       4.70082087
Cl      26.06459656      26.90134415      14.49316666
Cl      24.50503479      36.65753020       6.98847212
Cl      24.54208907      29.76552267      12.74275834
Cl      20.88425478      23.78605076      16.52844312
Cl      20.13284416      33.58584268       9.10239286
Cl      20.53768199      23.78252298       8.52276618
Cl      23.82219538      34.23671789       1.98526264
Cl      19.55479238      30.85933573       4.49439541
Cl      25.77569666      20.52669800      13.48056811
Cl      19.46326542      29.59321587      18.10523432
Cl      23.80424150      30.60862404      17.22303760
Cl      26.56087946      31.07935574      18.50084953
Cl      27.19650963      35.08111698       5.99205096
Cl      23.82147092      35.48366176      13.60580426
Cl      19.35462243      35.21416464      14.06907723
Cl      23.75280522      32.25234224       9.40899465
Cl      21.02842754      18.69796543       2.19284723
Cl      22.11926089      36.57059565       6.62351079
Cl      23.82274974      25.34593381      15.23022047
Cl      18.81960514      24.86382502      12.30654848
Cl      18.49467465      20.90396876      17.01628455
Cl      23.92439387      27.01629934       7.55271517
Cl      26.47866961      21.30008794       3.51093883
Cl      25.45983446      35.46577088      18.05760930
Cl      19.82426430      24.82609039       2.51705011
Cl      21.72837668      27.05925005       5.43172627
Cl      22.17731805      22.75590151       3.27509421
Cl      20.40785343      20.27835496      11.32598972
Cl      23.28568320      27.21069256       1.48013509
Cl      26.55080009      30.92834161       8.66118111
Cl      18.97579314      34.77205835       0.74389267
Cl      21.50730463      31.98687687       0.26410087
Cl      26.95920350      26.56678471       5.68946832
Cl      21.17926529      28.08369186      13.93766747
Cl      22.57140245      31.88746910       4.61573841
Cl      26.15764173      33.67353318      12.81318793
Cl      21.88510456      32.99884546      12.96148064
Cl      26.19380146      26.07734318       0.94642749
Cl      21.03580438      36.76172567      16.05647670
Cl      25.66501260      32.17195928       4.70272335
Cl      22.77147792      21.16720406      13.22744997
Cl      18.60597356      30.05341463      13.58841735
Cl      19.20002381      28.02913728       9.10670179
Cl      26.87378086      19.54876744       9.37754702
Na      24.10664775      23.65002968       0.02465288
Na      25.21887456      31.39358005      28.84278169
Na      19.68644153      28.12306439      30.36988160
Na      21.07799913      23.45925244      24.09859938
Na      22.33252142      20.03653832      28.53074965
Na      27.42783114      28.54126999      20.70231840
Na      26.85998472      22.73796024      30.37456851
Na      24.95517308      25.56046057      31.54111681
Na      19.14026576      36.68411453      22.77544289
Na      20.61190394      31.30336971      29.53087497
Na      24.23127284      32.86793966      24.40298370
Na      22.76395619      29.43495718      25.67723005
Na      22.73162031      27.14559244      34.76890854
Na      20.91531183      35.53531852      30.74304502
Na      20.27988325      23.51267309      30.06588785
Na      25.68145457      25.67113204      22.47985281
Na      26.84146388      18.67055585      34.32264451
Na      19.06771950      23.82921566      25.03618222
Na      26.03952413      19.86186286      24.67715512
Na      23.00704536      30.37638279      30.46630336
Na      26.86319752      28.31747021      34.76512878
Na      22.11321957      25.73032313      26.73770560
Na      22.42751947      35.14587692      33.51024742
Na      21.10910029      29.45040382      21.00454826
Na      19.90381571      19.08341056      36.50432380
Na      19.95522679      19.35007285      26.80877775
Na      23.11881925      30.78067886      20.20522914
Na      22.02909464      33.61721471      26.66086302
Na      23.29726187      20.61746271      24.36411514
Na      25.03309920      28.78325042      34.86403258
Na      22.37479807      35.53872031      20.41952912
Na      25.01653124      19.93971338      21.38775324
Na      26.99410332      27.55495339      29.33183265
Na      24.99567954      33.36397058      33.51049940
Na      27.55829596      33.80784077      27.87256689
Na      25.20199161      32.65438305      19.75815876
Na      22.18009617      20.72495918      34.37493123
Na      20.17781074      27.71278370      25.01124839
Na      20.80425609      22.10821390      19.71940359
Na      25.01237350      25.04471189      26.06549992
Na      23.17480384      24.87146015      22.77219229
Na      24.25334666      21.35120294      33.36863229
Na      26.91945299      33.84034673      21.66932040
Na      19.92086244      26.54712994      34.86000084
Na      20.39936156      31.06650455      34.15331112
Na      27.22063712      30.45997855      24.43298242
Na      20.25521399      33.56404604      20.22430435
Na      27.24123683      33.55207679      33.57979506
Na      27.53353851      23.63659893      19.80623735
Na      25.22215035      36.41020770      30.27265349
Cl      23.68871934      20.75720056      36.32793485
Cl      25.64044414      24.21787610      29.03963176
Cl      19.83470274      20.98113892      23.48986852
Cl      21.73557083      28.76021907      28.09286408
Cl      22.91347732      23.04996709      26.28670426
Cl      24.76857877      23.26763105      23.13581811
Cl      26.06459656      26.90134415      32.92816389
Cl      24.50503479      36.65753020      25.42346936
Cl      24.54208907      29.76552267      31.17775558
Cl      20.88425478      23.78605076      34.96344036
Cl      20.13284416      33.58584268      27.53739009
Cl      20.53768199      23.78252298      26.95776341
Cl      23.82219538      34.23671789      20.42025987
Cl      19.55479238      30.85933573      22.92939264
Cl      25.77569666      20.52669800      31.91556534
Cl      19.46326542      29.59321587      36.54023155
Cl      23.80424150      30.60862404      35.65803483
Cl      26.56087946      31.07935574       0.06585229
Cl      27.19650963      35.08111698      24.42704819
Cl      23.82147092      35.48366176      32.04080150
Cl      19.35462243      35.21416464      32.50407447
Cl      23.75280522      32.25234224      27.84399188
Cl      21.02842754      18.69796543      20.62784446
Cl      22.11926089      36.57059565      25.05850803
Cl      23.82274974      25.34593381      33.66521771
Cl      18.81960514      24.86382502      30.74154571
Cl      18.49467465      20.90396876      35.45128179
Cl      23.92439387      27.01629934      25.98771240
Cl      26.47866961      21.30008794      21.94593607
Cl      25.45983446      35.46577088      36.49260653
Cl      19.82426430      24.82609039      20.95204735
Cl      21.72837668      27.05925005      23.86672351
Cl      22.17731805      22.75590151      21.71009145
Cl      20.40785343      20.27835496      29.76098696
Cl      23.28568320      27.21069256      19.91513232
Cl      26.55080009      30.92834161      27.09617834
Cl      18.97579314      34.77205835      19.17888990
Cl      21.50730463      31.98687687      18.69909810
Cl      26.95920350      26.56678471      24.12446555
Cl      21.17926529      28.08369186      32.37266470
Cl      22.57140245      31.88746910      23.05073564
Cl      26.15764173      33.67353318      31.24818516
Cl      21.88510456      32.99884546      31.39647787
Cl      26.19380146      26.07734318      19.38142473
Cl      21.03580438      36.76172567      34.49147393
Cl      25.66501260      32.17195928      23.13772059
Cl      22.77147792      21.16720406      31.66244720
Cl      18.60597356      30.05341463      32.02341459
Cl      19.20002381      28.02913728      27.54169902
Cl      26.87378086      19.54876744      27.81254425
Na      33.32414637       5.21503245      18.45965011
Na      34.43637317      12.95858282      10.40778446
Na      28.90394015       9.68806716      11.93488437
Na      30.29549775       5.02425521       5.66360214
Na      31.55002004       1.60154108      10.09575241
Na      36.64532975      10.10627275       2.26732116
Na      36.07748334       4.30296300      11.93957127
Na      34.17267170       7.12546334      13.10611957
Na      28.35776437      18.24911730       4.34044566
Na      29.82940256      12.86837247      11.09587774
Na      33.44877146      14.43294243       5.96798647
Na      31.98145480      10.99995995       7.24223282
Na      31.94911893       8.71059521      16.33391131
Na      30.13281045      17.10032129      12.30804778
Na      29.49738186       5.07767586      11.63089062
Na      34.89895319       7.23613480       4.04485558
Na      36.05896250       0.23555862      15.88764728
Na      28.28521812       5.39421842       6.60118499
Na      35.25702275       1.42686563       6.24215789
Na      32.22454397      11.94138556      12.03130613
Na      36.08069613       9.88247298      16.33013155
Na      31.33071818       7.29532589       8.30270837
Na      31.64501809      16.71087969      15.07525018
Na      30.32659890      11.01540658       2.56955102
Na      29.12131433       0.64841333      18.06932657
Na      29.17272541       0.91507562       8.37378052
Na      32.33631787      12.34568163       1.77023191
Na      31.24659325      15.18221748       8.22586578
Na      32.51476049       2.18246548       5.92911791
Na      34.25059781      10.34825319      16.42903535
Na      31.59229669      17.10372307       1.98453188
Na      34.23402985       1.50471615       2.95275601
Na      36.21160193       9.11995616      10.89683541
Na      34.21317816      14.92897335      15.07550217
Na      36.77579458      15.37284354       9.43756966
Na      34.41949023      14.21938581       1.32316153
Na      31.39759479       2.28996194      15.93993400
Na      29.39530936       9.27778647       6.57625115
Na      30.02175470       3.67321667       1.28440636
Na      34.22987211       6.60971466       7.63050269
Na      32.39230246       6.43646291       4.33719506
Na      33.47084528       2.91620570      14.93363506
Na      36.13695161      15.40534950       3.23432317
Na      29.13836106       8.11213271      16.42500360
Na      29.61686018      12.63150732      15.71831389
Na      36.43813574      12.02498132       5.99798519
Na      29.47271261      15.12904881       1.78930712
Na      36.45873545      15.11707956      15.14479783
Na      36.75103713       5.20160169       1.37124011
Na      34.43964897      17.97521046      11.83765626
Cl      32.90621796       2.32220332      17.89293762
Cl      34.85794276       5.78287887      10.60463452
Cl      29.05220136       2.54614169       5.05487129
Cl      30.95306945      10.32522183       9.65786685
Cl      32.13097594       4.61496985       7.85170703
Cl      33.98607739       4.83263381       4.70082087
Cl      35.28209518       8.46634692      14.49316666
Cl      33.72253340      18.22253297       6.98847212
Cl      33.75958768      11.33052544      12.74275834
Cl      30.10175339       5.35105353      16.52844312
Cl      29.35034278      15.15084545       9.10239286
Cl      29.75518061       5.34752575       8.52276618
Cl      33.03969399      15.80172066       1.98526264
Cl      28.77229100      12.42433850       4.49439541
Cl      34.99319528       2.09170077      13.48056811
Cl      28.68076403      11.15821864      18.10523432
Cl      33.02174012      12.17362681      17.22303760
Cl      35.77837808      12.64435851      18.50084953
Cl      36.41400825      16.64611975       5.99205096
Cl      33.03896954      17.04866452      13.60580426
Cl      28.57212104      16.77916741      14.06907723
Cl      32.97030384      13.81734501       9.40899465
Cl      30.24592616       0.26296820       2.19284723
Cl      31.33675950      18.13559841       6.62351079
Cl      33.04024836       6.91093658      15.23022047
Cl      28.03710376       6.42882779      12.30654848
Cl      27.71217327       2.46897153      17.01628455
Cl      33.14189249       8.58130211       7.55271517
Cl      35.69616823       2.86509071       3.51093883
Cl      34.67733307      17.03077365      18.05760930
Cl      29.04176291       6.39109316       2.51705011
Cl      30.94587530       8.62425282       5.43172627
Cl      31.39481666       4.32090428       3.27509421
Cl      29.62535204       1.84335773      11.32598972
Cl      32.50318181       8.77569533       1.48013509
Cl      35.76829871      12.49334437       8.66118111
Cl      28.19329176      16.33706111       0.74389267
Cl      30.72480325      13.55187964       0.26410087
Cl      36.17670212       8.13178748       5.68946832
Cl      30.39676391       9.64869463      13.93766747
Cl      31.78890107      13.45247187       4.61573841
Cl      35.37514035      15.23853595      12.81318793
Cl      31.10260318      14.56384823      12.96148064
Cl      35.41130008       7.64234595       0.94642749
Cl      30.25330300      18.32672844      16.05647670
Cl      34.88251122      13.73696204       4.70272335
Cl      31.98897653       2.73220683      13.22744997
Cl      27.82347217      11.61841740      13.58841735
Cl      28.41752243       9.59414004       9.10670179
Cl      36.09127947       1.11377021       9.37754702
Na      33.32414637       5.21503245       0.02465288
Na      34.43637317      12.95858282      28.84278169
Na      28.90394015       9.68806716      30.36988160
Na      30.29549775       5.02425521      24.09859938
Na      31.55002004       1.60154108      28.53074965
Na      36.64532975      10.10627275      20.70231840
Na      36.07748334       4.30296300      30.37456851
Na      34.17267170       7.12546334      31.54111681
Na      28.35776437      18.24911730      22.77544289
Na      29.82940256      12.86837247      29.53087497
Na      33.44877146      14.43294243      24.40298370
Na      31.98145480      10.99995995      25.67723005
Na      31.94911893       8.71059521      34.76890854
Na      30.13281045      17.10032129      30.74304502
Na      29.49738186       5.07767586      30.06588785
Na      34.89895319       7.23613480      22.47985281
Na      36.05896250       0.23555862      34.32264451
Na      28.28521812       5.39421842      25.03618222
Na      35.25702275       1.42686563      24.67715512
Na      32.22454397      11.94138556      30.46630336
Na      36.08069613       9.88247298      34.76512878
Na      31.33071818       7.29532589      26.73770560
Na      31.64501809      16.71087969      33.51024742
Na      30.32659890      11.01540658      21.00454826
Na      29.12131433       0.64841333      36.50432380
Na      29.17272541       0.91507562      26.80877775
Na      32.33631787      12.34568163      20.20522914
Na      31.24659325      15.18221748      26.66086302
Na      32.51476049       2.18246548      24.36411514
Na      34.25059781      10.34825319      34.86403258
Na      31.59229669      17.10372307      20.41952912
Na      34.23402985       1.50471615      21.38775324
Na      36.21160193       9.11995616      29.33183265
Na      34.21317816      14.92897335      33.51049940
Na      36.77579458      15.37284354      27.87256689
Na      34.41949023      14.21938581      19.75815876
Na      31.39759479       2.28996194      34.37493123
Na      29.39530936       9.27778647      25.01124839
Na      30.02175470       3.67321667      19.71940359
Na      34.22987211       6.60971466      26.06549992
Na      32.39230246       6.43646291      22.77219229
Na      33.47084528       2.91620570      33.36863229
Na      36.13695161      15.40534950      21.66932040
Na      29.13836106       8.11213271      34.86000084
Na      29.61686018      12.63150732      34.15331112
Na      36.43813574      12.02498132      24.43298242
Na      29.47271261      15.12904881      20.22430435
Na      36.45873545      15.11707956      33.57979506
Na      36.75103713       5.20160169      19.80623735
Na      34.43964897      17.97521046      30.27265349
Cl      32.90621796       2.32220332      36.32793485
Cl      34.85794276       5.78287887      29.03963176
Cl      29.05220136       2.54614169      23.48986852
Cl      30.95306945      10.32522183      28.09286408
Cl      32.13097594       4.61496985      26.28670426
Cl      33.98607739       4.83263381      23.13581811
Cl      35.28209518       8.46634692      32.92816389
Cl      33.72253340      18.22253297      25.42346936
Cl      33.75958768      11.33052544      31.17775558
Cl      30.10175339       5.35105353      34.96344036
Cl      29.35034278      15.15084545      27.53739009
Cl      29.75518061       5.34752575      26.95776341
Cl      33.03969399      15.80172066      20.42025987
Cl      28.77229100      12.42433850      22.92939264
Cl      34.99319528       2.09170077      31.91556534
Cl      28.68076403      11.15821864      36.54023155
Cl      33.02174012      12.17362681      35.65803483
Cl      35.77837808      12.64435851       0.06585229
Cl      36.41400825      16.64611975      24.42704819
Cl      33.03896954      17.04866452      32.04080150
Cl      28.57212104      16.77916741      32.50407447
Cl      32.97030384      13.81734501      27.84399188
Cl      30.24592616       0.26296820      20.62784446
Cl      31.33675950      18.13559841      25.05850803
Cl      33.04024836       6.91093658      33.66521771
Cl      28.03710376       6.42882779      30.74154571
Cl      27.71217327       2.46897153      35.45128179
Cl      33.14189249       8.58130211      25.98771240
Cl      35.69616823       2.86509071      21.94593607
Cl      34.67733307      17.03077365      36.49260653
Cl      29.04176291       6.39109316      20.95204735
Cl      30.94587530       8.62425282      23.86672351
Cl      31.39481666       4.32090428      21.71009145
Cl      29.62535204       1.84335773      29.76098696
Cl      32.50318181       8.77569533      19.91513232
Cl      35.76829871      12.49334437      27.09617834
Cl      28.19329176      16.33706111      19.17888990
Cl      30.72480325      13.55187964      18.69909810
Cl      36.17670212       8.13178748      24.12446555
Cl      30.39676391       9.64869463      32.37266470
Cl      31.78890107      13.45247187      23.05073564
Cl      35.37514035      15.23853595      31.24818516
Cl      31.10260318      14.56384823      31.39647787
Cl      35.41130008       7.64234595      19.38142473
Cl      30.25330300      18.32672844      34.49147393
Cl      34.88251122      13.73696204      23.13772059
Cl      31.98897653       2.73220683      31.66244720
Cl      27.82347217      11.61841740      32.02341459
Cl      28.41752243       9.59414004      27.54169902
Cl      36.09127947       1.11377021      27.81254425
Na      33.32414637      23.65002968      18.45965011
Na      34.43637317      31.39358005      10.40778446
Na      28.90394015      28.12306439      11.93488437
Na      30.29549775      23.45925244       5.66360214
Na      31.55002004      20.03653832      10.09575241
Na      36.64532975      28.54126999       2.26732116
Na      36.07748334      22.73796024      11.93957127
Na      34.17267170      25.56046057      13.10611957
Na      28.35776437      36.68411453       4.34044566
Na      29.82940256      31.30336971      11.09587774
Na      33.44877146      32.86793966       5.96798647
Na      31.98145480      29.43495718       7.24223282
Na      31.94911893      27.14559244      16.33391131
Na      30.13281045      35.53531852      12.30804778
Na      29.49738186      23.51267309      11.63089062
Na      34.89895319      25.67113204       4.04485558
Na      36.05896250      18.67055585      15.88764728
Na      28.28521812      23.82921566       6.60118499
Na      35.25702275      19.86186286       6.24215789
Na      32.22454397      30.37638279      12.03130613
Na      36.08069613      28.31747021      16.33013155
Na      31.33071818      25.73032313       8.30270837
Na      31.64501809      35.14587692      15.07525018
Na      30.32659890      29.45040382       2.56955102
Na      29.12131433      19.08341056      18.06932657
Na      29.17272541      19.35007285       8.37378052
Na      32.33631787      30.78067886       1.77023191
Na      31.24659325      33.61721471       8.22586578
Na      32.51476049      20.61746271       5.92911791
Na      34.25059781      28.78325042      16.42903535
Na      31.59229669      35.53872031       1.98453188
Na      34.23402985      19.93971338       2.95275601
Na      36.21160193      27.55495339      10.89683541
Na      34.21317816      33.36397058      15.07550217
Na      36.77579458      33.80784077       9.43756966
Na      34.41949023      32.65438305       1.32316153
Na      31.39759479      20.72495918      15.93993400
Na      29.39530936      27.71278370       6.57625115
Na      30.02175470      22.10821390       1.28440636
Na      34.22987211      25.04471189       7.63050269
Na      32.39230246      24.87146015       4.33719506
Na      33.47084528      21.35120294      14.93363506
Na      36.13695161      33.84034673       3.23432317
Na      29.13836106      26.54712994      16.42500360
Na      29.61686018      31.06650455      15.71831389
Na      36.43813574      30.45997855       5.99798519
Na      29.47271261      33.56404604       1.78930712
Na      36.45873545      33.55207679      15.14479783
Na      36.75103713      23.63659893       1.37124011
Na      34.43964897      36.41020770      11.83765626
Cl      32.90621796      20.75720056      17.89293762
Cl      34.85794276      24.21787610      10.60463452
Cl      29.05220136      20.98113892       5.05487129
Cl      30.95306945      28.76021907       9.65786685
Cl      32.13097594      23.04996709       7.85170703
Cl      33.98607739      23.26763105       4.70082087
Cl      35.28209518      26.90134415      14.49316666
Cl      33.72253340      36.65753020       6.98847212
Cl      33.75958768      29.76552267      12.74275834
Cl      30.10175339      23.78605076      16.52844312
Cl      29.35034278      33.58584268       9.10239286
Cl      29.75518061      23.78252298       8.52276618
Cl      33.03969399      34.23671789       1.98526264
Cl      28.77229100      30.85933573       4.49439541
Cl      34.99319528      20.52669800      13.48056811
Cl      28.68076403      29.59321587      18.10523432
Cl      33.02174012      30.60862404      17.22303760
Cl      35.77837808      31.07935574      18.50084953
Cl      36.41400825      35.08111698       5.99205096
Cl      33.03896954      35.48366176      13.60580426
Cl      28.57212104      35.21416464      14.06907723
Cl      32.97030384      32.25234224       9.40899465
Cl      30.24592616      18.69796543       2.19284723
Cl      31.33675950      36.57059565       6.62351079
Cl      33.04024836      25.34593381      15.23022047
Cl      28.03710376      24.86382502      12.30654848
Cl      27.71217327      20.90396876      17.01628455
Cl      33.14189249      27.01629934       7.55271517
Cl      35.69616823      21.30008794       3.51093883
Cl      34.67733307      35.46577088      18.05760930
Cl      29.04176291      24.82609039       2.51705011
Cl      30.94587530      27.05925005       5.43172627
Cl      31.39481666      22.75590151       3.27509421
Cl      29.62535204      20.27835496      11.32598972
Cl      32.50318181      27.21069256       1.48013509
Cl      35.76829871      30.92834161       8.66118111
Cl      28.19329176      34.77205835       0.74389267
Cl      30.72480325      31.98687687       0.26410087
Cl      36.17670212      26.56678471       5.68946832
Cl      30.39676391      28.08369186      13.93766747
Cl      31.78890107      31.88746910       4.61573841
Cl      35.37514035      33.67353318      12.81318793
Cl      31.10260318      32.99884546      12.96148064
Cl      35.41130008      26.07734318       0.94642749
Cl      30.25330300      36.76172567      16.05647670
Cl      34.88251122      32.17195928       4.70272335
Cl      31.98897653      21.16720406      13.22744997
Cl      27.82347217      30.05341463      13.58841735
Cl      28.41752243      28.02913728       9.10670179
Cl      36.09127947      19.54876744       9.37754702
Na      33.32414637      23.65002968       0.02465288
Na      34.43637317      31.39358005      28.84278169
Na      28.90394015      28.12306439      30.36988160
Na      30.29549775      23.45925244      24.09859938
Na      31.55002004      20.03653832      28.53074965
Na      36.64532975      28.54126999      20.70231840
Na      36.07748334      22.73796024      30.37456851
Na      34.17267170      25.56046057      31.54111681
Na      28.35776437      36.68411453      22.77544289
Na      29.82940256      31.30336971      29.53087497
Na      33.44877146      32.86793966      24.40298370
Na      31.98145480      29.43495718      25.67723005
Na      31.94911893      27.14559244      34.76890854
Na      30.13281045      35.53531852      30.74304502
Na      29.49738186      23.51267309      30.06588785
Na      34.89895319      25.67113204      22.47985281
Na      36.05896250      18.67055585      34.32264451
Na      28.28521812      23.82921566      25.03618222
Na      35.25702275      19.86186286      24.67715512
Na      32.22454397      30.37638279      30.46630336
Na      36.08069613      28.31747021      34.76512878
Na      31.33071818      25.73032313      26.73770560
Na      31.64501809      35.14587692      33.51024742
Na      30.32659890      29.45040382      21.00454826
Na      29.12131433      19.08341056      36.50432380
Na      29.17272541      19.35007285      26.80877775
Na      32.33631787      30.78067886      20.20522914
Na      31.24659325      33.61721471      26.66086302
Na      32.51476049      20.61746271      24.36411514
Na      34.25059781      28.78325042      34.86403258
Na      31.59229669      35.53872031      20.41952912
Na      34.23402985      19.93971338      21.38775324
Na      36.21160193      27.55495339      29.33183265
Na      34.21317816      33.36397058      33.51049940
Na      36.77579458      33.80784077      27.87256689
Na      34.41949023      32.65438305      19.75815876
Na      31.39759479      20.72495918      34.37493123
Na      29.39530936      27.71278370      25.01124839
Na      30.02175470      22.10821390      19.71940359
Na      34.22987211      25.04471189      26.06549992
Na      32.39230246      24.87146015      22.77219229
Na      33.47084528      21.35120294      33.36863229
Na      36.13695161      33.84034673      21.66932040
Na      29.13836106      26.54712994      34.86000084
Na      29.61686018      31.06650455      34.15331112
Na      36.43813574      30.45997855      24.43298242
Na      29.47271261      33.56404604      20.22430435
Na      36.45873545      33.55207679      33.57979506
Na      36.75103713      23.63659893      19.80623735
Na      34.43964897      36.41020770      30.27265349
Cl      32.90621796      20.75720056      36.32793485
Cl      34.85794276      24.21787610      29.03963176
Cl      29.05220136      20.98113892      23.48986852
Cl      30.95306945      28.76021907      28.09286408
Cl      32.13097594      23.04996709      26.28670426
Cl      33.98607739      23.26763105      23.13581811
Cl      35.28209518      26.90134415      32.92816389
Cl      33.72253340      36.65753020      25.42346936
Cl      33.75958768      29.76552267      31.17775558
Cl      30.10175339      23.78605076      34.96344036
Cl      29.35034278      33.58584268      27.53739009
Cl      29.75518061      23.78252298      26.95776341
Cl      33.03969399      34.23671789      20.42025987
Cl      28.77229100      30.85933573      22.92939264
Cl      34.99319528      20.52669800      31.91556534
Cl      28.68076403      29.59321587      36.54023155
Cl      33.02174012      30.60862404      35.65803483
Cl      35.77837808      31.07935574       0.06585229
Cl      36.41400825      35.08111698      24.42704819
Cl      33.03896954      35.48366176      32.04080150
Cl      28.57212104      35.21416464      32.50407447
Cl      32.97030384      32.25234224      27.84399188
Cl      30.24592616      18.69796543      20.62784446
Cl      31.33675950      36.57059565      25.05850803
Cl      33.04024836      25.34593381      33.66521771
Cl      28.03710376      24.86382502      30.74154571
Cl      27.71217327      20.90396876      35.45128179
Cl      33.14189249      27.01629934      25.98771240
Cl      35.69616823      21.30008794      21.94593607
Cl      34.67733307      35.46577088      36.49260653
Cl      29.04176291      24.82609039      20.95204735
Cl      30.94587530      27.05925005      23.86672351
Cl      31.39481666      22.75590151      21.71009145
Cl      29.62535204      20.27835496      29.76098696
Cl      32.50318181      27.21069256      19.91513232
Cl      35.76829871      30.92834161      27.09617834
Cl      28.19329176      34.77205835      19.17888990
Cl      30.72480325      31.98687687      18.69909810
Cl      36.17670212      26.56678471      24.12446555
Cl      30.39676391      28.08369186      32.37266470
Cl      31.78890107      31.88746910      23.05073564
Cl      35.37514035      33.67353318      31.24818516
Cl      31.10260318      32.99884546      31.39647787
Cl      35.41130008      26.07734318      19.38142473
Cl      30.25330300      36.76172567      34.49147393
Cl      34.88251122      32.17195928      23.13772059
Cl      31.98897653      21.16720406      31.66244720
Cl      27.82347217      30.05341463      32.02341459
Cl      28.41752243      28.02913728      27.54169902
Cl      36.09127947      19.54876744      27.81254425
