4800
Lattice="53.17573367456205 0.0 0.0 0.0 53.17573367456205 0.0 0.0 0.0 53.17573367456205" Properties=species:S:1:pos:R:3 pbc="T T T"
Na       8.17993552       3.76068916      17.74894829
Na       9.78404416       9.34475525      10.00708178
Na       1.80489501       6.98630535      11.47538790
Na       3.81186836       3.62311496       5.44555184
Na       5.62120259       1.15491097       9.70706305
Na      12.96991083       7.28788377       2.18002865
Na      12.15093458       3.10297327      11.47989436
Na       9.40372081       5.13834822      12.60153022
Na       1.01717323      13.15989079       4.17333725
Na       3.13964277       9.27970233      10.66868327
Na       8.35967601      10.40795251       5.73821728
Na       6.24343919       7.93234376       6.96340478
Na       6.19680279       6.28142610      15.70505105
Na       3.57723266      12.33146551      11.83418442
Na       2.66078606       3.66163791      11.18309800
Na      10.45119998       5.21815616       3.88912748
Na      12.12422291       0.16986716      15.27596831
Na       0.91254342       3.88990460       6.34703748
Na      10.96762565       1.02894817       6.00183302
Na       6.59403444       8.61122910      11.56809739
Na      12.15556824       7.12649620      15.70141681
Na       5.30491458       5.26084032       7.98305172
Na       5.75821348      12.05062953      14.49484873
Na       3.85672398       7.94348271       2.47062257
Na       2.11840282       0.46758692      17.37365232
Na       2.19255043       0.65988371       8.05138757
Na       6.75524029       8.90277701       1.70207748
Na       5.18358544      10.94827332       7.90916760
Na       7.01259908       1.57382995       5.70084517
Na       9.51610972       7.46238186      15.79651278
Na       5.68217607      12.33391863       1.90812684
Na       9.49221459       1.08508811       2.83907406
Na      12.34436707       6.57662643      10.47730413
Na       9.46214124      10.76565270      14.49509102
Na      13.15807367      11.08573849       9.07422052
Na       9.75969474      10.25395154       1.27221943
Na       5.40136734       1.65134832      15.32624197
Na       2.51357204       6.69044177       6.32306360
Na       3.41706257       2.64884758       1.23495634
Na       9.48621809       4.76642906       7.33672615
Na       6.83598405       4.64149294       4.17021181
Na       8.39151196       2.10294821      14.35868583
Na      12.23670268      11.10917935       3.10980080
Na       2.14298846       5.84985996      15.79263626
Na       2.83310361       9.10889300      15.11315430
Na      12.67108535       8.67151207       5.76706104
Na       2.62520684      10.90993207       1.72041828
Na      12.70079527      10.90130075      14.56171877
Na      13.12236725       3.75100390       1.31844698
Na       9.78876867      12.96236978      11.38190310
Cl       7.57717845       1.67459837      17.20405440
Cl      10.39205271       4.17017728      10.19635306
Cl       2.01872467       1.83608588       4.86025730
Cl       4.76025085       7.44577338       9.28603621
Cl       6.45908598       3.32796914       7.54941406
Cl       9.13460526       3.48493202       4.51983792
Cl      11.00378635       6.10529260      13.93517559
Cl       8.75450906      13.14072017       6.71941394
Cl       8.80795057       8.17072272      12.25215850
Cl       3.53244064       3.85877733      15.89209333
Cl       2.44871900      10.92565017       8.75194813
Cl       3.03259619       3.85623336       8.19463724
Cl       7.76968421      11.39501242       1.90882946
Cl       1.61502407       8.95949843       4.32135990
Cl      10.58712060       1.50837727      12.96156238
Cl       1.48301935       8.04646802      17.40817761
Cl       7.74379024       8.77870402      16.55994572
Cl      11.71955015       9.11816031      17.78856152
Cl      12.63628749      12.00392953       5.76135528
Cl       7.76863936      12.29421454      13.08197690
Cl       1.32632904      12.09987349      13.52741373
Cl       7.66960629       9.96402995       9.04674566
Cl       3.74037375       0.18963289       2.10842198
Cl       5.31362767      13.07802951       6.36850373
Cl       7.77048374       4.98364766      14.64385262
Cl       0.55470059       4.63598706      11.83274284
Cl       0.08606973       1.78043656      16.36115272
Cl       7.91707994       6.18818964       7.26193347
Cl      11.60098304       2.06608792       3.37576668
Cl      10.13156847      12.28131299      17.36238617
Cl       2.00366983       4.60877568       2.42014296
Cl       4.74987509       6.21916246       5.22260326
Cl       5.39736059       3.11591117       3.14900215
Cl       2.84535100       1.32929095      10.88993587
Cl       6.99589975       6.32837141       1.42314947
Cl      11.70501319       9.00926028       8.32772315
Cl       0.77996267      11.78105969       0.71525258
Cl       4.43103403       9.77259630       0.25393291
Cl      12.29403283       5.86403350       5.47042216
Cl       3.95791943       6.95791284      13.40106328
Cl       5.96572865       9.70091089       4.43803115
Cl      11.13798071      10.98888596      12.31987652
Cl       4.97591581      10.50235193      12.46245992
Cl      11.19013207       5.51108508       0.90998976
Cl       3.75101299      13.21585811      15.43829774
Cl      10.42748656       9.90606380       4.52166716
Cl       6.25428740       1.97026207      12.71818936
Cl       0.24659053       8.37832875      13.06525939
Cl       1.10335926       6.91857218       8.75609116
Cl      12.17083205       0.80316730       9.01650877
Na       8.17993552       3.76068916      35.47419285
Na       9.78404416       9.34475525      27.73232633
Na       1.80489501       6.98630535      29.20063246
Na       3.81186836       3.62311496      23.17079640
Na       5.62120259       1.15491097      27.43230761
Na      12.96991083       7.28788377      19.90527321
Na      12.15093458       3.10297327      29.20513892
Na       9.40372081       5.13834822      30.32677477
Na       1.01717323      13.15989079      21.89858181
Na       3.13964277       9.27970233      28.39392783
Na       8.35967601      10.40795251      23.46346184
Na       6.24343919       7.93234376      24.68864934
Na       6.19680279       6.28142610      33.43029561
Na       3.57723266      12.33146551      29.55942898
Na       2.66078606       3.66163791      28.90834255
Na      10.45119998       5.21815616      21.61437204
Na      12.12422291       0.16986716      33.00121286
Na       0.91254342       3.88990460      24.07228204
Na      10.96762565       1.02894817      23.72707758
Na       6.59403444       8.61122910      29.29334195
Na      12.15556824       7.12649620      33.42666136
Na       5.30491458       5.26084032      25.70829628
Na       5.75821348      12.05062953      32.22009329
Na       3.85672398       7.94348271      20.19586713
Na       2.11840282       0.46758692      35.09889688
Na       2.19255043       0.65988371      25.77663213
Na       6.75524029       8.90277701      19.42732203
Na       5.18358544      10.94827332      25.63441215
Na       7.01259908       1.57382995      23.42608973
Na       9.51610972       7.46238186      33.52175734
Na       5.68217607      12.33391863      19.63337140
Na       9.49221459       1.08508811      20.56431862
Na      12.34436707       6.57662643      28.20254869
Na       9.46214124      10.76565270      32.22033557
Na      13.15807367      11.08573849      26.79946508
Na       9.75969474      10.25395154      18.99746399
Na       5.40136734       1.65134832      33.05148653
Na       2.51357204       6.69044177      24.04830816
Na       3.41706257       2.64884758      18.96020090
Na       9.48621809       4.76642906      25.06197071
Na       6.83598405       4.64149294      21.89545637
Na       8.39151196       2.10294821      32.08393039
Na      12.23670268      11.10917935      20.83504536
Na       2.14298846       5.84985996      33.51788082
Na       2.83310361       9.10889300      32.83839886
Na      12.67108535       8.67151207      23.49230560
Na       2.62520684      10.90993207      19.44566284
Na      12.70079527      10.90130075      32.28696333
Na      13.12236725       3.75100390      19.04369154
Na       9.78876867      12.96236978      29.10714766
Cl       7.57717845       1.67459837      34.92929895
Cl      10.39205271       4.17017728      27.92159762
Cl       2.01872467       1.83608588      22.58550185
Cl       4.76025085       7.44577338      27.01128077
Cl       6.45908598       3.32796914      25.27465862
Cl       9.13460526       3.48493202      22.24508248
Cl      11.00378635       6.10529260      31.66042015
Cl       8.75450906      13.14072017      24.44465850
Cl       8.80795057       8.17072272      29.97740306
Cl       3.53244064       3.85877733      33.61733789
Cl       2.44871900      10.92565017      26.47719268
Cl       3.03259619       3.85623336      25.91988180
Cl       7.76968421      11.39501242      19.63407402
Cl       1.61502407       8.95949843      22.04660446
Cl      10.58712060       1.50837727      30.68680693
Cl       1.48301935       8.04646802      35.13342217
Cl       7.74379024       8.77870402      34.28519027
Cl      11.71955015       9.11816031      35.51380608
Cl      12.63628749      12.00392953      23.48659984
Cl       7.76863936      12.29421454      30.80722146
Cl       1.32632904      12.09987349      31.25265829
Cl       7.66960629       9.96402995      26.77199022
Cl       3.74037375       0.18963289      19.83366654
Cl       5.31362767      13.07802951      24.09374829
Cl       7.77048374       4.98364766      32.36909718
Cl       0.55470059       4.63598706      29.55798739
Cl       0.08606973       1.78043656      34.08639728
Cl       7.91707994       6.18818964      24.98717803
Cl      11.60098304       2.06608792      21.10101124
Cl      10.13156847      12.28131299      35.08763073
Cl       2.00366983       4.60877568      20.14538752
Cl       4.74987509       6.21916246      22.94784781
Cl       5.39736059       3.11591117      20.87424671
Cl       2.84535100       1.32929095      28.61518043
Cl       6.99589975       6.32837141      19.14839402
Cl      11.70501319       9.00926028      26.05296771
Cl       0.77996267      11.78105969      18.44049714
Cl       4.43103403       9.77259630      17.97917747
Cl      12.29403283       5.86403350      23.19566672
Cl       3.95791943       6.95791284      31.12630784
Cl       5.96572865       9.70091089      22.16327571
Cl      11.13798071      10.98888596      30.04512108
Cl       4.97591581      10.50235193      30.18770448
Cl      11.19013207       5.51108508      18.63523432
Cl       3.75101299      13.21585811      33.16354230
Cl      10.42748656       9.90606380      22.24691172
Cl       6.25428740       1.97026207      30.44343392
Cl       0.24659053       8.37832875      30.79050395
Cl       1.10335926       6.91857218      26.48133572
Cl      12.17083205       0.80316730      26.74175333
Na       8.17993552       3.76068916       0.02370373
Na       9.78404416       9.34475525      45.45757089
Na       1.80489501       6.98630535      46.92587702
Na       3.81186836       3.62311496      40.89604095
Na       5.62120259       1.15491097      45.15755217
Na      12.96991083       7.28788377      37.63051777
Na      12.15093458       3.10297327      46.93038348
Na       9.40372081       5.13834822      48.05201933
Na       1.01717323      13.15989079      39.62382637
Na       3.13964277       9.27970233      46.11917239
Na       8.35967601      10.40795251      41.18870640
Na       6.24343919       7.93234376      42.41389390
Na       6.19680279       6.28142610      51.15554016
Na       3.57723266      12.33146551      47.28467353
Na       2.66078606       3.66163791      46.63358711
Na      10.45119998       5.21815616      39.33961660
Na      12.12422291       0.16986716      50.72645742
Na       0.91254342       3.88990460      41.79752659
Na      10.96762565       1.02894817      41.45232214
Na       6.59403444       8.61122910      47.01858651
Na      12.15556824       7.12649620      51.15190592
Na       5.30491458       5.26084032      43.43354084
Na       5.75821348      12.05062953      49.94533785
Na       3.85672398       7.94348271      37.92111169
Na       2.11840282       0.46758692      52.82414143
Na       2.19255043       0.65988371      43.50187668
Na       6.75524029       8.90277701      37.15256659
Na       5.18358544      10.94827332      43.35965671
Na       7.01259908       1.57382995      41.15133428
Na       9.51610972       7.46238186      51.24700190
Na       5.68217607      12.33391863      37.35861595
Na       9.49221459       1.08508811      38.28956318
Na      12.34436707       6.57662643      45.92779325
Na       9.46214124      10.76565270      49.94558013
Na      13.15807367      11.08573849      44.52470964
Na       9.75969474      10.25395154      36.72270855
Na       5.40136734       1.65134832      50.77673109
Na       2.51357204       6.69044177      41.77355272
Na       3.41706257       2.64884758      36.68544546
Na       9.48621809       4.76642906      42.78721527
Na       6.83598405       4.64149294      39.62070092
Na       8.39151196       2.10294821      49.80917495
Na      12.23670268      11.10917935      38.56028992
Na       2.14298846       5.84985996      51.24312538
Na       2.83310361       9.10889300      50.56364342
Na      12.67108535       8.67151207      41.21755016
Na       2.62520684      10.90993207      37.17090740
Na      12.70079527      10.90130075      50.01220789
Na      13.12236725       3.75100390      36.76893609
Na       9.78876867      12.96236978      46.83239222
Cl       7.57717845       1.67459837      52.65454351
Cl      10.39205271       4.17017728      45.64684217
Cl       2.01872467       1.83608588      40.31074641
Cl       4.76025085       7.44577338      44.73652533
Cl       6.45908598       3.32796914      42.99990318
Cl       9.13460526       3.48493202      39.97032704
Cl      11.00378635       6.10529260      49.38566471
Cl       8.75450906      13.14072017      42.16990306
Cl       8.80795057       8.17072272      47.70264761
Cl       3.53244064       3.85877733      51.34258244
Cl       2.44871900      10.92565017      44.20243724
Cl       3.03259619       3.85623336      43.64512636
Cl       7.76968421      11.39501242      37.35931857
Cl       1.61502407       8.95949843      39.77184901
Cl      10.58712060       1.50837727      48.41205149
Cl       1.48301935       8.04646802      52.85866673
Cl       7.74379024       8.77870402      52.01043483
Cl      11.71955015       9.11816031       0.06331696
Cl      12.63628749      12.00392953      41.21184440
Cl       7.76863936      12.29421454      48.53246602
Cl       1.32632904      12.09987349      48.97790285
Cl       7.66960629       9.96402995      44.49723477
Cl       3.74037375       0.18963289      37.55891110
Cl       5.31362767      13.07802951      41.81899285
Cl       7.77048374       4.98364766      50.09434174
Cl       0.55470059       4.63598706      47.28323195
Cl       0.08606973       1.78043656      51.81164184
Cl       7.91707994       6.18818964      42.71242259
Cl      11.60098304       2.06608792      38.82625580
Cl      10.13156847      12.28131299      52.81287529
Cl       2.00366983       4.60877568      37.87063208
Cl       4.74987509       6.21916246      40.67309237
Cl       5.39736059       3.11591117      38.59949126
Cl       2.84535100       1.32929095      46.34042499
Cl       6.99589975       6.32837141      36.87363858
Cl      11.70501319       9.00926028      43.77821227
Cl       0.77996267      11.78105969      36.16574170
Cl       4.43103403       9.77259630      35.70442203
Cl      12.29403283       5.86403350      40.92091128
Cl       3.95791943       6.95791284      48.85155239
Cl       5.96572865       9.70091089      39.88852027
Cl      11.13798071      10.98888596      47.77036564
Cl       4.97591581      10.50235193      47.91294904
Cl      11.19013207       5.51108508      36.36047888
Cl       3.75101299      13.21585811      50.88878686
Cl      10.42748656       9.90606380      39.97215627
Cl       6.25428740       1.97026207      48.16867848
Cl       0.24659053       8.37832875      48.51574851
Cl       1.10335926       6.91857218      44.20658028
Cl      12.17083205       0.80316730      44.46699789
Na       8.17993552      17.05462257      17.74894829
Na       9.78404416      22.63868867      10.00708178
Na       1.80489501      20.28023877      11.47538790
Na       3.81186836      16.91704837       5.44555184
Na       5.62120259      14.44884439       9.70706305
Na      12.96991083      20.58181719       2.18002865
Na      12.15093458      16.39690669      11.47989436
Na       9.40372081      18.43228164      12.60153022
Na       1.01717323      26.45382421       4.17333725
Na       3.13964277      22.57363575      10.66868327
Na       8.35967601      23.70188593       5.73821728
Na       6.24343919      21.22627718       6.96340478
Na       6.19680279      19.57535952      15.70505105
Na       3.57723266      25.62539893      11.83418442
Na       2.66078606      16.95557133      11.18309800
Na      10.45119998      18.51208957       3.88912748
Na      12.12422291      13.46380058      15.27596831
Na       0.91254342      17.18383802       6.34703748
Na      10.96762565      14.32288159       6.00183302
Na       6.59403444      21.90516252      11.56809739
Na      12.15556824      20.42042962      15.70141681
Na       5.30491458      18.55477374       7.98305172
Na       5.75821348      25.34456295      14.49484873
Na       3.85672398      21.23741613       2.47062257
Na       2.11840282      13.76152034      17.37365232
Na       2.19255043      13.95381713       8.05138757
Na       6.75524029      22.19671043       1.70207748
Na       5.18358544      24.24220674       7.90916760
Na       7.01259908      14.86776337       5.70084517
Na       9.51610972      20.75631528      15.79651278
Na       5.68217607      25.62785205       1.90812684
Na       9.49221459      14.37902153       2.83907406
Na      12.34436707      19.87055984      10.47730413
Na       9.46214124      24.05958612      14.49509102
Na      13.15807367      24.37967191       9.07422052
Na       9.75969474      23.54788496       1.27221943
Na       5.40136734      14.94528173      15.32624197
Na       2.51357204      19.98437519       6.32306360
Na       3.41706257      15.94278100       1.23495634
Na       9.48621809      18.06036248       7.33672615
Na       6.83598405      17.93542635       4.17021181
Na       8.39151196      15.39688163      14.35868583
Na      12.23670268      24.40311277       3.10980080
Na       2.14298846      19.14379338      15.79263626
Na       2.83310361      22.40282642      15.11315430
Na      12.67108535      21.96544549       5.76706104
Na       2.62520684      24.20386549       1.72041828
Na      12.70079527      24.19523417      14.56171877
Na      13.12236725      17.04493732       1.31844698
Na       9.78876867      26.25630320      11.38190310
Cl       7.57717845      14.96853179      17.20405440
Cl      10.39205271      17.46411070      10.19635306
Cl       2.01872467      15.13001930       4.86025730
Cl       4.76025085      20.73970679       9.28603621
Cl       6.45908598      16.62190256       7.54941406
Cl       9.13460526      16.77886544       4.51983792
Cl      11.00378635      19.39922602      13.93517559
Cl       8.75450906      26.43465359       6.71941394
Cl       8.80795057      21.46465614      12.25215850
Cl       3.53244064      17.15271074      15.89209333
Cl       2.44871900      24.21958359       8.75194813
Cl       3.03259619      17.15016678       8.19463724
Cl       7.76968421      24.68894584       1.90882946
Cl       1.61502407      22.25343185       4.32135990
Cl      10.58712060      14.80231069      12.96156238
Cl       1.48301935      21.34040143      17.40817761
Cl       7.74379024      22.07263743      16.55994572
Cl      11.71955015      22.41209373      17.78856152
Cl      12.63628749      25.29786295       5.76135528
Cl       7.76863936      25.58814796      13.08197690
Cl       1.32632904      25.39380691      13.52741373
Cl       7.66960629      23.25796337       9.04674566
Cl       3.74037375      13.48356631       2.10842198
Cl       5.31362767      26.37196293       6.36850373
Cl       7.77048374      18.27758108      14.64385262
Cl       0.55470059      17.92992048      11.83274284
Cl       0.08606973      15.07436998      16.36115272
Cl       7.91707994      19.48212306       7.26193347
Cl      11.60098304      15.36002134       3.37576668
Cl      10.13156847      25.57524640      17.36238617
Cl       2.00366983      17.90270910       2.42014296
Cl       4.74987509      19.51309588       5.22260326
Cl       5.39736059      16.40984459       3.14900215
Cl       2.84535100      14.62322437      10.88993587
Cl       6.99589975      19.62230483       1.42314947
Cl      11.70501319      22.30319370       8.32772315
Cl       0.77996267      25.07499311       0.71525258
Cl       4.43103403      23.06652971       0.25393291
Cl      12.29403283      19.15796692       5.47042216
Cl       3.95791943      20.25184626      13.40106328
Cl       5.96572865      22.99484431       4.43803115
Cl      11.13798071      24.28281938      12.31987652
Cl       4.97591581      23.79628534      12.46245992
Cl      11.19013207      18.80501850       0.90998976
Cl       3.75101299      26.50979153      15.43829774
Cl      10.42748656      23.19999722       4.52166716
Cl       6.25428740      15.26419548      12.71818936
Cl       0.24659053      21.67226217      13.06525939
Cl       1.10335926      20.21250560       8.75609116
Cl      12.17083205      14.09710072       9.01650877
Na       8.17993552      17.05462257      35.47419285
Na       9.78404416      22.63868867      27.73232633
Na       1.80489501      20.28023877      29.20063246
Na       3.81186836      16.91704837      23.17079640
Na       5.62120259      14.44884439      27.43230761
Na      12.96991083      20.58181719      19.90527321
Na      12.15093458      16.39690669      29.20513892
Na       9.40372081      18.43228164      30.32677477
Na       1.01717323      26.45382421      21.89858181
Na       3.13964277      22.57363575      28.39392783
Na       8.35967601      23.70188593      23.46346184
Na       6.24343919      21.22627718      24.68864934
Na       6.19680279      19.57535952      33.43029561
Na       3.57723266      25.62539893      29.55942898
Na       2.66078606      16.95557133      28.90834255
Na      10.45119998      18.51208957      21.61437204
Na      12.12422291      13.46380058      33.00121286
Na       0.91254342      17.18383802      24.07228204
Na      10.96762565      14.32288159      23.72707758
Na       6.59403444      21.90516252      29.29334195
Na      12.15556824      20.42042962      33.42666136
Na       5.30491458      18.55477374      25.70829628
Na       5.75821348      25.34456295      32.22009329
Na       3.85672398      21.23741613      20.19586713
Na       2.11840282      13.76152034      35.09889688
Na       2.19255043      13.95381713      25.77663213
Na       6.75524029      22.19671043      19.42732203
Na       5.18358544      24.24220674      25.63441215
Na       7.01259908      14.86776337      23.42608973
Na       9.51610972      20.75631528      33.52175734
Na       5.68217607      25.62785205      19.63337140
Na       9.49221459      14.37902153      20.56431862
Na      12.34436707      19.87055984      28.20254869
Na       9.46214124      24.05958612      32.22033557
Na      13.15807367      24.37967191      26.79946508
Na       9.75969474      23.54788496      18.99746399
Na       5.40136734      14.94528173      33.05148653
Na       2.51357204      19.98437519      24.04830816
Na       3.41706257      15.94278100      18.96020090
Na       9.48621809      18.06036248      25.06197071
Na       6.83598405      17.93542635      21.89545637
Na       8.39151196      15.39688163      32.08393039
Na      12.23670268      24.40311277      20.83504536
Na       2.14298846      19.14379338      33.51788082
Na       2.83310361      22.40282642      32.83839886
Na      12.67108535      21.96544549      23.49230560
Na       2.62520684      24.20386549      19.44566284
Na      12.70079527      24.19523417      32.28696333
Na      13.12236725      17.04493732      19.04369154
Na       9.78876867      26.25630320      29.10714766
Cl       7.57717845      14.96853179      34.92929895
Cl      10.39205271      17.46411070      27.92159762
Cl       2.01872467      15.13001930      22.58550185
Cl       4.76025085      20.73970679      27.01128077
Cl       6.45908598      16.62190256      25.27465862
Cl       9.13460526      16.77886544      22.24508248
Cl      11.00378635      19.39922602      31.66042015
Cl       8.75450906      26.43465359      24.44465850
Cl       8.80795057      21.46465614      29.97740306
Cl       3.53244064      17.15271074      33.61733789
Cl       2.44871900      24.21958359      26.47719268
Cl       3.03259619      17.15016678      25.91988180
Cl       7.76968421      24.68894584      19.63407402
Cl       1.61502407      22.25343185      22.04660446
Cl      10.58712060      14.80231069      30.68680693
Cl       1.48301935      21.34040143      35.13342217
Cl       7.74379024      22.07263743      34.28519027
Cl      11.71955015      22.41209373      35.51380608
Cl      12.63628749      25.29786295      23.48659984
Cl       7.76863936      25.58814796      30.80722146
Cl       1.32632904      25.39380691      31.25265829
Cl       7.66960629      23.25796337      26.77199022
Cl       3.74037375      13.48356631      19.83366654
Cl       5.31362767      26.37196293      24.09374829
Cl       7.77048374      18.27758108      32.36909718
Cl       0.55470059      17.92992048      29.55798739
Cl       0.08606973      15.07436998      34.08639728
Cl       7.91707994      19.48212306      24.98717803
Cl      11.60098304      15.36002134      21.10101124
Cl      10.13156847      25.57524640      35.08763073
Cl       2.00366983      17.90270910      20.14538752
Cl       4.74987509      19.51309588      22.94784781
Cl       5.39736059      16.40984459      20.87424671
Cl       2.84535100      14.62322437      28.61518043
Cl       6.99589975      19.62230483      19.14839402
Cl      11.70501319      22.30319370      26.05296771
Cl       0.77996267      25.07499311      18.44049714
Cl       4.43103403      23.06652971      17.97917747
Cl      12.29403283      19.15796692      23.19566672
Cl       3.95791943      20.25184626      31.12630784
Cl       5.96572865      22.99484431      22.16327571
Cl      11.13798071      24.28281938      30.04512108
Cl       4.97591581      23.79628534      30.18770448
Cl      11.19013207      18.80501850      18.63523432
Cl       3.75101299      26.50979153      33.16354230
Cl      10.42748656      23.19999722      22.24691172
Cl       6.25428740      15.26419548      30.44343392
Cl       0.24659053      21.67226217      30.79050395
Cl       1.10335926      20.21250560      26.48133572
Cl      12.17083205      14.09710072      26.74175333
Na       8.17993552      17.05462257       0.02370373
Na       9.78404416      22.63868867      45.45757089
Na       1.80489501      20.28023877      46.92587702
Na       3.81186836      16.91704837      40.89604095
Na       5.62120259      14.44884439      45.15755217
Na      12.96991083      20.58181719      37.63051777
Na      12.15093458      16.39690669      46.93038348
Na       9.40372081      18.43228164      48.05201933
Na       1.01717323      26.45382421      39.62382637
Na       3.13964277      22.57363575      46.11917239
Na       8.35967601      23.70188593      41.18870640
Na       6.24343919      21.22627718      42.41389390
Na       6.19680279      19.57535952      51.15554016
Na       3.57723266      25.62539893      47.28467353
Na       2.66078606      16.95557133      46.63358711
Na      10.45119998      18.51208957      39.33961660
Na      12.12422291      13.46380058      50.72645742
Na       0.91254342      17.18383802      41.79752659
Na      10.96762565      14.32288159      41.45232214
Na       6.59403444      21.90516252      47.01858651
Na      12.15556824      20.42042962      51.15190592
Na       5.30491458      18.55477374      43.43354084
Na       5.75821348      25.34456295      49.94533785
Na       3.85672398      21.23741613      37.92111169
Na       2.11840282      13.76152034      52.82414143
Na       2.19255043      13.95381713      43.50187668
Na       6.75524029      22.19671043      37.15256659
Na       5.18358544      24.24220674      43.35965671
Na       7.01259908      14.86776337      41.15133428
Na       9.51610972      20.75631528      51.24700190
Na       5.68217607      25.62785205      37.35861595
Na       9.49221459      14.37902153      38.28956318
Na      12.34436707      19.87055984      45.92779325
Na       9.46214124      24.05958612      49.94558013
Na      13.15807367      24.37967191      44.52470964
Na       9.75969474      23.54788496      36.72270855
Na       5.40136734      14.94528173      50.77673109
Na       2.51357204      19.98437519      41.77355272
Na       3.41706257      15.94278100      36.68544546
Na       9.48621809      18.06036248      42.78721527
Na       6.83598405      17.93542635      39.62070092
Na       8.39151196      15.39688163      49.80917495
Na      12.23670268      24.40311277      38.56028992
Na       2.14298846      19.14379338      51.24312538
Na       2.83310361      22.40282642      50.56364342
Na      12.67108535      21.96544549      41.21755016
Na       2.62520684      24.20386549      37.17090740
Na      12.70079527      24.19523417      50.01220789
Na      13.12236725      17.04493732      36.76893609
Na       9.78876867      26.25630320      46.83239222
Cl       7.57717845      14.96853179      52.65454351
Cl      10.39205271      17.46411070      45.64684217
Cl       2.01872467      15.13001930      40.31074641
Cl       4.76025085      20.73970679      44.73652533
Cl       6.45908598      16.62190256      42.99990318
Cl       9.13460526      16.77886544      39.97032704
Cl      11.00378635      19.39922602      49.38566471
Cl       8.75450906      26.43465359      42.16990306
Cl       8.80795057      21.46465614      47.70264761
Cl       3.53244064      17.15271074      51.34258244
Cl       2.44871900      24.21958359      44.20243724
Cl       3.03259619      17.15016678      43.64512636
Cl       7.76968421      24.68894584      37.35931857
Cl       1.61502407      22.25343185      39.77184901
Cl      10.58712060      14.80231069      48.41205149
Cl       1.48301935      21.34040143      52.85866673
Cl       7.74379024      22.07263743      52.01043483
Cl      11.71955015      22.41209373       0.06331696
Cl      12.63628749      25.29786295      41.21184440
Cl       7.76863936      25.58814796      48.53246602
Cl       1.32632904      25.39380691      48.97790285
Cl       7.66960629      23.25796337      44.49723477
Cl       3.74037375      13.48356631      37.55891110
Cl       5.31362767      26.37196293      41.81899285
Cl       7.77048374      18.27758108      50.09434174
Cl       0.55470059      17.92992048      47.28323195
Cl       0.08606973      15.07436998      51.81164184
Cl       7.91707994      19.48212306      42.71242259
Cl      11.60098304      15.36002134      38.82625580
Cl      10.13156847      25.57524640      52.81287529
Cl       2.00366983      17.90270910      37.87063208
Cl       4.74987509      19.51309588      40.67309237
Cl       5.39736059      16.40984459      38.59949126
Cl       2.84535100      14.62322437      46.34042499
Cl       6.99589975      19.62230483      36.87363858
Cl      11.70501319      22.30319370      43.77821227
Cl       0.77996267      25.07499311      36.16574170
Cl       4.43103403      23.06652971      35.70442203
Cl      12.29403283      19.15796692      40.92091128
Cl       3.95791943      20.25184626      48.85155239
Cl       5.96572865      22.99484431      39.88852027
Cl      11.13798071      24.28281938      47.77036564
Cl       4.97591581      23.79628534      47.91294904
Cl      11.19013207      18.80501850      36.36047888
Cl       3.75101299      26.50979153      50.88878686
Cl      10.42748656      23.19999722      39.97215627
Cl       6.25428740      15.26419548      48.16867848
Cl       0.24659053      21.67226217      48.51574851
Cl       1.10335926      20.21250560      44.20658028
Cl      12.17083205      14.09710072      44.46699789
Na       8.17993552      30.34855599      17.74894829
Na       9.78404416      35.93262209      10.00708178
Na       1.80489501      33.57417219      11.47538790
Na       3.81186836      30.21098179       5.44555184
Na       5.62120259      27.74277781       9.70706305
Na      12.96991083      33.87575061       2.18002865
Na      12.15093458      29.69084011      11.47989436
Na       9.40372081      31.72621506      12.60153022
Na       1.01717323      39.74775763       4.17333725
Na       3.13964277      35.86756917      10.66868327
Na       8.35967601      36.99581935       5.73821728
Na       6.24343919      34.52021059       6.96340478
Na       6.19680279      32.86929294      15.70505105
Na       3.57723266      38.91933235      11.83418442
Na       2.66078606      30.24950475      11.18309800
Na      10.45119998      31.80602299       3.88912748
Na      12.12422291      26.75773400      15.27596831
Na       0.91254342      30.47777144       6.34703748
Na      10.96762565      27.61681501       6.00183302
Na       6.59403444      35.19909593      11.56809739
Na      12.15556824      33.71436304      15.70141681
Na       5.30491458      31.84870716       7.98305172
Na       5.75821348      38.63849636      14.49484873
Na       3.85672398      34.53134954       2.47062257
Na       2.11840282      27.05545376      17.37365232
Na       2.19255043      27.24775055       8.05138757
Na       6.75524029      35.49064385       1.70207748
Na       5.18358544      37.53614016       7.90916760
Na       7.01259908      28.16169679       5.70084517
Na       9.51610972      34.05024870      15.79651278
Na       5.68217607      38.92178546       1.90812684
Na       9.49221459      27.67295495       2.83907406
Na      12.34436707      33.16449326      10.47730413
Na       9.46214124      37.35351954      14.49509102
Na      13.15807367      37.67360533       9.07422052
Na       9.75969474      36.84181838       1.27221943
Na       5.40136734      28.23921515      15.32624197
Na       2.51357204      33.27830861       6.32306360
Na       3.41706257      29.23671442       1.23495634
Na       9.48621809      31.35429590       7.33672615
Na       6.83598405      31.22935977       4.17021181
Na       8.39151196      28.69081505      14.35868583
Na      12.23670268      37.69704618       3.10980080
Na       2.14298846      32.43772680      15.79263626
Na       2.83310361      35.69675984      15.11315430
Na      12.67108535      35.25937891       5.76706104
Na       2.62520684      37.49779891       1.72041828
Na      12.70079527      37.48916759      14.56171877
Na      13.12236725      30.33887074       1.31844698
Na       9.78876867      39.55023662      11.38190310
Cl       7.57717845      28.26246521      17.20405440
Cl      10.39205271      30.75804412      10.19635306
Cl       2.01872467      28.42395272       4.86025730
Cl       4.76025085      34.03364021       9.28603621
Cl       6.45908598      29.91583598       7.54941406
Cl       9.13460526      30.07279886       4.51983792
Cl      11.00378635      32.69315944      13.93517559
Cl       8.75450906      39.72858701       6.71941394
Cl       8.80795057      34.75858956      12.25215850
Cl       3.53244064      30.44664416      15.89209333
Cl       2.44871900      37.51351700       8.75194813
Cl       3.03259619      30.44410019       8.19463724
Cl       7.76968421      37.98287925       1.90882946
Cl       1.61502407      35.54736527       4.32135990
Cl      10.58712060      28.09624410      12.96156238
Cl       1.48301935      34.63433485      17.40817761
Cl       7.74379024      35.36657085      16.55994572
Cl      11.71955015      35.70602715      17.78856152
Cl      12.63628749      38.59179636       5.76135528
Cl       7.76863936      38.88208138      13.08197690
Cl       1.32632904      38.68774033      13.52741373
Cl       7.66960629      36.55189679       9.04674566
Cl       3.74037375      26.77749973       2.10842198
Cl       5.31362767      39.66589635       6.36850373
Cl       7.77048374      31.57151450      14.64385262
Cl       0.55470059      31.22385390      11.83274284
Cl       0.08606973      28.36830340      16.36115272
Cl       7.91707994      32.77605648       7.26193347
Cl      11.60098304      28.65395476       3.37576668
Cl      10.13156847      38.86917982      17.36238617
Cl       2.00366983      31.19664252       2.42014296
Cl       4.74987509      32.80702930       5.22260326
Cl       5.39736059      29.70377801       3.14900215
Cl       2.84535100      27.91715778      10.88993587
Cl       6.99589975      32.91623825       1.42314947
Cl      11.70501319      35.59712711       8.32772315
Cl       0.77996267      38.36892652       0.71525258
Cl       4.43103403      36.36046313       0.25393291
Cl      12.29403283      32.45190034       5.47042216
Cl       3.95791943      33.54577968      13.40106328
Cl       5.96572865      36.28877773       4.43803115
Cl      11.13798071      37.57675280      12.31987652
Cl       4.97591581      37.09021876      12.46245992
Cl      11.19013207      32.09895192       0.90998976
Cl       3.75101299      39.80372494      15.43829774
Cl      10.42748656      36.49393064       4.52166716
Cl       6.25428740      28.55812890      12.71818936
Cl       0.24659053      34.96619559      13.06525939
Cl       1.10335926      33.50643902       8.75609116
Cl      12.17083205      27.39103414       9.01650877
Na       8.17993552      30.34855599      35.47419285
Na       9.78404416      35.93262209      27.73232633
Na       1.80489501      33.57417219      29.20063246
Na       3.81186836      30.21098179      23.17079640
Na       5.62120259      27.74277781      27.43230761
Na      12.96991083      33.87575061      19.90527321
Na      12.15093458      29.69084011      29.20513892
Na       9.40372081      31.72621506      30.32677477
Na       1.01717323      39.74775763      21.89858181
Na       3.13964277      35.86756917      28.39392783
Na       8.35967601      36.99581935      23.46346184
Na       6.24343919      34.52021059      24.68864934
Na       6.19680279      32.86929294      33.43029561
Na       3.57723266      38.91933235      29.55942898
Na       2.66078606      30.24950475      28.90834255
Na      10.45119998      31.80602299      21.61437204
Na      12.12422291      26.75773400      33.00121286
Na       0.91254342      30.47777144      24.07228204
Na      10.96762565      27.61681501      23.72707758
Na       6.59403444      35.19909593      29.29334195
Na      12.15556824      33.71436304      33.42666136
Na       5.30491458      31.84870716      25.70829628
Na       5.75821348      38.63849636      32.22009329
Na       3.85672398      34.53134954      20.19586713
Na       2.11840282      27.05545376      35.09889688
Na       2.19255043      27.24775055      25.77663213
Na       6.75524029      35.49064385      19.42732203
Na       5.18358544      37.53614016      25.63441215
Na       7.01259908      28.16169679      23.42608973
Na       9.51610972      34.05024870      33.52175734
Na       5.68217607      38.92178546      19.63337140
Na       9.49221459      27.67295495      20.56431862
Na      12.34436707      33.16449326      28.20254869
Na       9.46214124      37.35351954      32.22033557
Na      13.15807367      37.67360533      26.79946508
Na       9.75969474      36.84181838      18.99746399
Na       5.40136734      28.23921515      33.05148653
Na       2.51357204      33.27830861      24.04830816
Na       3.41706257      29.23671442      18.96020090
Na       9.48621809      31.35429590      25.06197071
Na       6.83598405      31.22935977      21.89545637
Na       8.39151196      28.69081505      32.08393039
Na      12.23670268      37.69704618      20.83504536
Na       2.14298846      32.43772680      33.51788082
Na       2.83310361      35.69675984      32.83839886
Na      12.67108535      35.25937891      23.49230560
Na       2.62520684      37.49779891      19.44566284
Na      12.70079527      37.48916759      32.28696333
Na      13.12236725      30.33887074      19.04369154
Na       9.78876867      39.55023662      29.10714766
Cl       7.57717845      28.26246521      34.92929895
Cl      10.39205271      30.75804412      27.92159762
Cl       2.01872467      28.42395272      22.58550185
Cl       4.76025085      34.03364021      27.01128077
Cl       6.45908598      29.91583598      25.27465862
Cl       9.13460526      30.07279886      22.24508248
Cl      11.00378635      32.69315944      31.66042015
Cl       8.75450906      39.72858701      24.44465850
Cl       8.80795057      34.75858956      29.97740306
Cl       3.53244064      30.44664416      33.61733789
Cl       2.44871900      37.51351700      26.47719268
Cl       3.03259619      30.44410019      25.91988180
Cl       7.76968421      37.98287925      19.63407402
Cl       1.61502407      35.54736527      22.04660446
Cl      10.58712060      28.09624410      30.68680693
Cl       1.48301935      34.63433485      35.13342217
Cl       7.74379024      35.36657085      34.28519027
Cl      11.71955015      35.70602715      35.51380608
Cl      12.63628749      38.59179636      23.48659984
Cl       7.76863936      38.88208138      30.80722146
Cl       1.32632904      38.68774033      31.25265829
Cl       7.66960629      36.55189679      26.77199022
Cl       3.74037375      26.77749973      19.83366654
Cl       5.31362767      39.66589635      24.09374829
Cl       7.77048374      31.57151450      32.36909718
Cl       0.55470059      31.22385390      29.55798739
Cl       0.08606973      28.36830340      34.08639728
Cl       7.91707994      32.77605648      24.98717803
Cl      11.60098304      28.65395476      21.10101124
Cl      10.13156847      38.86917982      35.08763073
Cl       2.00366983      31.19664252      20.14538752
Cl       4.74987509      32.80702930      22.94784781
Cl       5.39736059      29.70377801      20.87424671
Cl       2.84535100      27.91715778      28.61518043
Cl       6.99589975      32.91623825      19.14839402
Cl      11.70501319      35.59712711      26.05296771
Cl       0.77996267      38.36892652      18.44049714
Cl       4.43103403      36.36046313      17.97917747
Cl      12.29403283      32.45190034      23.19566672
Cl       3.95791943      33.54577968      31.12630784
Cl       5.96572865      36.28877773      22.16327571
Cl      11.13798071      37.57675280      30.04512108
Cl       4.97591581      37.09021876      30.18770448
Cl      11.19013207      32.09895192      18.63523432
Cl       3.75101299      39.80372494      33.16354230
Cl      10.42748656      36.49393064      22.24691172
Cl       6.25428740      28.55812890      30.44343392
Cl       0.24659053      34.96619559      30.79050395
Cl       1.10335926      33.50643902      26.48133572
Cl      12.17083205      27.39103414      26.74175333
Na       8.17993552      30.34855599       0.02370373
Na       9.78404416      35.93262209      45.45757089
Na       1.80489501      33.57417219      46.92587702
Na       3.81186836      30.21098179      40.89604095
Na       5.62120259      27.74277781      45.15755217
Na      12.96991083      33.87575061      37.63051777
Na      12.15093458      29.69084011      46.93038348
Na       9.40372081      31.72621506      48.05201933
Na       1.01717323      39.74775763      39.62382637
Na       3.13964277      35.86756917      46.11917239
Na       8.35967601      36.99581935      41.18870640
Na       6.24343919      34.52021059      42.41389390
Na       6.19680279      32.86929294      51.15554016
Na       3.57723266      38.91933235      47.28467353
Na       2.66078606      30.24950475      46.63358711
Na      10.45119998      31.80602299      39.33961660
Na      12.12422291      26.75773400      50.72645742
Na       0.91254342      30.47777144      41.79752659
Na      10.96762565      27.61681501      41.45232214
Na       6.59403444      35.19909593      47.01858651
Na      12.15556824      33.71436304      51.15190592
Na       5.30491458      31.84870716      43.43354084
Na       5.75821348      38.63849636      49.94533785
Na       3.85672398      34.53134954      37.92111169
Na       2.11840282      27.05545376      52.82414143
Na       2.19255043      27.24775055      43.50187668
Na       6.75524029      35.49064385      37.15256659
Na       5.18358544      37.53614016      43.35965671
Na       7.01259908      28.16169679      41.15133428
Na       9.51610972      34.05024870      51.24700190
Na       5.68217607      38.92178546      37.35861595
Na       9.49221459      27.67295495      38.28956318
Na      12.34436707      33.16449326      45.92779325
Na       9.46214124      37.35351954      49.94558013
Na      13.15807367      37.67360533      44.52470964
Na       9.75969474      36.84181838      36.72270855
Na       5.40136734      28.23921515      50.77673109
Na       2.51357204      33.27830861      41.77355272
Na       3.41706257      29.23671442      36.68544546
Na       9.48621809      31.35429590      42.78721527
Na       6.83598405      31.22935977      39.62070092
Na       8.39151196      28.69081505      49.80917495
Na      12.23670268      37.69704618      38.56028992
Na       2.14298846      32.43772680      51.24312538
Na       2.83310361      35.69675984      50.56364342
Na      12.67108535      35.25937891      41.21755016
Na       2.62520684      37.49779891      37.17090740
Na      12.70079527      37.48916759      50.01220789
Na      13.12236725      30.33887074      36.76893609
Na       9.78876867      39.55023662      46.83239222
Cl       7.57717845      28.26246521      52.65454351
Cl      10.39205271      30.75804412      45.64684217
Cl       2.01872467      28.42395272      40.31074641
Cl       4.76025085      34.03364021      44.73652533
Cl       6.45908598      29.91583598      42.99990318
Cl       9.13460526      30.07279886      39.97032704
Cl      11.00378635      32.69315944      49.38566471
Cl       8.75450906      39.72858701      42.16990306
Cl       8.80795057      34.75858956      47.70264761
Cl       3.53244064      30.44664416      51.34258244
Cl       2.44871900      37.51351700      44.20243724
Cl       3.03259619      30.44410019      43.64512636
Cl       7.76968421      37.98287925      37.35931857
Cl       1.61502407      35.54736527      39.77184901
Cl      10.58712060      28.09624410      48.41205149
Cl       1.48301935      34.63433485      52.85866673
Cl       7.74379024      35.36657085      52.01043483
Cl      11.71955015      35.70602715       0.06331696
Cl      12.63628749      38.59179636      41.21184440
Cl       7.76863936      38.88208138      48.53246602
Cl       1.32632904      38.68774033      48.97790285
Cl       7.66960629      36.55189679      44.49723477
Cl       3.74037375      26.77749973      37.55891110
Cl       5.31362767      39.66589635      41.81899285
Cl       7.77048374      31.57151450      50.09434174
Cl       0.55470059      31.22385390      47.28323195
Cl       0.08606973      28.36830340      51.81164184
Cl       7.91707994      32.77605648      42.71242259
Cl      11.60098304      28.65395476      38.82625580
Cl      10.13156847      38.86917982      52.81287529
Cl       2.00366983      31.19664252      37.87063208
Cl       4.74987509      32.80702930      40.67309237
Cl       5.39736059      29.70377801      38.59949126
Cl       2.84535100      27.91715778      46.34042499
Cl       6.99589975      32.91623825      36.87363858
Cl      11.70501319      35.59712711      43.77821227
Cl       0.77996267      38.36892652      36.16574170
Cl       4.43103403      36.36046313      35.70442203
Cl      12.29403283      32.45190034      40.92091128
Cl       3.95791943      33.54577968      48.85155239
Cl       5.96572865      36.28877773      39.88852027
Cl      11.13798071      37.57675280      47.77036564
Cl       4.97591581      37.09021876      47.91294904
Cl      11.19013207      32.09895192      36.36047888
Cl       3.75101299      39.80372494      50.88878686
Cl      10.42748656      36.49393064      39.97215627
Cl       6.25428740      28.55812890      48.16867848
Cl       0.24659053      34.96619559      48.51574851
Cl       1.10335926      33.50643902      44.20658028
Cl      12.17083205      27.39103414      44.46699789
Na       8.17993552      43.64248941      17.74894829
Na       9.78404416      49.22655551      10.00708178
Na       1.80489501      46.86810560      11.47538790
Na       3.81186836      43.50491521       5.44555184
Na       5.62120259      41.03671123       9.70706305
Na      12.96991083      47.16968402       2.18002865
Na      12.15093458      42.98477353      11.47989436
Na       9.40372081      45.02014848      12.60153022
Na       1.01717323      53.04169105       4.17333725
Na       3.13964277      49.16150259      10.66868327
Na       8.35967601      50.28975277       5.73821728
Na       6.24343919      47.81414401       6.96340478
Na       6.19680279      46.16322636      15.70505105
Na       3.57723266      52.21326577      11.83418442
Na       2.66078606      43.54343817      11.18309800
Na      10.45119998      45.09995641       3.88912748
Na      12.12422291      40.05166741      15.27596831
Na       0.91254342      43.77170486       6.34703748
Na      10.96762565      40.91074843       6.00183302
Na       6.59403444      48.49302935      11.56809739
Na      12.15556824      47.00829646      15.70141681
Na       5.30491458      45.14264057       7.98305172
Na       5.75821348      51.93242978      14.49484873
Na       3.85672398      47.82528296       2.47062257
Na       2.11840282      40.34938718      17.37365232
Na       2.19255043      40.54168396       8.05138757
Na       6.75524029      48.78457727       1.70207748
Na       5.18358544      50.83007357       7.90916760
Na       7.01259908      41.45563021       5.70084517
Na       9.51610972      47.34418211      15.79651278
Na       5.68217607      52.21571888       1.90812684
Na       9.49221459      40.96688837       2.83907406
Na      12.34436707      46.45842668      10.47730413
Na       9.46214124      50.64745296      14.49509102
Na      13.15807367      50.96753875       9.07422052
Na       9.75969474      50.13575180       1.27221943
Na       5.40136734      41.53314857      15.32624197
Na       2.51357204      46.57224203       6.32306360
Na       3.41706257      42.53064784       1.23495634
Na       9.48621809      44.64822932       7.33672615
Na       6.83598405      44.52329319       4.17021181
Na       8.39151196      41.98474847      14.35868583
Na      12.23670268      50.99097960       3.10980080
Na       2.14298846      45.73166021      15.79263626
Na       2.83310361      48.99069325      15.11315430
Na      12.67108535      48.55331233       5.76706104
Na       2.62520684      50.79173233       1.72041828
Na      12.70079527      50.78310101      14.56171877
Na      13.12236725      43.63280416       1.31844698
Na       9.78876867      52.84417004      11.38190310
Cl       7.57717845      41.55639863      17.20405440
Cl      10.39205271      44.05197754      10.19635306
Cl       2.01872467      41.71788614       4.86025730
Cl       4.76025085      47.32757363       9.28603621
Cl       6.45908598      43.20976940       7.54941406
Cl       9.13460526      43.36673228       4.51983792
Cl      11.00378635      45.98709286      13.93517559
Cl       8.75450906      53.02252043       6.71941394
Cl       8.80795057      48.05252298      12.25215850
Cl       3.53244064      43.74057758      15.89209333
Cl       2.44871900      50.80745042       8.75194813
Cl       3.03259619      43.73803361       8.19463724
Cl       7.76968421      51.27681267       1.90882946
Cl       1.61502407      48.84129869       4.32135990
Cl      10.58712060      41.39017752      12.96156238
Cl       1.48301935      47.92826827      17.40817761
Cl       7.74379024      48.66050427      16.55994572
Cl      11.71955015      48.99996057      17.78856152
Cl      12.63628749      51.88572978       5.76135528
Cl       7.76863936      52.17601480      13.08197690
Cl       1.32632904      51.98167375      13.52741373
Cl       7.66960629      49.84583021       9.04674566
Cl       3.74037375      40.07143314       2.10842198
Cl       5.31362767      52.95982977       6.36850373
Cl       7.77048374      44.86544791      14.64385262
Cl       0.55470059      44.51778732      11.83274284
Cl       0.08606973      41.66223682      16.36115272
Cl       7.91707994      46.06998990       7.26193347
Cl      11.60098304      41.94788818       3.37576668
Cl      10.13156847      52.16311324      17.36238617
Cl       2.00366983      44.49057594       2.42014296
Cl       4.74987509      46.10096272       5.22260326
Cl       5.39736059      42.99771143       3.14900215
Cl       2.84535100      41.21109120      10.88993587
Cl       6.99589975      46.21017167       1.42314947
Cl      11.70501319      48.89106053       8.32772315
Cl       0.77996267      51.66285994       0.71525258
Cl       4.43103403      49.65439655       0.25393291
Cl      12.29403283      45.74583376       5.47042216
Cl       3.95791943      46.83971310      13.40106328
Cl       5.96572865      49.58271114       4.43803115
Cl      11.13798071      50.87068622      12.31987652
Cl       4.97591581      50.38415218      12.46245992
Cl      11.19013207      45.39288534       0.90998976
Cl       3.75101299      53.09765836      15.43829774
Cl      10.42748656      49.78786406       4.52166716
Cl       6.25428740      41.85206232      12.71818936
Cl       0.24659053      48.26012901      13.06525939
Cl       1.10335926      46.80037243       8.75609116
Cl      12.17083205      40.68496756       9.01650877
Na       8.17993552      43.64248941      35.47419285
Na       9.78404416      49.22655551      27.73232633
Na       1.80489501      46.86810560      29.20063246
Na       3.81186836      43.50491521      23.17079640
Na       5.62120259      41.03671123      27.43230761
Na      12.96991083      47.16968402      19.90527321
Na      12.15093458      42.98477353      29.20513892
Na       9.40372081      45.02014848      30.32677477
Na       1.01717323      53.04169105      21.89858181
Na       3.13964277      49.16150259      28.39392783
Na       8.35967601      50.28975277      23.46346184
Na       6.24343919      47.81414401      24.68864934
Na       6.19680279      46.16322636      33.43029561
Na       3.57723266      52.21326577      29.55942898
Na       2.66078606      43.54343817      28.90834255
Na      10.45119998      45.09995641      21.61437204
Na      12.12422291      40.05166741      33.00121286
Na       0.91254342      43.77170486      24.07228204
Na      10.96762565      40.91074843      23.72707758
Na       6.59403444      48.49302935      29.29334195
Na      12.15556824      47.00829646      33.42666136
Na       5.30491458      45.14264057      25.70829628
Na       5.75821348      51.93242978      32.22009329
Na       3.85672398      47.82528296      20.19586713
Na       2.11840282      40.34938718      35.09889688
Na       2.19255043      40.54168396      25.77663213
Na       6.75524029      48.78457727      19.42732203
Na       5.18358544      50.83007357      25.63441215
Na       7.01259908      41.45563021      23.42608973
Na       9.51610972      47.34418211      33.52175734
Na       5.68217607      52.21571888      19.63337140
Na       9.49221459      40.96688837      20.56431862
Na      12.34436707      46.45842668      28.20254869
Na       9.46214124      50.64745296      32.22033557
Na      13.15807367      50.96753875      26.79946508
Na       9.75969474      50.13575180      18.99746399
Na       5.40136734      41.53314857      33.05148653
Na       2.51357204      46.57224203      24.04830816
Na       3.41706257      42.53064784      18.96020090
Na       9.48621809      44.64822932      25.06197071
Na       6.83598405      44.52329319      21.89545637
Na       8.39151196      41.98474847      32.08393039
Na      12.23670268      50.99097960      20.83504536
Na       2.14298846      45.73166021      33.51788082
Na       2.83310361      48.99069325      32.83839886
Na      12.67108535      48.55331233      23.49230560
Na       2.62520684      50.79173233      19.44566284
Na      12.70079527      50.78310101      32.28696333
Na      13.12236725      43.63280416      19.04369154
Na       9.78876867      52.84417004      29.10714766
Cl       7.57717845      41.55639863      34.92929895
Cl      10.39205271      44.05197754      27.92159762
Cl       2.01872467      41.71788614      22.58550185
Cl       4.76025085      47.32757363      27.01128077
Cl       6.45908598      43.20976940      25.27465862
Cl       9.13460526      43.36673228      22.24508248
Cl      11.00378635      45.98709286      31.66042015
Cl       8.75450906      53.02252043      24.44465850
Cl       8.80795057      48.05252298      29.97740306
Cl       3.53244064      43.74057758      33.61733789
Cl       2.44871900      50.80745042      26.47719268
Cl       3.03259619      43.73803361      25.91988180
Cl       7.76968421      51.27681267      19.63407402
Cl       1.61502407      48.84129869      22.04660446
Cl      10.58712060      41.39017752      30.68680693
Cl       1.48301935      47.92826827      35.13342217
Cl       7.74379024      48.66050427      34.28519027
Cl      11.71955015      48.99996057      35.51380608
Cl      12.63628749      51.88572978      23.48659984
Cl       7.76863936      52.17601480      30.80722146
Cl       1.32632904      51.98167375      31.25265829
Cl       7.66960629      49.84583021      26.77199022
Cl       3.74037375      40.07143314      19.83366654
Cl       5.31362767      52.95982977      24.09374829
Cl       7.77048374      44.86544791      32.36909718
Cl       0.55470059      44.51778732      29.55798739
Cl       0.08606973      41.66223682      34.08639728
Cl       7.91707994      46.06998990      24.98717803
Cl      11.60098304      41.94788818      21.10101124
Cl      10.13156847      52.16311324      35.08763073
Cl       2.00366983      44.49057594      20.14538752
Cl       4.74987509      46.10096272      22.94784781
Cl       5.39736059      42.99771143      20.87424671
Cl       2.84535100      41.21109120      28.61518043
Cl       6.99589975      46.21017167      19.14839402
Cl      11.70501319      48.89106053      26.05296771
Cl       0.77996267      51.66285994      18.44049714
Cl       4.43103403      49.65439655      17.97917747
Cl      12.29403283      45.74583376      23.19566672
Cl       3.95791943      46.83971310      31.12630784
Cl       5.96572865      49.58271114      22.16327571
Cl      11.13798071      50.87068622      30.04512108
Cl       4.97591581      50.38415218      30.18770448
Cl      11.19013207      45.39288534      18.63523432
Cl       3.75101299      53.09765836      33.16354230
Cl      10.42748656      49.78786406      22.24691172
Cl       6.25428740      41.85206232      30.44343392
Cl       0.24659053      48.26012901      30.79050395
Cl       1.10335926      46.80037243      26.48133572
Cl      12.17083205      40.68496756      26.74175333
Na       8.17993552      43.64248941       0.02370373
Na       9.78404416      49.22655551      45.45757089
Na       1.80489501      46.86810560      46.92587702
Na       3.81186836      43.50491521      40.89604095
Na       5.62120259      41.03671123      45.15755217
Na      12.96991083      47.16968402      37.63051777
Na      12.15093458      42.98477353      46.93038348
Na       9.40372081      45.02014848      48.05201933
Na       1.01717323      53.04169105      39.62382637
Na       3.13964277      49.16150259      46.11917239
Na       8.35967601      50.28975277      41.18870640
Na       6.24343919      47.81414401      42.41389390
Na       6.19680279      46.16322636      51.15554016
Na       3.57723266      52.21326577      47.28467353
Na       2.66078606      43.54343817      46.63358711
Na      10.45119998      45.09995641      39.33961660
Na      12.12422291      40.05166741      50.72645742
Na       0.91254342      43.77170486      41.79752659
Na      10.96762565      40.91074843      41.45232214
Na       6.59403444      48.49302935      47.01858651
Na      12.15556824      47.00829646      51.15190592
Na       5.30491458      45.14264057      43.43354084
Na       5.75821348      51.93242978      49.94533785
Na       3.85672398      47.82528296      37.92111169
Na       2.11840282      40.34938718      52.82414143
Na       2.19255043      40.54168396      43.50187668
Na       6.75524029      48.78457727      37.15256659
Na       5.18358544      50.83007357      43.35965671
Na       7.01259908      41.45563021      41.15133428
Na       9.51610972      47.34418211      51.24700190
Na       5.68217607      52.21571888      37.35861595
Na       9.49221459      40.96688837      38.28956318
Na      12.34436707      46.45842668      45.92779325
Na       9.46214124      50.64745296      49.94558013
Na      13.15807367      50.96753875      44.52470964
Na       9.75969474      50.13575180      36.72270855
Na       5.40136734      41.53314857      50.77673109
Na       2.51357204      46.57224203      41.77355272
Na       3.41706257      42.53064784      36.68544546
Na       9.48621809      44.64822932      42.78721527
Na       6.83598405      44.52329319      39.62070092
Na       8.39151196      41.98474847      49.80917495
Na      12.23670268      50.99097960      38.56028992
Na       2.14298846      45.73166021      51.24312538
Na       2.83310361      48.99069325      50.56364342
Na      12.67108535      48.55331233      41.21755016
Na       2.62520684      50.79173233      37.17090740
Na      12.70079527      50.78310101      50.01220789
Na      13.12236725      43.63280416      36.76893609
Na       9.78876867      52.84417004      46.83239222
Cl       7.57717845      41.55639863      52.65454351
Cl      10.39205271      44.05197754      45.64684217
Cl       2.01872467      41.71788614      40.31074641
Cl       4.76025085      47.32757363      44.73652533
Cl       6.45908598      43.20976940      42.99990318
Cl       9.13460526      43.36673228      39.97032704
Cl      11.00378635      45.98709286      49.38566471
Cl       8.75450906      53.02252043      42.16990306
Cl       8.80795057      48.05252298      47.70264761
Cl       3.53244064      43.74057758      51.34258244
Cl       2.44871900      50.80745042      44.20243724
Cl       3.03259619      43.73803361      43.64512636
Cl       7.76968421      51.27681267      37.35931857
Cl       1.61502407      48.84129869      39.77184901
Cl      10.58712060      41.39017752      48.41205149
Cl       1.48301935      47.92826827      52.85866673
Cl       7.74379024      48.66050427      52.01043483
Cl      11.71955015      48.99996057       0.06331696
Cl      12.63628749      51.88572978      41.21184440
Cl       7.76863936      52.17601480      48.53246602
Cl       1.32632904      51.98167375      48.97790285
Cl       7.66960629      49.84583021      44.49723477
Cl       3.74037375      40.07143314      37.55891110
Cl       5.31362767      52.95982977      41.81899285
Cl       7.77048374      44.86544791      50.09434174
Cl       0.55470059      44.51778732      47.28323195
Cl       0.08606973      41.66223682      51.81164184
Cl       7.91707994      46.06998990      42.71242259
Cl      11.60098304      41.94788818      38.82625580
Cl      10.13156847      52.16311324      52.81287529
Cl       2.00366983      44.49057594      37.87063208
Cl       4.74987509      46.10096272      40.67309237
Cl       5.39736059      42.99771143      38.59949126
Cl       2.84535100      41.21109120      46.34042499
Cl       6.99589975      46.21017167      36.87363858
Cl      11.70501319      48.89106053      43.77821227
Cl       0.77996267      51.66285994      36.16574170
Cl       4.43103403      49.65439655      35.70442203
Cl      12.29403283      45.74583376      40.92091128
Cl       3.95791943      46.83971310      48.85155239
Cl       5.96572865      49.58271114      39.88852027
Cl      11.13798071      50.87068622      47.77036564
Cl       4.97591581      50.38415218      47.91294904
Cl      11.19013207      45.39288534      36.36047888
Cl       3.75101299      53.09765836      50.88878686
Cl      10.42748656      49.78786406      39.97215627
Cl       6.25428740      41.85206232      48.16867848
Cl       0.24659053      48.26012901      48.51574851
Cl       1.10335926      46.80037243      44.20658028
Cl      12.17083205      40.68496756      44.46699789
Na      21.47386894       3.76068916      17.74894829
Na      23.07797757       9.34475525      10.00708178
Na      15.09882842       6.98630535      11.47538790
Na      17.10580178       3.62311496       5.44555184
Na      18.91513601       1.15491097       9.70706305
Na      26.26384425       7.28788377       2.18002865
Na      25.44486800       3.10297327      11.47989436
Na      22.69765423       5.13834822      12.60153022
Na      14.31110665      13.15989079       4.17333725
Na      16.43357618       9.27970233      10.66868327
Na      21.65360943      10.40795251       5.73821728
Na      19.53737261       7.93234376       6.96340478
Na      19.49073621       6.28142610      15.70505105
Na      16.87116608      12.33146551      11.83418442
Na      15.95471948       3.66163791      11.18309800
Na      23.74513340       5.21815616       3.88912748
Na      25.41815633       0.16986716      15.27596831
Na      14.20647684       3.88990460       6.34703748
Na      24.26155907       1.02894817       6.00183302
Na      19.88796786       8.61122910      11.56809739
Na      25.44950166       7.12649620      15.70141681
Na      18.59884800       5.26084032       7.98305172
Na      19.05214690      12.05062953      14.49484873
Na      17.15065740       7.94348271       2.47062257
Na      15.41233624       0.46758692      17.37365232
Na      15.48648385       0.65988371       8.05138757
Na      20.04917371       8.90277701       1.70207748
Na      18.47751886      10.94827332       7.90916760
Na      20.30653250       1.57382995       5.70084517
Na      22.81004314       7.46238186      15.79651278
Na      18.97610949      12.33391863       1.90812684
Na      22.78614801       1.08508811       2.83907406
Na      25.63830049       6.57662643      10.47730413
Na      22.75607466      10.76565270      14.49509102
Na      26.45200709      11.08573849       9.07422052
Na      23.05362816      10.25395154       1.27221943
Na      18.69530076       1.65134832      15.32624197
Na      15.80750546       6.69044177       6.32306360
Na      16.71099599       2.64884758       1.23495634
Na      22.78015151       4.76642906       7.33672615
Na      20.12991747       4.64149294       4.17021181
Na      21.68544538       2.10294821      14.35868583
Na      25.53063609      11.10917935       3.10980080
Na      15.43692188       5.84985996      15.79263626
Na      16.12703703       9.10889300      15.11315430
Na      25.96501877       8.67151207       5.76706104
Na      15.91914026      10.90993207       1.72041828
Na      25.99472869      10.90130075      14.56171877
Na      26.41630067       3.75100390       1.31844698
Na      23.08270209      12.96236978      11.38190310
Cl      20.87111187       1.67459837      17.20405440
Cl      23.68598612       4.17017728      10.19635306
Cl      15.31265809       1.83608588       4.86025730
Cl      18.05418427       7.44577338       9.28603621
Cl      19.75301940       3.32796914       7.54941406
Cl      22.42853867       3.48493202       4.51983792
Cl      24.29771977       6.10529260      13.93517559
Cl      22.04844247      13.14072017       6.71941394
Cl      22.10188399       8.17072272      12.25215850
Cl      16.82637406       3.85877733      15.89209333
Cl      15.74265242      10.92565017       8.75194813
Cl      16.32652961       3.85623336       8.19463724
Cl      21.06361763      11.39501242       1.90882946
Cl      14.90895749       8.95949843       4.32135990
Cl      23.88105402       1.50837727      12.96156238
Cl      14.77695277       8.04646802      17.40817761
Cl      21.03772366       8.77870402      16.55994572
Cl      25.01348357       9.11816031      17.78856152
Cl      25.93022091      12.00392953       5.76135528
Cl      21.06257278      12.29421454      13.08197690
Cl      14.62026246      12.09987349      13.52741373
Cl      20.96353971       9.96402995       9.04674566
Cl      17.03430717       0.18963289       2.10842198
Cl      18.60756109      13.07802951       6.36850373
Cl      21.06441716       4.98364766      14.64385262
Cl      13.84863401       4.63598706      11.83274284
Cl      13.38000315       1.78043656      16.36115272
Cl      21.21101336       6.18818964       7.26193347
Cl      24.89491645       2.06608792       3.37576668
Cl      23.42550189      12.28131299      17.36238617
Cl      15.29760325       4.60877568       2.42014296
Cl      18.04380851       6.21916246       5.22260326
Cl      18.69129401       3.11591117       3.14900215
Cl      16.13928442       1.32929095      10.88993587
Cl      20.28983316       6.32837141       1.42314947
Cl      24.99894661       9.00926028       8.32772315
Cl      14.07389609      11.78105969       0.71525258
Cl      17.72496745       9.77259630       0.25393291
Cl      25.58796625       5.86403350       5.47042216
Cl      17.25185284       6.95791284      13.40106328
Cl      19.25966207       9.70091089       4.43803115
Cl      24.43191413      10.98888596      12.31987652
Cl      18.26984923      10.50235193      12.46245992
Cl      24.48406549       5.51108508       0.90998976
Cl      17.04494641      13.21585811      15.43829774
Cl      23.72141998       9.90606380       4.52166716
Cl      19.54822082       1.97026207      12.71818936
Cl      13.54052395       8.37832875      13.06525939
Cl      14.39729268       6.91857218       8.75609116
Cl      25.46476547       0.80316730       9.01650877
Na      21.47386894       3.76068916      35.47419285
Na      23.07797757       9.34475525      27.73232633
Na      15.09882842       6.98630535      29.20063246
Na      17.10580178       3.62311496      23.17079640
Na      18.91513601       1.15491097      27.43230761
Na      26.26384425       7.28788377      19.90527321
Na      25.44486800       3.10297327      29.20513892
Na      22.69765423       5.13834822      30.32677477
Na      14.31110665      13.15989079      21.89858181
Na      16.43357618       9.27970233      28.39392783
Na      21.65360943      10.40795251      23.46346184
Na      19.53737261       7.93234376      24.68864934
Na      19.49073621       6.28142610      33.43029561
Na      16.87116608      12.33146551      29.55942898
Na      15.95471948       3.66163791      28.90834255
Na      23.74513340       5.21815616      21.61437204
Na      25.41815633       0.16986716      33.00121286
Na      14.20647684       3.88990460      24.07228204
Na      24.26155907       1.02894817      23.72707758
Na      19.88796786       8.61122910      29.29334195
Na      25.44950166       7.12649620      33.42666136
Na      18.59884800       5.26084032      25.70829628
Na      19.05214690      12.05062953      32.22009329
Na      17.15065740       7.94348271      20.19586713
Na      15.41233624       0.46758692      35.09889688
Na      15.48648385       0.65988371      25.77663213
Na      20.04917371       8.90277701      19.42732203
Na      18.47751886      10.94827332      25.63441215
Na      20.30653250       1.57382995      23.42608973
Na      22.81004314       7.46238186      33.52175734
Na      18.97610949      12.33391863      19.63337140
Na      22.78614801       1.08508811      20.56431862
Na      25.63830049       6.57662643      28.20254869
Na      22.75607466      10.76565270      32.22033557
Na      26.45200709      11.08573849      26.79946508
Na      23.05362816      10.25395154      18.99746399
Na      18.69530076       1.65134832      33.05148653
Na      15.80750546       6.69044177      24.04830816
Na      16.71099599       2.64884758      18.96020090
Na      22.78015151       4.76642906      25.06197071
Na      20.12991747       4.64149294      21.89545637
Na      21.68544538       2.10294821      32.08393039
Na      25.53063609      11.10917935      20.83504536
Na      15.43692188       5.84985996      33.51788082
Na      16.12703703       9.10889300      32.83839886
Na      25.96501877       8.67151207      23.49230560
Na      15.91914026      10.90993207      19.44566284
Na      25.99472869      10.90130075      32.28696333
Na      26.41630067       3.75100390      19.04369154
Na      23.08270209      12.96236978      29.10714766
Cl      20.87111187       1.67459837      34.92929895
Cl      23.68598612       4.17017728      27.92159762
Cl      15.31265809       1.83608588      22.58550185
Cl      18.05418427       7.44577338      27.01128077
Cl      19.75301940       3.32796914      25.27465862
Cl      22.42853867       3.48493202      22.24508248
Cl      24.29771977       6.10529260      31.66042015
Cl      22.04844247      13.14072017      24.44465850
Cl      22.10188399       8.17072272      29.97740306
Cl      16.82637406       3.85877733      33.61733789
Cl      15.74265242      10.92565017      26.47719268
Cl      16.32652961       3.85623336      25.91988180
Cl      21.06361763      11.39501242      19.63407402
Cl      14.90895749       8.95949843      22.04660446
Cl      23.88105402       1.50837727      30.68680693
Cl      14.77695277       8.04646802      35.13342217
Cl      21.03772366       8.77870402      34.28519027
Cl      25.01348357       9.11816031      35.51380608
Cl      25.93022091      12.00392953      23.48659984
Cl      21.06257278      12.29421454      30.80722146
Cl      14.62026246      12.09987349      31.25265829
Cl      20.96353971       9.96402995      26.77199022
Cl      17.03430717       0.18963289      19.83366654
Cl      18.60756109      13.07802951      24.09374829
Cl      21.06441716       4.98364766      32.36909718
Cl      13.84863401       4.63598706      29.55798739
Cl      13.38000315       1.78043656      34.08639728
Cl      21.21101336       6.18818964      24.98717803
Cl      24.89491645       2.06608792      21.10101124
Cl      23.42550189      12.28131299      35.08763073
Cl      15.29760325       4.60877568      20.14538752
Cl      18.04380851       6.21916246      22.94784781
Cl      18.69129401       3.11591117      20.87424671
Cl      16.13928442       1.32929095      28.61518043
Cl      20.28983316       6.32837141      19.14839402
Cl      24.99894661       9.00926028      26.05296771
Cl      14.07389609      11.78105969      18.44049714
Cl      17.72496745       9.77259630      17.97917747
Cl      25.58796625       5.86403350      23.19566672
Cl      17.25185284       6.95791284      31.12630784
Cl      19.25966207       9.70091089      22.16327571
Cl      24.43191413      10.98888596      30.04512108
Cl      18.26984923      10.50235193      30.18770448
Cl      24.48406549       5.51108508      18.63523432
Cl      17.04494641      13.21585811      33.16354230
Cl      23.72141998       9.90606380      22.24691172
Cl      19.54822082       1.97026207      30.44343392
Cl      13.54052395       8.37832875      30.79050395
Cl      14.39729268       6.91857218      26.48133572
Cl      25.46476547       0.80316730      26.74175333
Na      21.47386894       3.76068916       0.02370373
Na      23.07797757       9.34475525      45.45757089
Na      15.09882842       6.98630535      46.92587702
Na      17.10580178       3.62311496      40.89604095
Na      18.91513601       1.15491097      45.15755217
Na      26.26384425       7.28788377      37.63051777
Na      25.44486800       3.10297327      46.93038348
Na      22.69765423       5.13834822      48.05201933
Na      14.31110665      13.15989079      39.62382637
Na      16.43357618       9.27970233      46.11917239
Na      21.65360943      10.40795251      41.18870640
Na      19.53737261       7.93234376      42.41389390
Na      19.49073621       6.28142610      51.15554016
Na      16.87116608      12.33146551      47.28467353
Na      15.95471948       3.66163791      46.63358711
Na      23.74513340       5.21815616      39.33961660
Na      25.41815633       0.16986716      50.72645742
Na      14.20647684       3.88990460      41.79752659
Na      24.26155907       1.02894817      41.45232214
Na      19.88796786       8.61122910      47.01858651
Na      25.44950166       7.12649620      51.15190592
Na      18.59884800       5.26084032      43.43354084
Na      19.05214690      12.05062953      49.94533785
Na      17.15065740       7.94348271      37.92111169
Na      15.41233624       0.46758692      52.82414143
Na      15.48648385       0.65988371      43.50187668
Na      20.04917371       8.90277701      37.15256659
Na      18.47751886      10.94827332      43.35965671
Na      20.30653250       1.57382995      41.15133428
Na      22.81004314       7.46238186      51.24700190
Na      18.97610949      12.33391863      37.35861595
Na      22.78614801       1.08508811      38.28956318
Na      25.63830049       6.57662643      45.92779325
Na      22.75607466      10.76565270      49.94558013
Na      26.45200709      11.08573849      44.52470964
Na      23.05362816      10.25395154      36.72270855
Na      18.69530076       1.65134832      50.77673109
Na      15.80750546       6.69044177      41.77355272
Na      16.71099599       2.64884758      36.68544546
Na      22.78015151       4.76642906      42.78721527
Na      20.12991747       4.64149294      39.62070092
Na      21.68544538       2.10294821      49.80917495
Na      25.53063609      11.10917935      38.56028992
Na      15.43692188       5.84985996      51.24312538
Na      16.12703703       9.10889300      50.56364342
Na      25.96501877       8.67151207      41.21755016
Na      15.91914026      10.90993207      37.17090740
Na      25.99472869      10.90130075      50.01220789
Na      26.41630067       3.75100390      36.76893609
Na      23.08270209      12.96236978      46.83239222
Cl      20.87111187       1.67459837      52.65454351
Cl      23.68598612       4.17017728      45.64684217
Cl      15.31265809       1.83608588      40.31074641
Cl      18.05418427       7.44577338      44.73652533
Cl      19.75301940       3.32796914      42.99990318
Cl      22.42853867       3.48493202      39.97032704
Cl      24.29771977       6.10529260      49.38566471
Cl      22.04844247      13.14072017      42.16990306
Cl      22.10188399       8.17072272      47.70264761
Cl      16.82637406       3.85877733      51.34258244
Cl      15.74265242      10.92565017      44.20243724
Cl      16.32652961       3.85623336      43.64512636
Cl      21.06361763      11.39501242      37.35931857
Cl      14.90895749       8.95949843      39.77184901
Cl      23.88105402       1.50837727      48.41205149
Cl      14.77695277       8.04646802      52.85866673
Cl      21.03772366       8.77870402      52.01043483
Cl      25.01348357       9.11816031       0.06331696
Cl      25.93022091      12.00392953      41.21184440
Cl      21.06257278      12.29421454      48.53246602
Cl      14.62026246      12.09987349      48.97790285
Cl      20.96353971       9.96402995      44.49723477
Cl      17.03430717       0.18963289      37.55891110
Cl      18.60756109      13.07802951      41.81899285
Cl      21.06441716       4.98364766      50.09434174
Cl      13.84863401       4.63598706      47.28323195
Cl      13.38000315       1.78043656      51.81164184
Cl      21.21101336       6.18818964      42.71242259
Cl      24.89491645       2.06608792      38.82625580
Cl      23.42550189      12.28131299      52.81287529
Cl      15.29760325       4.60877568      37.87063208
Cl      18.04380851       6.21916246      40.67309237
Cl      18.69129401       3.11591117      38.59949126
Cl      16.13928442       1.32929095      46.34042499
Cl      20.28983316       6.32837141      36.87363858
Cl      24.99894661       9.00926028      43.77821227
Cl      14.07389609      11.78105969      36.16574170
Cl      17.72496745       9.77259630      35.70442203
Cl      25.58796625       5.86403350      40.92091128
Cl      17.25185284       6.95791284      48.85155239
Cl      19.25966207       9.70091089      39.88852027
Cl      24.43191413      10.98888596      47.77036564
Cl      18.26984923      10.50235193      47.91294904
Cl      24.48406549       5.51108508      36.36047888
Cl      17.04494641      13.21585811      50.88878686
Cl      23.72141998       9.90606380      39.97215627
Cl      19.54822082       1.97026207      48.16867848
Cl      13.54052395       8.37832875      48.51574851
Cl      14.39729268       6.91857218      44.20658028
Cl      25.46476547       0.80316730      44.46699789
Na      21.47386894      17.05462257      17.74894829
Na      23.07797757      22.63868867      10.00708178
Na      15.09882842      20.28023877      11.47538790
Na      17.10580178      16.91704837       5.44555184
Na      18.91513601      14.44884439       9.70706305
Na      26.26384425      20.58181719       2.18002865
Na      25.44486800      16.39690669      11.47989436
Na      22.69765423      18.43228164      12.60153022
Na      14.31110665      26.45382421       4.17333725
Na      16.43357618      22.57363575      10.66868327
Na      21.65360943      23.70188593       5.73821728
Na      19.53737261      21.22627718       6.96340478
Na      19.49073621      19.57535952      15.70505105
Na      16.87116608      25.62539893      11.83418442
Na      15.95471948      16.95557133      11.18309800
Na      23.74513340      18.51208957       3.88912748
Na      25.41815633      13.46380058      15.27596831
Na      14.20647684      17.18383802       6.34703748
Na      24.26155907      14.32288159       6.00183302
Na      19.88796786      21.90516252      11.56809739
Na      25.44950166      20.42042962      15.70141681
Na      18.59884800      18.55477374       7.98305172
Na      19.05214690      25.34456295      14.49484873
Na      17.15065740      21.23741613       2.47062257
Na      15.41233624      13.76152034      17.37365232
Na      15.48648385      13.95381713       8.05138757
Na      20.04917371      22.19671043       1.70207748
Na      18.47751886      24.24220674       7.90916760
Na      20.30653250      14.86776337       5.70084517
Na      22.81004314      20.75631528      15.79651278
Na      18.97610949      25.62785205       1.90812684
Na      22.78614801      14.37902153       2.83907406
Na      25.63830049      19.87055984      10.47730413
Na      22.75607466      24.05958612      14.49509102
Na      26.45200709      24.37967191       9.07422052
Na      23.05362816      23.54788496       1.27221943
Na      18.69530076      14.94528173      15.32624197
Na      15.80750546      19.98437519       6.32306360
Na      16.71099599      15.94278100       1.23495634
Na      22.78015151      18.06036248       7.33672615
Na      20.12991747      17.93542635       4.17021181
Na      21.68544538      15.39688163      14.35868583
Na      25.53063609      24.40311277       3.10980080
Na      15.43692188      19.14379338      15.79263626
Na      16.12703703      22.40282642      15.11315430
Na      25.96501877      21.96544549       5.76706104
Na      15.91914026      24.20386549       1.72041828
Na      25.99472869      24.19523417      14.56171877
Na      26.41630067      17.04493732       1.31844698
Na      23.08270209      26.25630320      11.38190310
Cl      20.87111187      14.96853179      17.20405440
Cl      23.68598612      17.46411070      10.19635306
Cl      15.31265809      15.13001930       4.86025730
Cl      18.05418427      20.73970679       9.28603621
Cl      19.75301940      16.62190256       7.54941406
Cl      22.42853867      16.77886544       4.51983792
Cl      24.29771977      19.39922602      13.93517559
Cl      22.04844247      26.43465359       6.71941394
Cl      22.10188399      21.46465614      12.25215850
Cl      16.82637406      17.15271074      15.89209333
Cl      15.74265242      24.21958359       8.75194813
Cl      16.32652961      17.15016678       8.19463724
Cl      21.06361763      24.68894584       1.90882946
Cl      14.90895749      22.25343185       4.32135990
Cl      23.88105402      14.80231069      12.96156238
Cl      14.77695277      21.34040143      17.40817761
Cl      21.03772366      22.07263743      16.55994572
Cl      25.01348357      22.41209373      17.78856152
Cl      25.93022091      25.29786295       5.76135528
Cl      21.06257278      25.58814796      13.08197690
Cl      14.62026246      25.39380691      13.52741373
Cl      20.96353971      23.25796337       9.04674566
Cl      17.03430717      13.48356631       2.10842198
Cl      18.60756109      26.37196293       6.36850373
Cl      21.06441716      18.27758108      14.64385262
Cl      13.84863401      17.92992048      11.83274284
Cl      13.38000315      15.07436998      16.36115272
Cl      21.21101336      19.48212306       7.26193347
Cl      24.89491645      15.36002134       3.37576668
Cl      23.42550189      25.57524640      17.36238617
Cl      15.29760325      17.90270910       2.42014296
Cl      18.04380851      19.51309588       5.22260326
Cl      18.69129401      16.40984459       3.14900215
Cl      16.13928442      14.62322437      10.88993587
Cl      20.28983316      19.62230483       1.42314947
Cl      24.99894661      22.30319370       8.32772315
Cl      14.07389609      25.07499311       0.71525258
Cl      17.72496745      23.06652971       0.25393291
Cl      25.58796625      19.15796692       5.47042216
Cl      17.25185284      20.25184626      13.40106328
Cl      19.25966207      22.99484431       4.43803115
Cl      24.43191413      24.28281938      12.31987652
Cl      18.26984923      23.79628534      12.46245992
Cl      24.48406549      18.80501850       0.90998976
Cl      17.04494641      26.50979153      15.43829774
Cl      23.72141998      23.19999722       4.52166716
Cl      19.54822082      15.26419548      12.71818936
Cl      13.54052395      21.67226217      13.06525939
Cl      14.39729268      20.21250560       8.75609116
Cl      25.46476547      14.09710072       9.01650877
Na      21.47386894      17.05462257      35.47419285
Na      23.07797757      22.63868867      27.73232633
Na      15.09882842      20.28023877      29.20063246
Na      17.10580178      16.91704837      23.17079640
Na      18.91513601      14.44884439      27.43230761
Na      26.26384425      20.58181719      19.90527321
Na      25.44486800      16.39690669      29.20513892
Na      22.69765423      18.43228164      30.32677477
Na      14.31110665      26.45382421      21.89858181
Na      16.43357618      22.57363575      28.39392783
Na      21.65360943      23.70188593      23.46346184
Na      19.53737261      21.22627718      24.68864934
Na      19.49073621      19.57535952      33.43029561
Na      16.87116608      25.62539893      29.55942898
Na      15.95471948      16.95557133      28.90834255
Na      23.74513340      18.51208957      21.61437204
Na      25.41815633      13.46380058      33.00121286
Na      14.20647684      17.18383802      24.07228204
Na      24.26155907      14.32288159      23.72707758
Na      19.88796786      21.90516252      29.29334195
Na      25.44950166      20.42042962      33.42666136
Na      18.59884800      18.55477374      25.70829628
Na      19.05214690      25.34456295      32.22009329
Na      17.15065740      21.23741613      20.19586713
Na      15.41233624      13.76152034      35.09889688
Na      15.48648385      13.95381713      25.77663213
Na      20.04917371      22.19671043      19.42732203
Na      18.47751886      24.24220674      25.63441215
Na      20.30653250      14.86776337      23.42608973
Na      22.81004314      20.75631528      33.52175734
Na      18.97610949      25.62785205      19.63337140
Na      22.78614801      14.37902153      20.56431862
Na      25.63830049      19.87055984      28.20254869
Na      22.75607466      24.05958612      32.22033557
Na      26.45200709      24.37967191      26.79946508
Na      23.05362816      23.54788496      18.99746399
Na      18.69530076      14.94528173      33.05148653
Na      15.80750546      19.98437519      24.04830816
Na      16.71099599      15.94278100      18.96020090
Na      22.78015151      18.06036248      25.06197071
Na      20.12991747      17.93542635      21.89545637
Na      21.68544538      15.39688163      32.08393039
Na      25.53063609      24.40311277      20.83504536
Na      15.43692188      19.14379338      33.51788082
Na      16.12703703      22.40282642      32.83839886
Na      25.96501877      21.96544549      23.49230560
Na      15.91914026      24.20386549      19.44566284
Na      25.99472869      24.19523417      32.28696333
Na      26.41630067      17.04493732      19.04369154
Na      23.08270209      26.25630320      29.10714766
Cl      20.87111187      14.96853179      34.92929895
Cl      23.68598612      17.46411070      27.92159762
Cl      15.31265809      15.13001930      22.58550185
Cl      18.05418427      20.73970679      27.01128077
Cl      19.75301940      16.62190256      25.27465862
Cl      22.42853867      16.77886544      22.24508248
Cl      24.29771977      19.39922602      31.66042015
Cl      22.04844247      26.43465359      24.44465850
Cl      22.10188399      21.46465614      29.97740306
Cl      16.82637406      17.15271074      33.61733789
Cl      15.74265242      24.21958359      26.47719268
Cl      16.32652961      17.15016678      25.91988180
Cl      21.06361763      24.68894584      19.63407402
Cl      14.90895749      22.25343185      22.04660446
Cl      23.88105402      14.80231069      30.68680693
Cl      14.77695277      21.34040143      35.13342217
Cl      21.03772366      22.07263743      34.28519027
Cl      25.01348357      22.41209373      35.51380608
Cl      25.93022091      25.29786295      23.48659984
Cl      21.06257278      25.58814796      30.80722146
Cl      14.62026246      25.39380691      31.25265829
Cl      20.96353971      23.25796337      26.77199022
Cl      17.03430717      13.48356631      19.83366654
Cl      18.60756109      26.37196293      24.09374829
Cl      21.06441716      18.27758108      32.36909718
Cl      13.84863401      17.92992048      29.55798739
Cl      13.38000315      15.07436998      34.08639728
Cl      21.21101336      19.48212306      24.98717803
Cl      24.89491645      15.36002134      21.10101124
Cl      23.42550189      25.57524640      35.08763073
Cl      15.29760325      17.90270910      20.14538752
Cl      18.04380851      19.51309588      22.94784781
Cl      18.69129401      16.40984459      20.87424671
Cl      16.13928442      14.62322437      28.61518043
Cl      20.28983316      19.62230483      19.14839402
Cl      24.99894661      22.30319370      26.05296771
Cl      14.07389609      25.07499311      18.44049714
Cl      17.72496745      23.06652971      17.97917747
Cl      25.58796625      19.15796692      23.19566672
Cl      17.25185284      20.25184626      31.12630784
Cl      19.25966207      22.99484431      22.16327571
Cl      24.43191413      24.28281938      30.04512108
Cl      18.26984923      23.79628534      30.18770448
Cl      24.48406549      18.80501850      18.63523432
Cl      17.04494641      26.50979153      33.16354230
Cl      23.72141998      23.19999722      22.24691172
Cl      19.54822082      15.26419548      30.44343392
Cl      13.54052395      21.67226217      30.79050395
Cl      14.39729268      20.21250560      26.48133572
Cl      25.46476547      14.09710072      26.74175333
Na      21.47386894      17.05462257       0.02370373
Na      23.07797757      22.63868867      45.45757089
Na      15.09882842      20.28023877      46.92587702
Na      17.10580178      16.91704837      40.89604095
Na      18.91513601      14.44884439      45.15755217
Na      26.26384425      20.58181719      37.63051777
Na      25.44486800      16.39690669      46.93038348
Na      22.69765423      18.43228164      48.05201933
Na      14.31110665      26.45382421      39.62382637
Na      16.43357618      22.57363575      46.11917239
Na      21.65360943      23.70188593      41.18870640
Na      19.53737261      21.22627718      42.41389390
Na      19.49073621      19.57535952      51.15554016
Na      16.87116608      25.62539893      47.28467353
Na      15.95471948      16.95557133      46.63358711
Na      23.74513340      18.51208957      39.33961660
Na      25.41815633      13.46380058      50.72645742
Na      14.20647684      17.18383802      41.79752659
Na      24.26155907      14.32288159      41.45232214
Na      19.88796786      21.90516252      47.01858651
Na      25.44950166      20.42042962      51.15190592
Na      18.59884800      18.55477374      43.43354084
Na      19.05214690      25.34456295      49.94533785
Na      17.15065740      21.23741613      37.92111169
Na      15.41233624      13.76152034      52.82414143
Na      15.48648385      13.95381713      43.50187668
Na      20.04917371      22.19671043      37.15256659
Na      18.47751886      24.24220674      43.35965671
Na      20.30653250      14.86776337      41.15133428
Na      22.81004314      20.75631528      51.24700190
Na      18.97610949      25.62785205      37.35861595
Na      22.78614801      14.37902153      38.28956318
Na      25.63830049      19.87055984      45.92779325
Na      22.75607466      24.05958612      49.94558013
Na      26.45200709      24.37967191      44.52470964
Na      23.05362816      23.54788496      36.72270855
Na      18.69530076      14.94528173      50.77673109
Na      15.80750546      19.98437519      41.77355272
Na      16.71099599      15.94278100      36.68544546
Na      22.78015151      18.06036248      42.78721527
Na      20.12991747      17.93542635      39.62070092
Na      21.68544538      15.39688163      49.80917495
Na      25.53063609      24.40311277      38.56028992
Na      15.43692188      19.14379338      51.24312538
Na      16.12703703      22.40282642      50.56364342
Na      25.96501877      21.96544549      41.21755016
Na      15.91914026      24.20386549      37.17090740
Na      25.99472869      24.19523417      50.01220789
Na      26.41630067      17.04493732      36.76893609
Na      23.08270209      26.25630320      46.83239222
Cl      20.87111187      14.96853179      52.65454351
Cl      23.68598612      17.46411070      45.64684217
Cl      15.31265809      15.13001930      40.31074641
Cl      18.05418427      20.73970679      44.73652533
Cl      19.75301940      16.62190256      42.99990318
Cl      22.42853867      16.77886544      39.97032704
Cl      24.29771977      19.39922602      49.38566471
Cl      22.04844247      26.43465359      42.16990306
Cl      22.10188399      21.46465614      47.70264761
Cl      16.82637406      17.15271074      51.34258244
Cl      15.74265242      24.21958359      44.20243724
Cl      16.32652961      17.15016678      43.64512636
Cl      21.06361763      24.68894584      37.35931857
Cl      14.90895749      22.25343185      39.77184901
Cl      23.88105402      14.80231069      48.41205149
Cl      14.77695277      21.34040143      52.85866673
Cl      21.03772366      22.07263743      52.01043483
Cl      25.01348357      22.41209373       0.06331696
Cl      25.93022091      25.29786295      41.21184440
Cl      21.06257278      25.58814796      48.53246602
Cl      14.62026246      25.39380691      48.97790285
Cl      20.96353971      23.25796337      44.49723477
Cl      17.03430717      13.48356631      37.55891110
Cl      18.60756109      26.37196293      41.81899285
Cl      21.06441716      18.27758108      50.09434174
Cl      13.84863401      17.92992048      47.28323195
Cl      13.38000315      15.07436998      51.81164184
Cl      21.21101336      19.48212306      42.71242259
Cl      24.89491645      15.36002134      38.82625580
Cl      23.42550189      25.57524640      52.81287529
Cl      15.29760325      17.90270910      37.87063208
Cl      18.04380851      19.51309588      40.67309237
Cl      18.69129401      16.40984459      38.59949126
Cl      16.13928442      14.62322437      46.34042499
Cl      20.28983316      19.62230483      36.87363858
Cl      24.99894661      22.30319370      43.77821227
Cl      14.07389609      25.07499311      36.16574170
Cl      17.72496745      23.06652971      35.70442203
Cl      25.58796625      19.15796692      40.92091128
Cl      17.25185284      20.25184626      48.85155239
Cl      19.25966207      22.99484431      39.88852027
Cl      24.43191413      24.28281938      47.77036564
Cl      18.26984923      23.79628534      47.91294904
Cl      24.48406549      18.80501850      36.36047888
Cl      17.04494641      26.50979153      50.88878686
Cl      23.72141998      23.19999722      39.97215627
Cl      19.54822082      15.26419548      48.16867848
Cl      13.54052395      21.67226217      48.51574851
Cl      14.39729268      20.21250560      44.20658028
Cl      25.46476547      14.09710072      44.46699789
Na      21.47386894      30.34855599      17.74894829
Na      23.07797757      35.93262209      10.00708178
Na      15.09882842      33.57417219      11.47538790
Na      17.10580178      30.21098179       5.44555184
Na      18.91513601      27.74277781       9.70706305
Na      26.26384425      33.87575061       2.18002865
Na      25.44486800      29.69084011      11.47989436
Na      22.69765423      31.72621506      12.60153022
Na      14.31110665      39.74775763       4.17333725
Na      16.43357618      35.86756917      10.66868327
Na      21.65360943      36.99581935       5.73821728
Na      19.53737261      34.52021059       6.96340478
Na      19.49073621      32.86929294      15.70505105
Na      16.87116608      38.91933235      11.83418442
Na      15.95471948      30.24950475      11.18309800
Na      23.74513340      31.80602299       3.88912748
Na      25.41815633      26.75773400      15.27596831
Na      14.20647684      30.47777144       6.34703748
Na      24.26155907      27.61681501       6.00183302
Na      19.88796786      35.19909593      11.56809739
Na      25.44950166      33.71436304      15.70141681
Na      18.59884800      31.84870716       7.98305172
Na      19.05214690      38.63849636      14.49484873
Na      17.15065740      34.53134954       2.47062257
Na      15.41233624      27.05545376      17.37365232
Na      15.48648385      27.24775055       8.05138757
Na      20.04917371      35.49064385       1.70207748
Na      18.47751886      37.53614016       7.90916760
Na      20.30653250      28.16169679       5.70084517
Na      22.81004314      34.05024870      15.79651278
Na      18.97610949      38.92178546       1.90812684
Na      22.78614801      27.67295495       2.83907406
Na      25.63830049      33.16449326      10.47730413
Na      22.75607466      37.35351954      14.49509102
Na      26.45200709      37.67360533       9.07422052
Na      23.05362816      36.84181838       1.27221943
Na      18.69530076      28.23921515      15.32624197
Na      15.80750546      33.27830861       6.32306360
Na      16.71099599      29.23671442       1.23495634
Na      22.78015151      31.35429590       7.33672615
Na      20.12991747      31.22935977       4.17021181
Na      21.68544538      28.69081505      14.35868583
Na      25.53063609      37.69704618       3.10980080
Na      15.43692188      32.43772680      15.79263626
Na      16.12703703      35.69675984      15.11315430
Na      25.96501877      35.25937891       5.76706104
Na      15.91914026      37.49779891       1.72041828
Na      25.99472869      37.48916759      14.56171877
Na      26.41630067      30.33887074       1.31844698
Na      23.08270209      39.55023662      11.38190310
Cl      20.87111187      28.26246521      17.20405440
Cl      23.68598612      30.75804412      10.19635306
Cl      15.31265809      28.42395272       4.86025730
Cl      18.05418427      34.03364021       9.28603621
Cl      19.75301940      29.91583598       7.54941406
Cl      22.42853867      30.07279886       4.51983792
Cl      24.29771977      32.69315944      13.93517559
Cl      22.04844247      39.72858701       6.71941394
Cl      22.10188399      34.75858956      12.25215850
Cl      16.82637406      30.44664416      15.89209333
Cl      15.74265242      37.51351700       8.75194813
Cl      16.32652961      30.44410019       8.19463724
Cl      21.06361763      37.98287925       1.90882946
Cl      14.90895749      35.54736527       4.32135990
Cl      23.88105402      28.09624410      12.96156238
Cl      14.77695277      34.63433485      17.40817761
Cl      21.03772366      35.36657085      16.55994572
Cl      25.01348357      35.70602715      17.78856152
Cl      25.93022091      38.59179636       5.76135528
Cl      21.06257278      38.88208138      13.08197690
Cl      14.62026246      38.68774033      13.52741373
Cl      20.96353971      36.55189679       9.04674566
Cl      17.03430717      26.77749973       2.10842198
Cl      18.60756109      39.66589635       6.36850373
Cl      21.06441716      31.57151450      14.64385262
Cl      13.84863401      31.22385390      11.83274284
Cl      13.38000315      28.36830340      16.36115272
Cl      21.21101336      32.77605648       7.26193347
Cl      24.89491645      28.65395476       3.37576668
Cl      23.42550189      38.86917982      17.36238617
Cl      15.29760325      31.19664252       2.42014296
Cl      18.04380851      32.80702930       5.22260326
Cl      18.69129401      29.70377801       3.14900215
Cl      16.13928442      27.91715778      10.88993587
Cl      20.28983316      32.91623825       1.42314947
Cl      24.99894661      35.59712711       8.32772315
Cl      14.07389609      38.36892652       0.71525258
Cl      17.72496745      36.36046313       0.25393291
Cl      25.58796625      32.45190034       5.47042216
Cl      17.25185284      33.54577968      13.40106328
Cl      19.25966207      36.28877773       4.43803115
Cl      24.43191413      37.57675280      12.31987652
Cl      18.26984923      37.09021876      12.46245992
Cl      24.48406549      32.09895192       0.90998976
Cl      17.04494641      39.80372494      15.43829774
Cl      23.72141998      36.49393064       4.52166716
Cl      19.54822082      28.55812890      12.71818936
Cl      13.54052395      34.96619559      13.06525939
Cl      14.39729268      33.50643902       8.75609116
Cl      25.46476547      27.39103414       9.01650877
Na      21.47386894      30.34855599      35.47419285
Na      23.07797757      35.93262209      27.73232633
Na      15.09882842      33.57417219      29.20063246
Na      17.10580178      30.21098179      23.17079640
Na      18.91513601      27.74277781      27.43230761
Na      26.26384425      33.87575061      19.90527321
Na      25.44486800      29.69084011      29.20513892
Na      22.69765423      31.72621506      30.32677477
Na      14.31110665      39.74775763      21.89858181
Na      16.43357618      35.86756917      28.39392783
Na      21.65360943      36.99581935      23.46346184
Na      19.53737261      34.52021059      24.68864934
Na      19.49073621      32.86929294      33.43029561
Na      16.87116608      38.91933235      29.55942898
Na      15.95471948      30.24950475      28.90834255
Na      23.74513340      31.80602299      21.61437204
Na      25.41815633      26.75773400      33.00121286
Na      14.20647684      30.47777144      24.07228204
Na      24.26155907      27.61681501      23.72707758
Na      19.88796786      35.19909593      29.29334195
Na      25.44950166      33.71436304      33.42666136
Na      18.59884800      31.84870716      25.70829628
Na      19.05214690      38.63849636      32.22009329
Na      17.15065740      34.53134954      20.19586713
Na      15.41233624      27.05545376      35.09889688
Na      15.48648385      27.24775055      25.77663213
Na      20.04917371      35.49064385      19.42732203
Na      18.47751886      37.53614016      25.63441215
Na      20.30653250      28.16169679      23.42608973
Na      22.81004314      34.05024870      33.52175734
Na      18.97610949      38.92178546      19.63337140
Na      22.78614801      27.67295495      20.56431862
Na      25.63830049      33.16449326      28.20254869
Na      22.75607466      37.35351954      32.22033557
Na      26.45200709      37.67360533      26.79946508
Na      23.05362816      36.84181838      18.99746399
Na      18.69530076      28.23921515      33.05148653
Na      15.80750546      33.27830861      24.04830816
Na      16.71099599      29.23671442      18.96020090
Na      22.78015151      31.35429590      25.06197071
Na      20.12991747      31.22935977      21.89545637
Na      21.68544538      28.69081505      32.08393039
Na      25.53063609      37.69704618      20.83504536
Na      15.43692188      32.43772680      33.51788082
Na      16.12703703      35.69675984      32.83839886
Na      25.96501877      35.25937891      23.49230560
Na      15.91914026      37.49779891      19.44566284
Na      25.99472869      37.48916759      32.28696333
Na      26.41630067      30.33887074      19.04369154
Na      23.08270209      39.55023662      29.10714766
Cl      20.87111187      28.26246521      34.92929895
Cl      23.68598612      30.75804412      27.92159762
Cl      15.31265809      28.42395272      22.58550185
Cl      18.05418427      34.03364021      27.01128077
Cl      19.75301940      29.91583598      25.27465862
Cl      22.42853867      30.07279886      22.24508248
Cl      24.29771977      32.69315944      31.66042015
Cl      22.04844247      39.72858701      24.44465850
Cl      22.10188399      34.75858956      29.97740306
Cl      16.82637406      30.44664416      33.61733789
Cl      15.74265242      37.51351700      26.47719268
Cl      16.32652961      30.44410019      25.91988180
Cl      21.06361763      37.98287925      19.63407402
Cl      14.90895749      35.54736527      22.04660446
Cl      23.88105402      28.09624410      30.68680693
Cl      14.77695277      34.63433485      35.13342217
Cl      21.03772366      35.36657085      34.28519027
Cl      25.01348357      35.70602715      35.51380608
Cl      25.93022091      38.59179636      23.48659984
Cl      21.06257278      38.88208138      30.80722146
Cl      14.62026246      38.68774033      31.25265829
Cl      20.96353971      36.55189679      26.77199022
Cl      17.03430717      26.77749973      19.83366654
Cl      18.60756109      39.66589635      24.09374829
Cl      21.06441716      31.57151450      32.36909718
Cl      13.84863401      31.22385390      29.55798739
Cl      13.38000315      28.36830340      34.08639728
Cl      21.21101336      32.77605648      24.98717803
Cl      24.89491645      28.65395476      21.10101124
Cl      23.42550189      38.86917982      35.08763073
Cl      15.29760325      31.19664252      20.14538752
Cl      18.04380851      32.80702930      22.94784781
Cl      18.69129401      29.70377801      20.87424671
Cl      16.13928442      27.91715778      28.61518043
Cl      20.28983316      32.91623825      19.14839402
Cl      24.99894661      35.59712711      26.05296771
Cl      14.07389609      38.36892652      18.44049714
Cl      17.72496745      36.36046313      17.97917747
Cl      25.58796625      32.45190034      23.19566672
Cl      17.25185284      33.54577968      31.12630784
Cl      19.25966207      36.28877773      22.16327571
Cl      24.43191413      37.57675280      30.04512108
Cl      18.26984923      37.09021876      30.18770448
Cl      24.48406549      32.09895192      18.63523432
Cl      17.04494641      39.80372494      33.16354230
Cl      23.72141998      36.49393064      22.24691172
Cl      19.54822082      28.55812890      30.44343392
Cl      13.54052395      34.96619559      30.79050395
Cl      14.39729268      33.50643902      26.48133572
Cl      25.46476547      27.39103414      26.74175333
Na      21.47386894      30.34855599       0.02370373
Na      23.07797757      35.93262209      45.45757089
Na      15.09882842      33.57417219      46.92587702
Na      17.10580178      30.21098179      40.89604095
Na      18.91513601      27.74277781      45.15755217
Na      26.26384425      33.87575061      37.63051777
Na      25.44486800      29.69084011      46.93038348
Na      22.69765423      31.72621506      48.05201933
Na      14.31110665      39.74775763      39.62382637
Na      16.43357618      35.86756917      46.11917239
Na      21.65360943      36.99581935      41.18870640
Na      19.53737261      34.52021059      42.41389390
Na      19.49073621      32.86929294      51.15554016
Na      16.87116608      38.91933235      47.28467353
Na      15.95471948      30.24950475      46.63358711
Na      23.74513340      31.80602299      39.33961660
Na      25.41815633      26.75773400      50.72645742
Na      14.20647684      30.47777144      41.79752659
Na      24.26155907      27.61681501      41.45232214
Na      19.88796786      35.19909593      47.01858651
Na      25.44950166      33.71436304      51.15190592
Na      18.59884800      31.84870716      43.43354084
Na      19.05214690      38.63849636      49.94533785
Na      17.15065740      34.53134954      37.92111169
Na      15.41233624      27.05545376      52.82414143
Na      15.48648385      27.24775055      43.50187668
Na      20.04917371      35.49064385      37.15256659
Na      18.47751886      37.53614016      43.35965671
Na      20.30653250      28.16169679      41.15133428
Na      22.81004314      34.05024870      51.24700190
Na      18.97610949      38.92178546      37.35861595
Na      22.78614801      27.67295495      38.28956318
Na      25.63830049      33.16449326      45.92779325
Na      22.75607466      37.35351954      49.94558013
Na      26.45200709      37.67360533      44.52470964
Na      23.05362816      36.84181838      36.72270855
Na      18.69530076      28.23921515      50.77673109
Na      15.80750546      33.27830861      41.77355272
Na      16.71099599      29.23671442      36.68544546
Na      22.78015151      31.35429590      42.78721527
Na      20.12991747      31.22935977      39.62070092
Na      21.68544538      28.69081505      49.80917495
Na      25.53063609      37.69704618      38.56028992
Na      15.43692188      32.43772680      51.24312538
Na      16.12703703      35.69675984      50.56364342
Na      25.96501877      35.25937891      41.21755016
Na      15.91914026      37.49779891      37.17090740
Na      25.99472869      37.48916759      50.01220789
Na      26.41630067      30.33887074      36.76893609
Na      23.08270209      39.55023662      46.83239222
Cl      20.87111187      28.26246521      52.65454351
Cl      23.68598612      30.75804412      45.64684217
Cl      15.31265809      28.42395272      40.31074641
Cl      18.05418427      34.03364021      44.73652533
Cl      19.75301940      29.91583598      42.99990318
Cl      22.42853867      30.07279886      39.97032704
Cl      24.29771977      32.69315944      49.38566471
Cl      22.04844247      39.72858701      42.16990306
Cl      22.10188399      34.75858956      47.70264761
Cl      16.82637406      30.44664416      51.34258244
Cl      15.74265242      37.51351700      44.20243724
Cl      16.32652961      30.44410019      43.64512636
Cl      21.06361763      37.98287925      37.35931857
Cl      14.90895749      35.54736527      39.77184901
Cl      23.88105402      28.09624410      48.41205149
Cl      14.77695277      34.63433485      52.85866673
Cl      21.03772366      35.36657085      52.01043483
Cl      25.01348357      35.70602715       0.06331696
Cl      25.93022091      38.59179636      41.21184440
Cl      21.06257278      38.88208138      48.53246602
Cl      14.62026246      38.68774033      48.97790285
Cl      20.96353971      36.55189679      44.49723477
Cl      17.03430717      26.77749973      37.55891110
Cl      18.60756109      39.66589635      41.81899285
Cl      21.06441716      31.57151450      50.09434174
Cl      13.84863401      31.22385390      47.28323195
Cl      13.38000315      28.36830340      51.81164184
Cl      21.21101336      32.77605648      42.71242259
Cl      24.89491645      28.65395476      38.82625580
Cl      23.42550189      38.86917982      52.81287529
Cl      15.29760325      31.19664252      37.87063208
Cl      18.04380851      32.80702930      40.67309237
Cl      18.69129401      29.70377801      38.59949126
Cl      16.13928442      27.91715778      46.34042499
Cl      20.28983316      32.91623825      36.87363858
Cl      24.99894661      35.59712711      43.77821227
Cl      14.07389609      38.36892652      36.16574170
Cl      17.72496745      36.36046313      35.70442203
Cl      25.58796625      32.45190034      40.92091128
Cl      17.25185284      33.54577968      48.85155239
Cl      19.25966207      36.28877773      39.88852027
Cl      24.43191413      37.57675280      47.77036564
Cl      18.26984923      37.09021876      47.91294904
Cl      24.48406549      32.09895192      36.36047888
Cl      17.04494641      39.80372494      50.88878686
Cl      23.72141998      36.49393064      39.97215627
Cl      19.54822082      28.55812890      48.16867848
Cl      13.54052395      34.96619559      48.51574851
Cl      14.39729268      33.50643902      44.20658028
Cl      25.46476547      27.39103414      44.46699789
Na      21.47386894      43.64248941      17.74894829
Na      23.07797757      49.22655551      10.00708178
Na      15.09882842      46.86810560      11.47538790
Na      17.10580178      43.50491521       5.44555184
Na      18.91513601      41.03671123       9.70706305
Na      26.26384425      47.16968402       2.18002865
Na      25.44486800      42.98477353      11.47989436
Na      22.69765423      45.02014848      12.60153022
Na      14.31110665      53.04169105       4.17333725
Na      16.43357618      49.16150259      10.66868327
Na      21.65360943      50.28975277       5.73821728
Na      19.53737261      47.81414401       6.96340478
Na      19.49073621      46.16322636      15.70505105
Na      16.87116608      52.21326577      11.83418442
Na      15.95471948      43.54343817      11.18309800
Na      23.74513340      45.09995641       3.88912748
Na      25.41815633      40.05166741      15.27596831
Na      14.20647684      43.77170486       6.34703748
Na      24.26155907      40.91074843       6.00183302
Na      19.88796786      48.49302935      11.56809739
Na      25.44950166      47.00829646      15.70141681
Na      18.59884800      45.14264057       7.98305172
Na      19.05214690      51.93242978      14.49484873
Na      17.15065740      47.82528296       2.47062257
Na      15.41233624      40.34938718      17.37365232
Na      15.48648385      40.54168396       8.05138757
Na      20.04917371      48.78457727       1.70207748
Na      18.47751886      50.83007357       7.90916760
Na      20.30653250      41.45563021       5.70084517
Na      22.81004314      47.34418211      15.79651278
Na      18.97610949      52.21571888       1.90812684
Na      22.78614801      40.96688837       2.83907406
Na      25.63830049      46.45842668      10.47730413
Na      22.75607466      50.64745296      14.49509102
Na      26.45200709      50.96753875       9.07422052
Na      23.05362816      50.13575180       1.27221943
Na      18.69530076      41.53314857      15.32624197
Na      15.80750546      46.57224203       6.32306360
Na      16.71099599      42.53064784       1.23495634
Na      22.78015151      44.64822932       7.33672615
Na      20.12991747      44.52329319       4.17021181
Na      21.68544538      41.98474847      14.35868583
Na      25.53063609      50.99097960       3.10980080
Na      15.43692188      45.73166021      15.79263626
Na      16.12703703      48.99069325      15.11315430
Na      25.96501877      48.55331233       5.76706104
Na      15.91914026      50.79173233       1.72041828
Na      25.99472869      50.78310101      14.56171877
Na      26.41630067      43.63280416       1.31844698
Na      23.08270209      52.84417004      11.38190310
Cl      20.87111187      41.55639863      17.20405440
Cl      23.68598612      44.05197754      10.19635306
Cl      15.31265809      41.71788614       4.86025730
Cl      18.05418427      47.32757363       9.28603621
Cl      19.75301940      43.20976940       7.54941406
Cl      22.42853867      43.36673228       4.51983792
Cl      24.29771977      45.98709286      13.93517559
Cl      22.04844247      53.02252043       6.71941394
Cl      22.10188399      48.05252298      12.25215850
Cl      16.82637406      43.74057758      15.89209333
Cl      15.74265242      50.80745042       8.75194813
Cl      16.32652961      43.73803361       8.19463724
Cl      21.06361763      51.27681267       1.90882946
Cl      14.90895749      48.84129869       4.32135990
Cl      23.88105402      41.39017752      12.96156238
Cl      14.77695277      47.92826827      17.40817761
Cl      21.03772366      48.66050427      16.55994572
Cl      25.01348357      48.99996057      17.78856152
Cl      25.93022091      51.88572978       5.76135528
Cl      21.06257278      52.17601480      13.08197690
Cl      14.62026246      51.98167375      13.52741373
Cl      20.96353971      49.84583021       9.04674566
Cl      17.03430717      40.07143314       2.10842198
Cl      18.60756109      52.95982977       6.36850373
Cl      21.06441716      44.86544791      14.64385262
Cl      13.84863401      44.51778732      11.83274284
Cl      13.38000315      41.66223682      16.36115272
Cl      21.21101336      46.06998990       7.26193347
Cl      24.89491645      41.94788818       3.37576668
Cl      23.42550189      52.16311324      17.36238617
Cl      15.29760325      44.49057594       2.42014296
Cl      18.04380851      46.10096272       5.22260326
Cl      18.69129401      42.99771143       3.14900215
Cl      16.13928442      41.21109120      10.88993587
Cl      20.28983316      46.21017167       1.42314947
Cl      24.99894661      48.89106053       8.32772315
Cl      14.07389609      51.66285994       0.71525258
Cl      17.72496745      49.65439655       0.25393291
Cl      25.58796625      45.74583376       5.47042216
Cl      17.25185284      46.83971310      13.40106328
Cl      19.25966207      49.58271114       4.43803115
Cl      24.43191413      50.87068622      12.31987652
Cl      18.26984923      50.38415218      12.46245992
Cl      24.48406549      45.39288534       0.90998976
Cl      17.04494641      53.09765836      15.43829774
Cl      23.72141998      49.78786406       4.52166716
Cl      19.54822082      41.85206232      12.71818936
Cl      13.54052395      48.26012901      13.06525939
Cl      14.39729268      46.80037243       8.75609116
Cl      25.46476547      40.68496756       9.01650877
Na      21.47386894      43.64248941      35.47419285
Na      23.07797757      49.22655551      27.73232633
Na      15.09882842      46.86810560      29.20063246
Na      17.10580178      43.50491521      23.17079640
Na      18.91513601      41.03671123      27.43230761
Na      26.26384425      47.16968402      19.90527321
Na      25.44486800      42.98477353      29.20513892
Na      22.69765423      45.02014848      30.32677477
Na      14.31110665      53.04169105      21.89858181
Na      16.43357618      49.16150259      28.39392783
Na      21.65360943      50.28975277      23.46346184
Na      19.53737261      47.81414401      24.68864934
Na      19.49073621      46.16322636      33.43029561
Na      16.87116608      52.21326577      29.55942898
Na      15.95471948      43.54343817      28.90834255
Na      23.74513340      45.09995641      21.61437204
Na      25.41815633      40.05166741      33.00121286
Na      14.20647684      43.77170486      24.07228204
Na      24.26155907      40.91074843      23.72707758
Na      19.88796786      48.49302935      29.29334195
Na      25.44950166      47.00829646      33.42666136
Na      18.59884800      45.14264057      25.70829628
Na      19.05214690      51.93242978      32.22009329
Na      17.15065740      47.82528296      20.19586713
Na      15.41233624      40.34938718      35.09889688
Na      15.48648385      40.54168396      25.77663213
Na      20.04917371      48.78457727      19.42732203
Na      18.47751886      50.83007357      25.63441215
Na      20.30653250      41.45563021      23.42608973
Na      22.81004314      47.34418211      33.52175734
Na      18.97610949      52.21571888      19.63337140
Na      22.78614801      40.96688837      20.56431862
Na      25.63830049      46.45842668      28.20254869
Na      22.75607466      50.64745296      32.22033557
Na      26.45200709      50.96753875      26.79946508
Na      23.05362816      50.13575180      18.99746399
Na      18.69530076      41.53314857      33.05148653
Na      15.80750546      46.57224203      24.04830816
Na      16.71099599      42.53064784      18.96020090
Na      22.78015151      44.64822932      25.06197071
Na      20.12991747      44.52329319      21.89545637
Na      21.68544538      41.98474847      32.08393039
Na      25.53063609      50.99097960      20.83504536
Na      15.43692188      45.73166021      33.51788082
Na      16.12703703      48.99069325      32.83839886
Na      25.96501877      48.55331233      23.49230560
Na      15.91914026      50.79173233      19.44566284
Na      25.99472869      50.78310101      32.28696333
Na      26.41630067      43.63280416      19.04369154
Na      23.08270209      52.84417004      29.10714766
Cl      20.87111187      41.55639863      34.92929895
Cl      23.68598612      44.05197754      27.92159762
Cl      15.31265809      41.71788614      22.58550185
Cl      18.05418427      47.32757363      27.01128077
Cl      19.75301940      43.20976940      25.27465862
Cl      22.42853867      43.36673228      22.24508248
Cl      24.29771977      45.98709286      31.66042015
Cl      22.04844247      53.02252043      24.44465850
Cl      22.10188399      48.05252298      29.97740306
Cl      16.82637406      43.74057758      33.61733789
Cl      15.74265242      50.80745042      26.47719268
Cl      16.32652961      43.73803361      25.91988180
Cl      21.06361763      51.27681267      19.63407402
Cl      14.90895749      48.84129869      22.04660446
Cl      23.88105402      41.39017752      30.68680693
Cl      14.77695277      47.92826827      35.13342217
Cl      21.03772366      48.66050427      34.28519027
Cl      25.01348357      48.99996057      35.51380608
Cl      25.93022091      51.88572978      23.48659984
Cl      21.06257278      52.17601480      30.80722146
Cl      14.62026246      51.98167375      31.25265829
Cl      20.96353971      49.84583021      26.77199022
Cl      17.03430717      40.07143314      19.83366654
Cl      18.60756109      52.95982977      24.09374829
Cl      21.06441716      44.86544791      32.36909718
Cl      13.84863401      44.51778732      29.55798739
Cl      13.38000315      41.66223682      34.08639728
Cl      21.21101336      46.06998990      24.98717803
Cl      24.89491645      41.94788818      21.10101124
Cl      23.42550189      52.16311324      35.08763073
Cl      15.29760325      44.49057594      20.14538752
Cl      18.04380851      46.10096272      22.94784781
Cl      18.69129401      42.99771143      20.87424671
Cl      16.13928442      41.21109120      28.61518043
Cl      20.28983316      46.21017167      19.14839402
Cl      24.99894661      48.89106053      26.05296771
Cl      14.07389609      51.66285994      18.44049714
Cl      17.72496745      49.65439655      17.97917747
Cl      25.58796625      45.74583376      23.19566672
Cl      17.25185284      46.83971310      31.12630784
Cl      19.25966207      49.58271114      22.16327571
Cl      24.43191413      50.87068622      30.04512108
Cl      18.26984923      50.38415218      30.18770448
Cl      24.48406549      45.39288534      18.63523432
Cl      17.04494641      53.09765836      33.16354230
Cl      23.72141998      49.78786406      22.24691172
Cl      19.54822082      41.85206232      30.44343392
Cl      13.54052395      48.26012901      30.79050395
Cl      14.39729268      46.80037243      26.48133572
Cl      25.46476547      40.68496756      26.74175333
Na      21.47386894      43.64248941       0.02370373
Na      23.07797757      49.22655551      45.45757089
Na      15.09882842      46.86810560      46.92587702
Na      17.10580178      43.50491521      40.89604095
Na      18.91513601      41.03671123      45.15755217
Na      26.26384425      47.16968402      37.63051777
Na      25.44486800      42.98477353      46.93038348
Na      22.69765423      45.02014848      48.05201933
Na      14.31110665      53.04169105      39.62382637
Na      16.43357618      49.16150259      46.11917239
Na      21.65360943      50.28975277      41.18870640
Na      19.53737261      47.81414401      42.41389390
Na      19.49073621      46.16322636      51.15554016
Na      16.87116608      52.21326577      47.28467353
Na      15.95471948      43.54343817      46.63358711
Na      23.74513340      45.09995641      39.33961660
Na      25.41815633      40.05166741      50.72645742
Na      14.20647684      43.77170486      41.79752659
Na      24.26155907      40.91074843      41.45232214
Na      19.88796786      48.49302935      47.01858651
Na      25.44950166      47.00829646      51.15190592
Na      18.59884800      45.14264057      43.43354084
Na      19.05214690      51.93242978      49.94533785
Na      17.15065740      47.82528296      37.92111169
Na      15.41233624      40.34938718      52.82414143
Na      15.48648385      40.54168396      43.50187668
Na      20.04917371      48.78457727      37.15256659
Na      18.47751886      50.83007357      43.35965671
Na      20.30653250      41.45563021      41.15133428
Na      22.81004314      47.34418211      51.24700190
Na      18.97610949      52.21571888      37.35861595
Na      22.78614801      40.96688837      38.28956318
Na      25.63830049      46.45842668      45.92779325
Na      22.75607466      50.64745296      49.94558013
Na      26.45200709      50.96753875      44.52470964
Na      23.05362816      50.13575180      36.72270855
Na      18.69530076      41.53314857      50.77673109
Na      15.80750546      46.57224203      41.77355272
Na      16.71099599      42.53064784      36.68544546
Na      22.78015151      44.64822932      42.78721527
Na      20.12991747      44.52329319      39.62070092
Na      21.68544538      41.98474847      49.80917495
Na      25.53063609      50.99097960      38.56028992
Na      15.43692188      45.73166021      51.24312538
Na      16.12703703      48.99069325      50.56364342
Na      25.96501877      48.55331233      41.21755016
Na      15.91914026      50.79173233      37.17090740
Na      25.99472869      50.78310101      50.01220789
Na      26.41630067      43.63280416      36.76893609
Na      23.08270209      52.84417004      46.83239222
Cl      20.87111187      41.55639863      52.65454351
Cl      23.68598612      44.05197754      45.64684217
Cl      15.31265809      41.71788614      40.31074641
Cl      18.05418427      47.32757363      44.73652533
Cl      19.75301940      43.20976940      42.99990318
Cl      22.42853867      43.36673228      39.97032704
Cl      24.29771977      45.98709286      49.38566471
Cl      22.04844247      53.02252043      42.16990306
Cl      22.10188399      48.05252298      47.70264761
Cl      16.82637406      43.74057758      51.34258244
Cl      15.74265242      50.80745042      44.20243724
Cl      16.32652961      43.73803361      43.64512636
Cl      21.06361763      51.27681267      37.35931857
Cl      14.90895749      48.84129869      39.77184901
Cl      23.88105402      41.39017752      48.41205149
Cl      14.77695277      47.92826827      52.85866673
Cl      21.03772366      48.66050427      52.01043483
Cl      25.01348357      48.99996057       0.06331696
Cl      25.93022091      51.88572978      41.21184440
Cl      21.06257278      52.17601480      48.53246602
Cl      14.62026246      51.98167375      48.97790285
Cl      20.96353971      49.84583021      44.49723477
Cl      17.03430717      40.07143314      37.55891110
Cl      18.60756109      52.95982977      41.81899285
Cl      21.06441716      44.86544791      50.09434174
Cl      13.84863401      44.51778732      47.28323195
Cl      13.38000315      41.66223682      51.81164184
Cl      21.21101336      46.06998990      42.71242259
Cl      24.89491645      41.94788818      38.82625580
Cl      23.42550189      52.16311324      52.81287529
Cl      15.29760325      44.49057594      37.87063208
Cl      18.04380851      46.10096272      40.67309237
Cl      18.69129401      42.99771143      38.59949126
Cl      16.13928442      41.21109120      46.34042499
Cl      20.28983316      46.21017167      36.87363858
Cl      24.99894661      48.89106053      43.77821227
Cl      14.07389609      51.66285994      36.16574170
Cl      17.72496745      49.65439655      35.70442203
Cl      25.58796625      45.74583376      40.92091128
Cl      17.25185284      46.83971310      48.85155239
Cl      19.25966207      49.58271114      39.88852027
Cl      24.43191413      50.87068622      47.77036564
Cl      18.26984923      50.38415218      47.91294904
Cl      24.48406549      45.39288534      36.36047888
Cl      17.04494641      53.09765836      50.88878686
Cl      23.72141998      49.78786406      39.97215627
Cl      19.54822082      41.85206232      48.16867848
Cl      13.54052395      48.26012901      48.51574851
Cl      14.39729268      46.80037243      44.20658028
Cl      25.46476547      40.68496756      44.46699789
Na      34.76780236       3.76068916      17.74894829
Na      36.37191099       9.34475525      10.00708178
Na      28.39276184       6.98630535      11.47538790
Na      30.39973520       3.62311496       5.44555184
Na      32.20906943       1.15491097       9.70706305
Na      39.55777767       7.28788377       2.18002865
Na      38.73880142       3.10297327      11.47989436
Na      35.99158765       5.13834822      12.60153022
Na      27.60504007      13.15989079       4.17333725
Na      29.72750960       9.27970233      10.66868327
Na      34.94754284      10.40795251       5.73821728
Na      32.83130603       7.93234376       6.96340478
Na      32.78466963       6.28142610      15.70505105
Na      30.16509950      12.33146551      11.83418442
Na      29.24865290       3.66163791      11.18309800
Na      37.03906682       5.21815616       3.88912748
Na      38.71208975       0.16986716      15.27596831
Na      27.50041026       3.88990460       6.34703748
Na      37.55549249       1.02894817       6.00183302
Na      33.18190128       8.61122910      11.56809739
Na      38.74343508       7.12649620      15.70141681
Na      31.89278142       5.26084032       7.98305172
Na      32.34608032      12.05062953      14.49484873
Na      30.44459082       7.94348271       2.47062257
Na      28.70626966       0.46758692      17.37365232
Na      28.78041726       0.65988371       8.05138757
Na      33.34310713       8.90277701       1.70207748
Na      31.77145227      10.94827332       7.90916760
Na      33.60046592       1.57382995       5.70084517
Na      36.10397656       7.46238186      15.79651278
Na      32.27004291      12.33391863       1.90812684
Na      36.08008143       1.08508811       2.83907406
Na      38.93223391       6.57662643      10.47730413
Na      36.05000808      10.76565270      14.49509102
Na      39.74594051      11.08573849       9.07422052
Na      36.34756158      10.25395154       1.27221943
Na      31.98923418       1.65134832      15.32624197
Na      29.10143887       6.69044177       6.32306360
Na      30.00492940       2.64884758       1.23495634
Na      36.07408493       4.76642906       7.33672615
Na      33.42385088       4.64149294       4.17021181
Na      34.97937880       2.10294821      14.35868583
Na      38.82456951      11.10917935       3.10980080
Na      28.73085530       5.84985996      15.79263626
Na      29.42097044       9.10889300      15.11315430
Na      39.25895219       8.67151207       5.76706104
Na      29.21307368      10.90993207       1.72041828
Na      39.28866211      10.90130075      14.56171877
Na      39.71023409       3.75100390       1.31844698
Na      36.37663551      12.96236978      11.38190310
Cl      34.16504529       1.67459837      17.20405440
Cl      36.97991954       4.17017728      10.19635306
Cl      28.60659151       1.83608588       4.86025730
Cl      31.34811769       7.44577338       9.28603621
Cl      33.04695282       3.32796914       7.54941406
Cl      35.72247209       3.48493202       4.51983792
Cl      37.59165319       6.10529260      13.93517559
Cl      35.34237589      13.14072017       6.71941394
Cl      35.39581741       8.17072272      12.25215850
Cl      30.12030748       3.85877733      15.89209333
Cl      29.03658584      10.92565017       8.75194813
Cl      29.62046303       3.85623336       8.19463724
Cl      34.35755104      11.39501242       1.90882946
Cl      28.20289091       8.95949843       4.32135990
Cl      37.17498744       1.50837727      12.96156238
Cl      28.07088619       8.04646802      17.40817761
Cl      34.33165708       8.77870402      16.55994572
Cl      38.30741699       9.11816031      17.78856152
Cl      39.22415433      12.00392953       5.76135528
Cl      34.35650620      12.29421454      13.08197690
Cl      27.91419588      12.09987349      13.52741373
Cl      34.25747313       9.96402995       9.04674566
Cl      30.32824059       0.18963289       2.10842198
Cl      31.90149451      13.07802951       6.36850373
Cl      34.35835058       4.98364766      14.64385262
Cl      27.14256743       4.63598706      11.83274284
Cl      26.67393657       1.78043656      16.36115272
Cl      34.50494678       6.18818964       7.26193347
Cl      38.18884987       2.06608792       3.37576668
Cl      36.71943531      12.28131299      17.36238617
Cl      28.59153666       4.60877568       2.42014296
Cl      31.33774193       6.21916246       5.22260326
Cl      31.98522743       3.11591117       3.14900215
Cl      29.43321784       1.32929095      10.88993587
Cl      33.58376658       6.32837141       1.42314947
Cl      38.29288003       9.00926028       8.32772315
Cl      27.36782951      11.78105969       0.71525258
Cl      31.01890087       9.77259630       0.25393291
Cl      38.88189967       5.86403350       5.47042216
Cl      30.54578626       6.95791284      13.40106328
Cl      32.55359549       9.70091089       4.43803115
Cl      37.72584755      10.98888596      12.31987652
Cl      31.56378265      10.50235193      12.46245992
Cl      37.77799891       5.51108508       0.90998976
Cl      30.33887983      13.21585811      15.43829774
Cl      37.01535339       9.90606380       4.52166716
Cl      32.84215424       1.97026207      12.71818936
Cl      26.83445737       8.37832875      13.06525939
Cl      27.69122610       6.91857218       8.75609116
Cl      38.75869889       0.80316730       9.01650877
Na      34.76780236       3.76068916      35.47419285
Na      36.37191099       9.34475525      27.73232633
Na      28.39276184       6.98630535      29.20063246
Na      30.39973520       3.62311496      23.17079640
Na      32.20906943       1.15491097      27.43230761
Na      39.55777767       7.28788377      19.90527321
Na      38.73880142       3.10297327      29.20513892
Na      35.99158765       5.13834822      30.32677477
Na      27.60504007      13.15989079      21.89858181
Na      29.72750960       9.27970233      28.39392783
Na      34.94754284      10.40795251      23.46346184
Na      32.83130603       7.93234376      24.68864934
Na      32.78466963       6.28142610      33.43029561
Na      30.16509950      12.33146551      29.55942898
Na      29.24865290       3.66163791      28.90834255
Na      37.03906682       5.21815616      21.61437204
Na      38.71208975       0.16986716      33.00121286
Na      27.50041026       3.88990460      24.07228204
Na      37.55549249       1.02894817      23.72707758
Na      33.18190128       8.61122910      29.29334195
Na      38.74343508       7.12649620      33.42666136
Na      31.89278142       5.26084032      25.70829628
Na      32.34608032      12.05062953      32.22009329
Na      30.44459082       7.94348271      20.19586713
Na      28.70626966       0.46758692      35.09889688
Na      28.78041726       0.65988371      25.77663213
Na      33.34310713       8.90277701      19.42732203
Na      31.77145227      10.94827332      25.63441215
Na      33.60046592       1.57382995      23.42608973
Na      36.10397656       7.46238186      33.52175734
Na      32.27004291      12.33391863      19.63337140
Na      36.08008143       1.08508811      20.56431862
Na      38.93223391       6.57662643      28.20254869
Na      36.05000808      10.76565270      32.22033557
Na      39.74594051      11.08573849      26.79946508
Na      36.34756158      10.25395154      18.99746399
Na      31.98923418       1.65134832      33.05148653
Na      29.10143887       6.69044177      24.04830816
Na      30.00492940       2.64884758      18.96020090
Na      36.07408493       4.76642906      25.06197071
Na      33.42385088       4.64149294      21.89545637
Na      34.97937880       2.10294821      32.08393039
Na      38.82456951      11.10917935      20.83504536
Na      28.73085530       5.84985996      33.51788082
Na      29.42097044       9.10889300      32.83839886
Na      39.25895219       8.67151207      23.49230560
Na      29.21307368      10.90993207      19.44566284
Na      39.28866211      10.90130075      32.28696333
Na      39.71023409       3.75100390      19.04369154
Na      36.37663551      12.96236978      29.10714766
Cl      34.16504529       1.67459837      34.92929895
Cl      36.97991954       4.17017728      27.92159762
Cl      28.60659151       1.83608588      22.58550185
Cl      31.34811769       7.44577338      27.01128077
Cl      33.04695282       3.32796914      25.27465862
Cl      35.72247209       3.48493202      22.24508248
Cl      37.59165319       6.10529260      31.66042015
Cl      35.34237589      13.14072017      24.44465850
Cl      35.39581741       8.17072272      29.97740306
Cl      30.12030748       3.85877733      33.61733789
Cl      29.03658584      10.92565017      26.47719268
Cl      29.62046303       3.85623336      25.91988180
Cl      34.35755104      11.39501242      19.63407402
Cl      28.20289091       8.95949843      22.04660446
Cl      37.17498744       1.50837727      30.68680693
Cl      28.07088619       8.04646802      35.13342217
Cl      34.33165708       8.77870402      34.28519027
Cl      38.30741699       9.11816031      35.51380608
Cl      39.22415433      12.00392953      23.48659984
Cl      34.35650620      12.29421454      30.80722146
Cl      27.91419588      12.09987349      31.25265829
Cl      34.25747313       9.96402995      26.77199022
Cl      30.32824059       0.18963289      19.83366654
Cl      31.90149451      13.07802951      24.09374829
Cl      34.35835058       4.98364766      32.36909718
Cl      27.14256743       4.63598706      29.55798739
Cl      26.67393657       1.78043656      34.08639728
Cl      34.50494678       6.18818964      24.98717803
Cl      38.18884987       2.06608792      21.10101124
Cl      36.71943531      12.28131299      35.08763073
Cl      28.59153666       4.60877568      20.14538752
Cl      31.33774193       6.21916246      22.94784781
Cl      31.98522743       3.11591117      20.87424671
Cl      29.43321784       1.32929095      28.61518043
Cl      33.58376658       6.32837141      19.14839402
Cl      38.29288003       9.00926028      26.05296771
Cl      27.36782951      11.78105969      18.44049714
Cl      31.01890087       9.77259630      17.97917747
Cl      38.88189967       5.86403350      23.19566672
Cl      30.54578626       6.95791284      31.12630784
Cl      32.55359549       9.70091089      22.16327571
Cl      37.72584755      10.98888596      30.04512108
Cl      31.56378265      10.50235193      30.18770448
Cl      37.77799891       5.51108508      18.63523432
Cl      30.33887983      13.21585811      33.16354230
Cl      37.01535339       9.90606380      22.24691172
Cl      32.84215424       1.97026207      30.44343392
Cl      26.83445737       8.37832875      30.79050395
Cl      27.69122610       6.91857218      26.48133572
Cl      38.75869889       0.80316730      26.74175333
Na      34.76780236       3.76068916       0.02370373
Na      36.37191099       9.34475525      45.45757089
Na      28.39276184       6.98630535      46.92587702
Na      30.39973520       3.62311496      40.89604095
Na      32.20906943       1.15491097      45.15755217
Na      39.55777767       7.28788377      37.63051777
Na      38.73880142       3.10297327      46.93038348
Na      35.99158765       5.13834822      48.05201933
Na      27.60504007      13.15989079      39.62382637
Na      29.72750960       9.27970233      46.11917239
Na      34.94754284      10.40795251      41.18870640
Na      32.83130603       7.93234376      42.41389390
Na      32.78466963       6.28142610      51.15554016
Na      30.16509950      12.33146551      47.28467353
Na      29.24865290       3.66163791      46.63358711
Na      37.03906682       5.21815616      39.33961660
Na      38.71208975       0.16986716      50.72645742
Na      27.50041026       3.88990460      41.79752659
Na      37.55549249       1.02894817      41.45232214
Na      33.18190128       8.61122910      47.01858651
Na      38.74343508       7.12649620      51.15190592
Na      31.89278142       5.26084032      43.43354084
Na      32.34608032      12.05062953      49.94533785
Na      30.44459082       7.94348271      37.92111169
Na      28.70626966       0.46758692      52.82414143
Na      28.78041726       0.65988371      43.50187668
Na      33.34310713       8.90277701      37.15256659
Na      31.77145227      10.94827332      43.35965671
Na      33.60046592       1.57382995      41.15133428
Na      36.10397656       7.46238186      51.24700190
Na      32.27004291      12.33391863      37.35861595
Na      36.08008143       1.08508811      38.28956318
Na      38.93223391       6.57662643      45.92779325
Na      36.05000808      10.76565270      49.94558013
Na      39.74594051      11.08573849      44.52470964
Na      36.34756158      10.25395154      36.72270855
Na      31.98923418       1.65134832      50.77673109
Na      29.10143887       6.69044177      41.77355272
Na      30.00492940       2.64884758      36.68544546
Na      36.07408493       4.76642906      42.78721527
Na      33.42385088       4.64149294      39.62070092
Na      34.97937880       2.10294821      49.80917495
Na      38.82456951      11.10917935      38.56028992
Na      28.73085530       5.84985996      51.24312538
Na      29.42097044       9.10889300      50.56364342
Na      39.25895219       8.67151207      41.21755016
Na      29.21307368      10.90993207      37.17090740
Na      39.28866211      10.90130075      50.01220789
Na      39.71023409       3.75100390      36.76893609
Na      36.37663551      12.96236978      46.83239222
Cl      34.16504529       1.67459837      52.65454351
Cl      36.97991954       4.17017728      45.64684217
Cl      28.60659151       1.83608588      40.31074641
Cl      31.34811769       7.44577338      44.73652533
Cl      33.04695282       3.32796914      42.99990318
Cl      35.72247209       3.48493202      39.97032704
Cl      37.59165319       6.10529260      49.38566471
Cl      35.34237589      13.14072017      42.16990306
Cl      35.39581741       8.17072272      47.70264761
Cl      30.12030748       3.85877733      51.34258244
Cl      29.03658584      10.92565017      44.20243724
Cl      29.62046303       3.85623336      43.64512636
Cl      34.35755104      11.39501242      37.35931857
Cl      28.20289091       8.95949843      39.77184901
Cl      37.17498744       1.50837727      48.41205149
Cl      28.07088619       8.04646802      52.85866673
Cl      34.33165708       8.77870402      52.01043483
Cl      38.30741699       9.11816031       0.06331696
Cl      39.22415433      12.00392953      41.21184440
Cl      34.35650620      12.29421454      48.53246602
Cl      27.91419588      12.09987349      48.97790285
Cl      34.25747313       9.96402995      44.49723477
Cl      30.32824059       0.18963289      37.55891110
Cl      31.90149451      13.07802951      41.81899285
Cl      34.35835058       4.98364766      50.09434174
Cl      27.14256743       4.63598706      47.28323195
Cl      26.67393657       1.78043656      51.81164184
Cl      34.50494678       6.18818964      42.71242259
Cl      38.18884987       2.06608792      38.82625580
Cl      36.71943531      12.28131299      52.81287529
Cl      28.59153666       4.60877568      37.87063208
Cl      31.33774193       6.21916246      40.67309237
Cl      31.98522743       3.11591117      38.59949126
Cl      29.43321784       1.32929095      46.34042499
Cl      33.58376658       6.32837141      36.87363858
Cl      38.29288003       9.00926028      43.77821227
Cl      27.36782951      11.78105969      36.16574170
Cl      31.01890087       9.77259630      35.70442203
Cl      38.88189967       5.86403350      40.92091128
Cl      30.54578626       6.95791284      48.85155239
Cl      32.55359549       9.70091089      39.88852027
Cl      37.72584755      10.98888596      47.77036564
Cl      31.56378265      10.50235193      47.91294904
Cl      37.77799891       5.51108508      36.36047888
Cl      30.33887983      13.21585811      50.88878686
Cl      37.01535339       9.90606380      39.97215627
Cl      32.84215424       1.97026207      48.16867848
Cl      26.83445737       8.37832875      48.51574851
Cl      27.69122610       6.91857218      44.20658028
Cl      38.75869889       0.80316730      44.46699789
Na      34.76780236      17.05462257      17.74894829
Na      36.37191099      22.63868867      10.00708178
Na      28.39276184      20.28023877      11.47538790
Na      30.39973520      16.91704837       5.44555184
Na      32.20906943      14.44884439       9.70706305
Na      39.55777767      20.58181719       2.18002865
Na      38.73880142      16.39690669      11.47989436
Na      35.99158765      18.43228164      12.60153022
Na      27.60504007      26.45382421       4.17333725
Na      29.72750960      22.57363575      10.66868327
Na      34.94754284      23.70188593       5.73821728
Na      32.83130603      21.22627718       6.96340478
Na      32.78466963      19.57535952      15.70505105
Na      30.16509950      25.62539893      11.83418442
Na      29.24865290      16.95557133      11.18309800
Na      37.03906682      18.51208957       3.88912748
Na      38.71208975      13.46380058      15.27596831
Na      27.50041026      17.18383802       6.34703748
Na      37.55549249      14.32288159       6.00183302
Na      33.18190128      21.90516252      11.56809739
Na      38.74343508      20.42042962      15.70141681
Na      31.89278142      18.55477374       7.98305172
Na      32.34608032      25.34456295      14.49484873
Na      30.44459082      21.23741613       2.47062257
Na      28.70626966      13.76152034      17.37365232
Na      28.78041726      13.95381713       8.05138757
Na      33.34310713      22.19671043       1.70207748
Na      31.77145227      24.24220674       7.90916760
Na      33.60046592      14.86776337       5.70084517
Na      36.10397656      20.75631528      15.79651278
Na      32.27004291      25.62785205       1.90812684
Na      36.08008143      14.37902153       2.83907406
Na      38.93223391      19.87055984      10.47730413
Na      36.05000808      24.05958612      14.49509102
Na      39.74594051      24.37967191       9.07422052
Na      36.34756158      23.54788496       1.27221943
Na      31.98923418      14.94528173      15.32624197
Na      29.10143887      19.98437519       6.32306360
Na      30.00492940      15.94278100       1.23495634
Na      36.07408493      18.06036248       7.33672615
Na      33.42385088      17.93542635       4.17021181
Na      34.97937880      15.39688163      14.35868583
Na      38.82456951      24.40311277       3.10980080
Na      28.73085530      19.14379338      15.79263626
Na      29.42097044      22.40282642      15.11315430
Na      39.25895219      21.96544549       5.76706104
Na      29.21307368      24.20386549       1.72041828
Na      39.28866211      24.19523417      14.56171877
Na      39.71023409      17.04493732       1.31844698
Na      36.37663551      26.25630320      11.38190310
Cl      34.16504529      14.96853179      17.20405440
Cl      36.97991954      17.46411070      10.19635306
Cl      28.60659151      15.13001930       4.86025730
Cl      31.34811769      20.73970679       9.28603621
Cl      33.04695282      16.62190256       7.54941406
Cl      35.72247209      16.77886544       4.51983792
Cl      37.59165319      19.39922602      13.93517559
Cl      35.34237589      26.43465359       6.71941394
Cl      35.39581741      21.46465614      12.25215850
Cl      30.12030748      17.15271074      15.89209333
Cl      29.03658584      24.21958359       8.75194813
Cl      29.62046303      17.15016678       8.19463724
Cl      34.35755104      24.68894584       1.90882946
Cl      28.20289091      22.25343185       4.32135990
Cl      37.17498744      14.80231069      12.96156238
Cl      28.07088619      21.34040143      17.40817761
Cl      34.33165708      22.07263743      16.55994572
Cl      38.30741699      22.41209373      17.78856152
Cl      39.22415433      25.29786295       5.76135528
Cl      34.35650620      25.58814796      13.08197690
Cl      27.91419588      25.39380691      13.52741373
Cl      34.25747313      23.25796337       9.04674566
Cl      30.32824059      13.48356631       2.10842198
Cl      31.90149451      26.37196293       6.36850373
Cl      34.35835058      18.27758108      14.64385262
Cl      27.14256743      17.92992048      11.83274284
Cl      26.67393657      15.07436998      16.36115272
Cl      34.50494678      19.48212306       7.26193347
Cl      38.18884987      15.36002134       3.37576668
Cl      36.71943531      25.57524640      17.36238617
Cl      28.59153666      17.90270910       2.42014296
Cl      31.33774193      19.51309588       5.22260326
Cl      31.98522743      16.40984459       3.14900215
Cl      29.43321784      14.62322437      10.88993587
Cl      33.58376658      19.62230483       1.42314947
Cl      38.29288003      22.30319370       8.32772315
Cl      27.36782951      25.07499311       0.71525258
Cl      31.01890087      23.06652971       0.25393291
Cl      38.88189967      19.15796692       5.47042216
Cl      30.54578626      20.25184626      13.40106328
Cl      32.55359549      22.99484431       4.43803115
Cl      37.72584755      24.28281938      12.31987652
Cl      31.56378265      23.79628534      12.46245992
Cl      37.77799891      18.80501850       0.90998976
Cl      30.33887983      26.50979153      15.43829774
Cl      37.01535339      23.19999722       4.52166716
Cl      32.84215424      15.26419548      12.71818936
Cl      26.83445737      21.67226217      13.06525939
Cl      27.69122610      20.21250560       8.75609116
Cl      38.75869889      14.09710072       9.01650877
Na      34.76780236      17.05462257      35.47419285
Na      36.37191099      22.63868867      27.73232633
Na      28.39276184      20.28023877      29.20063246
Na      30.39973520      16.91704837      23.17079640
Na      32.20906943      14.44884439      27.43230761
Na      39.55777767      20.58181719      19.90527321
Na      38.73880142      16.39690669      29.20513892
Na      35.99158765      18.43228164      30.32677477
Na      27.60504007      26.45382421      21.89858181
Na      29.72750960      22.57363575      28.39392783
Na      34.94754284      23.70188593      23.46346184
Na      32.83130603      21.22627718      24.68864934
Na      32.78466963      19.57535952      33.43029561
Na      30.16509950      25.62539893      29.55942898
Na      29.24865290      16.95557133      28.90834255
Na      37.03906682      18.51208957      21.61437204
Na      38.71208975      13.46380058      33.00121286
Na      27.50041026      17.18383802      24.07228204
Na      37.55549249      14.32288159      23.72707758
Na      33.18190128      21.90516252      29.29334195
Na      38.74343508      20.42042962      33.42666136
Na      31.89278142      18.55477374      25.70829628
Na      32.34608032      25.34456295      32.22009329
Na      30.44459082      21.23741613      20.19586713
Na      28.70626966      13.76152034      35.09889688
Na      28.78041726      13.95381713      25.77663213
Na      33.34310713      22.19671043      19.42732203
Na      31.77145227      24.24220674      25.63441215
Na      33.60046592      14.86776337      23.42608973
Na      36.10397656      20.75631528      33.52175734
Na      32.27004291      25.62785205      19.63337140
Na      36.08008143      14.37902153      20.56431862
Na      38.93223391      19.87055984      28.20254869
Na      36.05000808      24.05958612      32.22033557
Na      39.74594051      24.37967191      26.79946508
Na      36.34756158      23.54788496      18.99746399
Na      31.98923418      14.94528173      33.05148653
Na      29.10143887      19.98437519      24.04830816
Na      30.00492940      15.94278100      18.96020090
Na      36.07408493      18.06036248      25.06197071
Na      33.42385088      17.93542635      21.89545637
Na      34.97937880      15.39688163      32.08393039
Na      38.82456951      24.40311277      20.83504536
Na      28.73085530      19.14379338      33.51788082
Na      29.42097044      22.40282642      32.83839886
Na      39.25895219      21.96544549      23.49230560
Na      29.21307368      24.20386549      19.44566284
Na      39.28866211      24.19523417      32.28696333
Na      39.71023409      17.04493732      19.04369154
Na      36.37663551      26.25630320      29.10714766
Cl      34.16504529      14.96853179      34.92929895
Cl      36.97991954      17.46411070      27.92159762
Cl      28.60659151      15.13001930      22.58550185
Cl      31.34811769      20.73970679      27.01128077
Cl      33.04695282      16.62190256      25.27465862
Cl      35.72247209      16.77886544      22.24508248
Cl      37.59165319      19.39922602      31.66042015
Cl      35.34237589      26.43465359      24.44465850
Cl      35.39581741      21.46465614      29.97740306
Cl      30.12030748      17.15271074      33.61733789
Cl      29.03658584      24.21958359      26.47719268
Cl      29.62046303      17.15016678      25.91988180
Cl      34.35755104      24.68894584      19.63407402
Cl      28.20289091      22.25343185      22.04660446
Cl      37.17498744      14.80231069      30.68680693
Cl      28.07088619      21.34040143      35.13342217
Cl      34.33165708      22.07263743      34.28519027
Cl      38.30741699      22.41209373      35.51380608
Cl      39.22415433      25.29786295      23.48659984
Cl      34.35650620      25.58814796      30.80722146
Cl      27.91419588      25.39380691      31.25265829
Cl      34.25747313      23.25796337      26.77199022
Cl      30.32824059      13.48356631      19.83366654
Cl      31.90149451      26.37196293      24.09374829
Cl      34.35835058      18.27758108      32.36909718
Cl      27.14256743      17.92992048      29.55798739
Cl      26.67393657      15.07436998      34.08639728
Cl      34.50494678      19.48212306      24.98717803
Cl      38.18884987      15.36002134      21.10101124
Cl      36.71943531      25.57524640      35.08763073
Cl      28.59153666      17.90270910      20.14538752
Cl      31.33774193      19.51309588      22.94784781
Cl      31.98522743      16.40984459      20.87424671
Cl      29.43321784      14.62322437      28.61518043
Cl      33.58376658      19.62230483      19.14839402
Cl      38.29288003      22.30319370      26.05296771
Cl      27.36782951      25.07499311      18.44049714
Cl      31.01890087      23.06652971      17.97917747
Cl      38.88189967      19.15796692      23.19566672
Cl      30.54578626      20.25184626      31.12630784
Cl      32.55359549      22.99484431      22.16327571
Cl      37.72584755      24.28281938      30.04512108
Cl      31.56378265      23.79628534      30.18770448
Cl      37.77799891      18.80501850      18.63523432
Cl      30.33887983      26.50979153      33.16354230
Cl      37.01535339      23.19999722      22.24691172
Cl      32.84215424      15.26419548      30.44343392
Cl      26.83445737      21.67226217      30.79050395
Cl      27.69122610      20.21250560      26.48133572
Cl      38.75869889      14.09710072      26.74175333
Na      34.76780236      17.05462257       0.02370373
Na      36.37191099      22.63868867      45.45757089
Na      28.39276184      20.28023877      46.92587702
Na      30.39973520      16.91704837      40.89604095
Na      32.20906943      14.44884439      45.15755217
Na      39.55777767      20.58181719      37.63051777
Na      38.73880142      16.39690669      46.93038348
Na      35.99158765      18.43228164      48.05201933
Na      27.60504007      26.45382421      39.62382637
Na      29.72750960      22.57363575      46.11917239
Na      34.94754284      23.70188593      41.18870640
Na      32.83130603      21.22627718      42.41389390
Na      32.78466963      19.57535952      51.15554016
Na      30.16509950      25.62539893      47.28467353
Na      29.24865290      16.95557133      46.63358711
Na      37.03906682      18.51208957      39.33961660
Na      38.71208975      13.46380058      50.72645742
Na      27.50041026      17.18383802      41.79752659
Na      37.55549249      14.32288159      41.45232214
Na      33.18190128      21.90516252      47.01858651
Na      38.74343508      20.42042962      51.15190592
Na      31.89278142      18.55477374      43.43354084
Na      32.34608032      25.34456295      49.94533785
Na      30.44459082      21.23741613      37.92111169
Na      28.70626966      13.76152034      52.82414143
Na      28.78041726      13.95381713      43.50187668
Na      33.34310713      22.19671043      37.15256659
Na      31.77145227      24.24220674      43.35965671
Na      33.60046592      14.86776337      41.15133428
Na      36.10397656      20.75631528      51.24700190
Na      32.27004291      25.62785205      37.35861595
Na      36.08008143      14.37902153      38.28956318
Na      38.93223391      19.87055984      45.92779325
Na      36.05000808      24.05958612      49.94558013
Na      39.74594051      24.37967191      44.52470964
Na      36.34756158      23.54788496      36.72270855
Na      31.98923418      14.94528173      50.77673109
Na      29.10143887      19.98437519      41.77355272
Na      30.00492940      15.94278100      36.68544546
Na      36.07408493      18.06036248      42.78721527
Na      33.42385088      17.93542635      39.62070092
Na      34.97937880      15.39688163      49.80917495
Na      38.82456951      24.40311277      38.56028992
Na      28.73085530      19.14379338      51.24312538
Na      29.42097044      22.40282642      50.56364342
Na      39.25895219      21.96544549      41.21755016
Na      29.21307368      24.20386549      37.17090740
Na      39.28866211      24.19523417      50.01220789
Na      39.71023409      17.04493732      36.76893609
Na      36.37663551      26.25630320      46.83239222
Cl      34.16504529      14.96853179      52.65454351
Cl      36.97991954      17.46411070      45.64684217
Cl      28.60659151      15.13001930      40.31074641
Cl      31.34811769      20.73970679      44.73652533
Cl      33.04695282      16.62190256      42.99990318
Cl      35.72247209      16.77886544      39.97032704
Cl      37.59165319      19.39922602      49.38566471
Cl      35.34237589      26.43465359      42.16990306
Cl      35.39581741      21.46465614      47.70264761
Cl      30.12030748      17.15271074      51.34258244
Cl      29.03658584      24.21958359      44.20243724
Cl      29.62046303      17.15016678      43.64512636
Cl      34.35755104      24.68894584      37.35931857
Cl      28.20289091      22.25343185      39.77184901
Cl      37.17498744      14.80231069      48.41205149
Cl      28.07088619      21.34040143      52.85866673
Cl      34.33165708      22.07263743      52.01043483
Cl      38.30741699      22.41209373       0.06331696
Cl      39.22415433      25.29786295      41.21184440
Cl      34.35650620      25.58814796      48.53246602
Cl      27.91419588      25.39380691      48.97790285
Cl      34.25747313      23.25796337      44.49723477
Cl      30.32824059      13.48356631      37.55891110
Cl      31.90149451      26.37196293      41.81899285
Cl      34.35835058      18.27758108      50.09434174
Cl      27.14256743      17.92992048      47.28323195
Cl      26.67393657      15.07436998      51.81164184
Cl      34.50494678      19.48212306      42.71242259
Cl      38.18884987      15.36002134      38.82625580
Cl      36.71943531      25.57524640      52.81287529
Cl      28.59153666      17.90270910      37.87063208
Cl      31.33774193      19.51309588      40.67309237
Cl      31.98522743      16.40984459      38.59949126
Cl      29.43321784      14.62322437      46.34042499
Cl      33.58376658      19.62230483      36.87363858
Cl      38.29288003      22.30319370      43.77821227
Cl      27.36782951      25.07499311      36.16574170
Cl      31.01890087      23.06652971      35.70442203
Cl      38.88189967      19.15796692      40.92091128
Cl      30.54578626      20.25184626      48.85155239
Cl      32.55359549      22.99484431      39.88852027
Cl      37.72584755      24.28281938      47.77036564
Cl      31.56378265      23.79628534      47.91294904
Cl      37.77799891      18.80501850      36.36047888
Cl      30.33887983      26.50979153      50.88878686
Cl      37.01535339      23.19999722      39.97215627
Cl      32.84215424      15.26419548      48.16867848
Cl      26.83445737      21.67226217      48.51574851
Cl      27.69122610      20.21250560      44.20658028
Cl      38.75869889      14.09710072      44.46699789
Na      34.76780236      30.34855599      17.74894829
Na      36.37191099      35.93262209      10.00708178
Na      28.39276184      33.57417219      11.47538790
Na      30.39973520      30.21098179       5.44555184
Na      32.20906943      27.74277781       9.70706305
Na      39.55777767      33.87575061       2.18002865
Na      38.73880142      29.69084011      11.47989436
Na      35.99158765      31.72621506      12.60153022
Na      27.60504007      39.74775763       4.17333725
Na      29.72750960      35.86756917      10.66868327
Na      34.94754284      36.99581935       5.73821728
Na      32.83130603      34.52021059       6.96340478
Na      32.78466963      32.86929294      15.70505105
Na      30.16509950      38.91933235      11.83418442
Na      29.24865290      30.24950475      11.18309800
Na      37.03906682      31.80602299       3.88912748
Na      38.71208975      26.75773400      15.27596831
Na      27.50041026      30.47777144       6.34703748
Na      37.55549249      27.61681501       6.00183302
Na      33.18190128      35.19909593      11.56809739
Na      38.74343508      33.71436304      15.70141681
Na      31.89278142      31.84870716       7.98305172
Na      32.34608032      38.63849636      14.49484873
Na      30.44459082      34.53134954       2.47062257
Na      28.70626966      27.05545376      17.37365232
Na      28.78041726      27.24775055       8.05138757
Na      33.34310713      35.49064385       1.70207748
Na      31.77145227      37.53614016       7.90916760
Na      33.60046592      28.16169679       5.70084517
Na      36.10397656      34.05024870      15.79651278
Na      32.27004291      38.92178546       1.90812684
Na      36.08008143      27.67295495       2.83907406
Na      38.93223391      33.16449326      10.47730413
Na      36.05000808      37.35351954      14.49509102
Na      39.74594051      37.67360533       9.07422052
Na      36.34756158      36.84181838       1.27221943
Na      31.98923418      28.23921515      15.32624197
Na      29.10143887      33.27830861       6.32306360
Na      30.00492940      29.23671442       1.23495634
Na      36.07408493      31.35429590       7.33672615
Na      33.42385088      31.22935977       4.17021181
Na      34.97937880      28.69081505      14.35868583
Na      38.82456951      37.69704618       3.10980080
Na      28.73085530      32.43772680      15.79263626
Na      29.42097044      35.69675984      15.11315430
Na      39.25895219      35.25937891       5.76706104
Na      29.21307368      37.49779891       1.72041828
Na      39.28866211      37.48916759      14.56171877
Na      39.71023409      30.33887074       1.31844698
Na      36.37663551      39.55023662      11.38190310
Cl      34.16504529      28.26246521      17.20405440
Cl      36.97991954      30.75804412      10.19635306
Cl      28.60659151      28.42395272       4.86025730
Cl      31.34811769      34.03364021       9.28603621
Cl      33.04695282      29.91583598       7.54941406
Cl      35.72247209      30.07279886       4.51983792
Cl      37.59165319      32.69315944      13.93517559
Cl      35.34237589      39.72858701       6.71941394
Cl      35.39581741      34.75858956      12.25215850
Cl      30.12030748      30.44664416      15.89209333
Cl      29.03658584      37.51351700       8.75194813
Cl      29.62046303      30.44410019       8.19463724
Cl      34.35755104      37.98287925       1.90882946
Cl      28.20289091      35.54736527       4.32135990
Cl      37.17498744      28.09624410      12.96156238
Cl      28.07088619      34.63433485      17.40817761
Cl      34.33165708      35.36657085      16.55994572
Cl      38.30741699      35.70602715      17.78856152
Cl      39.22415433      38.59179636       5.76135528
Cl      34.35650620      38.88208138      13.08197690
Cl      27.91419588      38.68774033      13.52741373
Cl      34.25747313      36.55189679       9.04674566
Cl      30.32824059      26.77749973       2.10842198
Cl      31.90149451      39.66589635       6.36850373
Cl      34.35835058      31.57151450      14.64385262
Cl      27.14256743      31.22385390      11.83274284
Cl      26.67393657      28.36830340      16.36115272
Cl      34.50494678      32.77605648       7.26193347
Cl      38.18884987      28.65395476       3.37576668
Cl      36.71943531      38.86917982      17.36238617
Cl      28.59153666      31.19664252       2.42014296
Cl      31.33774193      32.80702930       5.22260326
Cl      31.98522743      29.70377801       3.14900215
Cl      29.43321784      27.91715778      10.88993587
Cl      33.58376658      32.91623825       1.42314947
Cl      38.29288003      35.59712711       8.32772315
Cl      27.36782951      38.36892652       0.71525258
Cl      31.01890087      36.36046313       0.25393291
Cl      38.88189967      32.45190034       5.47042216
Cl      30.54578626      33.54577968      13.40106328
Cl      32.55359549      36.28877773       4.43803115
Cl      37.72584755      37.57675280      12.31987652
Cl      31.56378265      37.09021876      12.46245992
Cl      37.77799891      32.09895192       0.90998976
Cl      30.33887983      39.80372494      15.43829774
Cl      37.01535339      36.49393064       4.52166716
Cl      32.84215424      28.55812890      12.71818936
Cl      26.83445737      34.96619559      13.06525939
Cl      27.69122610      33.50643902       8.75609116
Cl      38.75869889      27.39103414       9.01650877
Na      34.76780236      30.34855599      35.47419285
Na      36.37191099      35.93262209      27.73232633
Na      28.39276184      33.57417219      29.20063246
Na      30.39973520      30.21098179      23.17079640
Na      32.20906943      27.74277781      27.43230761
Na      39.55777767      33.87575061      19.90527321
Na      38.73880142      29.69084011      29.20513892
Na      35.99158765      31.72621506      30.32677477
Na      27.60504007      39.74775763      21.89858181
Na      29.72750960      35.86756917      28.39392783
Na      34.94754284      36.99581935      23.46346184
Na      32.83130603      34.52021059      24.68864934
Na      32.78466963      32.86929294      33.43029561
Na      30.16509950      38.91933235      29.55942898
Na      29.24865290      30.24950475      28.90834255
Na      37.03906682      31.80602299      21.61437204
Na      38.71208975      26.75773400      33.00121286
Na      27.50041026      30.47777144      24.07228204
Na      37.55549249      27.61681501      23.72707758
Na      33.18190128      35.19909593      29.29334195
Na      38.74343508      33.71436304      33.42666136
Na      31.89278142      31.84870716      25.70829628
Na      32.34608032      38.63849636      32.22009329
Na      30.44459082      34.53134954      20.19586713
Na      28.70626966      27.05545376      35.09889688
Na      28.78041726      27.24775055      25.77663213
Na      33.34310713      35.49064385      19.42732203
Na      31.77145227      37.53614016      25.63441215
Na      33.60046592      28.16169679      23.42608973
Na      36.10397656      34.05024870      33.52175734
Na      32.27004291      38.92178546      19.63337140
Na      36.08008143      27.67295495      20.56431862
Na      38.93223391      33.16449326      28.20254869
Na      36.05000808      37.35351954      32.22033557
Na      39.74594051      37.67360533      26.79946508
Na      36.34756158      36.84181838      18.99746399
Na      31.98923418      28.23921515      33.05148653
Na      29.10143887      33.27830861      24.04830816
Na      30.00492940      29.23671442      18.96020090
Na      36.07408493      31.35429590      25.06197071
Na      33.42385088      31.22935977      21.89545637
Na      34.97937880      28.69081505      32.08393039
Na      38.82456951      37.69704618      20.83504536
Na      28.73085530      32.43772680      33.51788082
Na      29.42097044      35.69675984      32.83839886
Na      39.25895219      35.25937891      23.49230560
Na      29.21307368      37.49779891      19.44566284
Na      39.28866211      37.48916759      32.28696333
Na      39.71023409      30.33887074      19.04369154
Na      36.37663551      39.55023662      29.10714766
Cl      34.16504529      28.26246521      34.92929895
Cl      36.97991954      30.75804412      27.92159762
Cl      28.60659151      28.42395272      22.58550185
Cl      31.34811769      34.03364021      27.01128077
Cl      33.04695282      29.91583598      25.27465862
Cl      35.72247209      30.07279886      22.24508248
Cl      37.59165319      32.69315944      31.66042015
Cl      35.34237589      39.72858701      24.44465850
Cl      35.39581741      34.75858956      29.97740306
Cl      30.12030748      30.44664416      33.61733789
Cl      29.03658584      37.51351700      26.47719268
Cl      29.62046303      30.44410019      25.91988180
Cl      34.35755104      37.98287925      19.63407402
Cl      28.20289091      35.54736527      22.04660446
Cl      37.17498744      28.09624410      30.68680693
Cl      28.07088619      34.63433485      35.13342217
Cl      34.33165708      35.36657085      34.28519027
Cl      38.30741699      35.70602715      35.51380608
Cl      39.22415433      38.59179636      23.48659984
Cl      34.35650620      38.88208138      30.80722146
Cl      27.91419588      38.68774033      31.25265829
Cl      34.25747313      36.55189679      26.77199022
Cl      30.32824059      26.77749973      19.83366654
Cl      31.90149451      39.66589635      24.09374829
Cl      34.35835058      31.57151450      32.36909718
Cl      27.14256743      31.22385390      29.55798739
Cl      26.67393657      28.36830340      34.08639728
Cl      34.50494678      32.77605648      24.98717803
Cl      38.18884987      28.65395476      21.10101124
Cl      36.71943531      38.86917982      35.08763073
Cl      28.59153666      31.19664252      20.14538752
Cl      31.33774193      32.80702930      22.94784781
Cl      31.98522743      29.70377801      20.87424671
Cl      29.43321784      27.91715778      28.61518043
Cl      33.58376658      32.91623825      19.14839402
Cl      38.29288003      35.59712711      26.05296771
Cl      27.36782951      38.36892652      18.44049714
Cl      31.01890087      36.36046313      17.97917747
Cl      38.88189967      32.45190034      23.19566672
Cl      30.54578626      33.54577968      31.12630784
Cl      32.55359549      36.28877773      22.16327571
Cl      37.72584755      37.57675280      30.04512108
Cl      31.56378265      37.09021876      30.18770448
Cl      37.77799891      32.09895192      18.63523432
Cl      30.33887983      39.80372494      33.16354230
Cl      37.01535339      36.49393064      22.24691172
Cl      32.84215424      28.55812890      30.44343392
Cl      26.83445737      34.96619559      30.79050395
Cl      27.69122610      33.50643902      26.48133572
Cl      38.75869889      27.39103414      26.74175333
Na      34.76780236      30.34855599       0.02370373
Na      36.37191099      35.93262209      45.45757089
Na      28.39276184      33.57417219      46.92587702
Na      30.39973520      30.21098179      40.89604095
Na      32.20906943      27.74277781      45.15755217
Na      39.55777767      33.87575061      37.63051777
Na      38.73880142      29.69084011      46.93038348
Na      35.99158765      31.72621506      48.05201933
Na      27.60504007      39.74775763      39.62382637
Na      29.72750960      35.86756917      46.11917239
Na      34.94754284      36.99581935      41.18870640
Na      32.83130603      34.52021059      42.41389390
Na      32.78466963      32.86929294      51.15554016
Na      30.16509950      38.91933235      47.28467353
Na      29.24865290      30.24950475      46.63358711
Na      37.03906682      31.80602299      39.33961660
Na      38.71208975      26.75773400      50.72645742
Na      27.50041026      30.47777144      41.79752659
Na      37.55549249      27.61681501      41.45232214
Na      33.18190128      35.19909593      47.01858651
Na      38.74343508      33.71436304      51.15190592
Na      31.89278142      31.84870716      43.43354084
Na      32.34608032      38.63849636      49.94533785
Na      30.44459082      34.53134954      37.92111169
Na      28.70626966      27.05545376      52.82414143
Na      28.78041726      27.24775055      43.50187668
Na      33.34310713      35.49064385      37.15256659
Na      31.77145227      37.53614016      43.35965671
Na      33.60046592      28.16169679      41.15133428
Na      36.10397656      34.05024870      51.24700190
Na      32.27004291      38.92178546      37.35861595
Na      36.08008143      27.67295495      38.28956318
Na      38.93223391      33.16449326      45.92779325
Na      36.05000808      37.35351954      49.94558013
Na      39.74594051      37.67360533      44.52470964
Na      36.34756158      36.84181838      36.72270855
Na      31.98923418      28.23921515      50.77673109
Na      29.10143887      33.27830861      41.77355272
Na      30.00492940      29.23671442      36.68544546
Na      36.07408493      31.35429590      42.78721527
Na      33.42385088      31.22935977      39.62070092
Na      34.97937880      28.69081505      49.80917495
Na      38.82456951      37.69704618      38.56028992
Na      28.73085530      32.43772680      51.24312538
Na      29.42097044      35.69675984      50.56364342
Na      39.25895219      35.25937891      41.21755016
Na      29.21307368      37.49779891      37.17090740
Na      39.28866211      37.48916759      50.01220789
Na      39.71023409      30.33887074      36.76893609
Na      36.37663551      39.55023662      46.83239222
Cl      34.16504529      28.26246521      52.65454351
Cl      36.97991954      30.75804412      45.64684217
Cl      28.60659151      28.42395272      40.31074641
Cl      31.34811769      34.03364021      44.73652533
Cl      33.04695282      29.91583598      42.99990318
Cl      35.72247209      30.07279886      39.97032704
Cl      37.59165319      32.69315944      49.38566471
Cl      35.34237589      39.72858701      42.16990306
Cl      35.39581741      34.75858956      47.70264761
Cl      30.12030748      30.44664416      51.34258244
Cl      29.03658584      37.51351700      44.20243724
Cl      29.62046303      30.44410019      43.64512636
Cl      34.35755104      37.98287925      37.35931857
Cl      28.20289091      35.54736527      39.77184901
Cl      37.17498744      28.09624410      48.41205149
Cl      28.07088619      34.63433485      52.85866673
Cl      34.33165708      35.36657085      52.01043483
Cl      38.30741699      35.70602715       0.06331696
Cl      39.22415433      38.59179636      41.21184440
Cl      34.35650620      38.88208138      48.53246602
Cl      27.91419588      38.68774033      48.97790285
Cl      34.25747313      36.55189679      44.49723477
Cl      30.32824059      26.77749973      37.55891110
Cl      31.90149451      39.66589635      41.81899285
Cl      34.35835058      31.57151450      50.09434174
Cl      27.14256743      31.22385390      47.28323195
Cl      26.67393657      28.36830340      51.81164184
Cl      34.50494678      32.77605648      42.71242259
Cl      38.18884987      28.65395476      38.82625580
Cl      36.71943531      38.86917982      52.81287529
Cl      28.59153666      31.19664252      37.87063208
Cl      31.33774193      32.80702930      40.67309237
Cl      31.98522743      29.70377801      38.59949126
Cl      29.43321784      27.91715778      46.34042499
Cl      33.58376658      32.91623825      36.87363858
Cl      38.29288003      35.59712711      43.77821227
Cl      27.36782951      38.36892652      36.16574170
Cl      31.01890087      36.36046313      35.70442203
Cl      38.88189967      32.45190034      40.92091128
Cl      30.54578626      33.54577968      48.85155239
Cl      32.55359549      36.28877773      39.88852027
Cl      37.72584755      37.57675280      47.77036564
Cl      31.56378265      37.09021876      47.91294904
Cl      37.77799891      32.09895192      36.36047888
Cl      30.33887983      39.80372494      50.88878686
Cl      37.01535339      36.49393064      39.97215627
Cl      32.84215424      28.55812890      48.16867848
Cl      26.83445737      34.96619559      48.51574851
Cl      27.69122610      33.50643902      44.20658028
Cl      38.75869889      27.39103414      44.46699789
Na      34.76780236      43.64248941      17.74894829
Na      36.37191099      49.22655551      10.00708178
Na      28.39276184      46.86810560      11.47538790
Na      30.39973520      43.50491521       5.44555184
Na      32.20906943      41.03671123       9.70706305
Na      39.55777767      47.16968402       2.18002865
Na      38.73880142      42.98477353      11.47989436
Na      35.99158765      45.02014848      12.60153022
Na      27.60504007      53.04169105       4.17333725
Na      29.72750960      49.16150259      10.66868327
Na      34.94754284      50.28975277       5.73821728
Na      32.83130603      47.81414401       6.96340478
Na      32.78466963      46.16322636      15.70505105
Na      30.16509950      52.21326577      11.83418442
Na      29.24865290      43.54343817      11.18309800
Na      37.03906682      45.09995641       3.88912748
Na      38.71208975      40.05166741      15.27596831
Na      27.50041026      43.77170486       6.34703748
Na      37.55549249      40.91074843       6.00183302
Na      33.18190128      48.49302935      11.56809739
Na      38.74343508      47.00829646      15.70141681
Na      31.89278142      45.14264057       7.98305172
Na      32.34608032      51.93242978      14.49484873
Na      30.44459082      47.82528296       2.47062257
Na      28.70626966      40.34938718      17.37365232
Na      28.78041726      40.54168396       8.05138757
Na      33.34310713      48.78457727       1.70207748
Na      31.77145227      50.83007357       7.90916760
Na      33.60046592      41.45563021       5.70084517
Na      36.10397656      47.34418211      15.79651278
Na      32.27004291      52.21571888       1.90812684
Na      36.08008143      40.96688837       2.83907406
Na      38.93223391      46.45842668      10.47730413
Na      36.05000808      50.64745296      14.49509102
Na      39.74594051      50.96753875       9.07422052
Na      36.34756158      50.13575180       1.27221943
Na      31.98923418      41.53314857      15.32624197
Na      29.10143887      46.57224203       6.32306360
Na      30.00492940      42.53064784       1.23495634
Na      36.07408493      44.64822932       7.33672615
Na      33.42385088      44.52329319       4.17021181
Na      34.97937880      41.98474847      14.35868583
Na      38.82456951      50.99097960       3.10980080
Na      28.73085530      45.73166021      15.79263626
Na      29.42097044      48.99069325      15.11315430
Na      39.25895219      48.55331233       5.76706104
Na      29.21307368      50.79173233       1.72041828
Na      39.28866211      50.78310101      14.56171877
Na      39.71023409      43.63280416       1.31844698
Na      36.37663551      52.84417004      11.38190310
Cl      34.16504529      41.55639863      17.20405440
Cl      36.97991954      44.05197754      10.19635306
Cl      28.60659151      41.71788614       4.86025730
Cl      31.34811769      47.32757363       9.28603621
Cl      33.04695282      43.20976940       7.54941406
Cl      35.72247209      43.36673228       4.51983792
Cl      37.59165319      45.98709286      13.93517559
Cl      35.34237589      53.02252043       6.71941394
Cl      35.39581741      48.05252298      12.25215850
Cl      30.12030748      43.74057758      15.89209333
Cl      29.03658584      50.80745042       8.75194813
Cl      29.62046303      43.73803361       8.19463724
Cl      34.35755104      51.27681267       1.90882946
Cl      28.20289091      48.84129869       4.32135990
Cl      37.17498744      41.39017752      12.96156238
Cl      28.07088619      47.92826827      17.40817761
Cl      34.33165708      48.66050427      16.55994572
Cl      38.30741699      48.99996057      17.78856152
Cl      39.22415433      51.88572978       5.76135528
Cl      34.35650620      52.17601480      13.08197690
Cl      27.91419588      51.98167375      13.52741373
Cl      34.25747313      49.84583021       9.04674566
Cl      30.32824059      40.07143314       2.10842198
Cl      31.90149451      52.95982977       6.36850373
Cl      34.35835058      44.86544791      14.64385262
Cl      27.14256743      44.51778732      11.83274284
Cl      26.67393657      41.66223682      16.36115272
Cl      34.50494678      46.06998990       7.26193347
Cl      38.18884987      41.94788818       3.37576668
Cl      36.71943531      52.16311324      17.36238617
Cl      28.59153666      44.49057594       2.42014296
Cl      31.33774193      46.10096272       5.22260326
Cl      31.98522743      42.99771143       3.14900215
Cl      29.43321784      41.21109120      10.88993587
Cl      33.58376658      46.21017167       1.42314947
Cl      38.29288003      48.89106053       8.32772315
Cl      27.36782951      51.66285994       0.71525258
Cl      31.01890087      49.65439655       0.25393291
Cl      38.88189967      45.74583376       5.47042216
Cl      30.54578626      46.83971310      13.40106328
Cl      32.55359549      49.58271114       4.43803115
Cl      37.72584755      50.87068622      12.31987652
Cl      31.56378265      50.38415218      12.46245992
Cl      37.77799891      45.39288534       0.90998976
Cl      30.33887983      53.09765836      15.43829774
Cl      37.01535339      49.78786406       4.52166716
Cl      32.84215424      41.85206232      12.71818936
Cl      26.83445737      48.26012901      13.06525939
Cl      27.69122610      46.80037243       8.75609116
Cl      38.75869889      40.68496756       9.01650877
Na      34.76780236      43.64248941      35.47419285
Na      36.37191099      49.22655551      27.73232633
Na      28.39276184      46.86810560      29.20063246
Na      30.39973520      43.50491521      23.17079640
Na      32.20906943      41.03671123      27.43230761
Na      39.55777767      47.16968402      19.90527321
Na      38.73880142      42.98477353      29.20513892
Na      35.99158765      45.02014848      30.32677477
Na      27.60504007      53.04169105      21.89858181
Na      29.72750960      49.16150259      28.39392783
Na      34.94754284      50.28975277      23.46346184
Na      32.83130603      47.81414401      24.68864934
Na      32.78466963      46.16322636      33.43029561
Na      30.16509950      52.21326577      29.55942898
Na      29.24865290      43.54343817      28.90834255
Na      37.03906682      45.09995641      21.61437204
Na      38.71208975      40.05166741      33.00121286
Na      27.50041026      43.77170486      24.07228204
Na      37.55549249      40.91074843      23.72707758
Na      33.18190128      48.49302935      29.29334195
Na      38.74343508      47.00829646      33.42666136
Na      31.89278142      45.14264057      25.70829628
Na      32.34608032      51.93242978      32.22009329
Na      30.44459082      47.82528296      20.19586713
Na      28.70626966      40.34938718      35.09889688
Na      28.78041726      40.54168396      25.77663213
Na      33.34310713      48.78457727      19.42732203
Na      31.77145227      50.83007357      25.63441215
Na      33.60046592      41.45563021      23.42608973
Na      36.10397656      47.34418211      33.52175734
Na      32.27004291      52.21571888      19.63337140
Na      36.08008143      40.96688837      20.56431862
Na      38.93223391      46.45842668      28.20254869
Na      36.05000808      50.64745296      32.22033557
Na      39.74594051      50.96753875      26.79946508
Na      36.34756158      50.13575180      18.99746399
Na      31.98923418      41.53314857      33.05148653
Na      29.10143887      46.57224203      24.04830816
Na      30.00492940      42.53064784      18.96020090
Na      36.07408493      44.64822932      25.06197071
Na      33.42385088      44.52329319      21.89545637
Na      34.97937880      41.98474847      32.08393039
Na      38.82456951      50.99097960      20.83504536
Na      28.73085530      45.73166021      33.51788082
Na      29.42097044      48.99069325      32.83839886
Na      39.25895219      48.55331233      23.49230560
Na      29.21307368      50.79173233      19.44566284
Na      39.28866211      50.78310101      32.28696333
Na      39.71023409      43.63280416      19.04369154
Na      36.37663551      52.84417004      29.10714766
Cl      34.16504529      41.55639863      34.92929895
Cl      36.97991954      44.05197754      27.92159762
Cl      28.60659151      41.71788614      22.58550185
Cl      31.34811769      47.32757363      27.01128077
Cl      33.04695282      43.20976940      25.27465862
Cl      35.72247209      43.36673228      22.24508248
Cl      37.59165319      45.98709286      31.66042015
Cl      35.34237589      53.02252043      24.44465850
Cl      35.39581741      48.05252298      29.97740306
Cl      30.12030748      43.74057758      33.61733789
Cl      29.03658584      50.80745042      26.47719268
Cl      29.62046303      43.73803361      25.91988180
Cl      34.35755104      51.27681267      19.63407402
Cl      28.20289091      48.84129869      22.04660446
Cl      37.17498744      41.39017752      30.68680693
Cl      28.07088619      47.92826827      35.13342217
Cl      34.33165708      48.66050427      34.28519027
Cl      38.30741699      48.99996057      35.51380608
Cl      39.22415433      51.88572978      23.48659984
Cl      34.35650620      52.17601480      30.80722146
Cl      27.91419588      51.98167375      31.25265829
Cl      34.25747313      49.84583021      26.77199022
Cl      30.32824059      40.07143314      19.83366654
Cl      31.90149451      52.95982977      24.09374829
Cl      34.35835058      44.86544791      32.36909718
Cl      27.14256743      44.51778732      29.55798739
Cl      26.67393657      41.66223682      34.08639728
Cl      34.50494678      46.06998990      24.98717803
Cl      38.18884987      41.94788818      21.10101124
Cl      36.71943531      52.16311324      35.08763073
Cl      28.59153666      44.49057594      20.14538752
Cl      31.33774193      46.10096272      22.94784781
Cl      31.98522743      42.99771143      20.87424671
Cl      29.43321784      41.21109120      28.61518043
Cl      33.58376658      46.21017167      19.14839402
Cl      38.29288003      48.89106053      26.05296771
Cl      27.36782951      51.66285994      18.44049714
Cl      31.01890087      49.65439655      17.97917747
Cl      38.88189967      45.74583376      23.19566672
Cl      30.54578626      46.83971310      31.12630784
Cl      32.55359549      49.58271114      22.16327571
Cl      37.72584755      50.87068622      30.04512108
Cl      31.56378265      50.38415218      30.18770448
Cl      37.77799891      45.39288534      18.63523432
Cl      30.33887983      53.09765836      33.16354230
Cl      37.01535339      49.78786406      22.24691172
Cl      32.84215424      41.85206232      30.44343392
Cl      26.83445737      48.26012901      30.79050395
Cl      27.69122610      46.80037243      26.48133572
Cl      38.75869889      40.68496756      26.74175333
Na      34.76780236      43.64248941       0.02370373
Na      36.37191099      49.22655551      45.45757089
Na      28.39276184      46.86810560      46.92587702
Na      30.39973520      43.50491521      40.89604095
Na      32.20906943      41.03671123      45.15755217
Na      39.55777767      47.16968402      37.63051777
Na      38.73880142      42.98477353      46.93038348
Na      35.99158765      45.02014848      48.05201933
Na      27.60504007      53.04169105      39.62382637
Na      29.72750960      49.16150259      46.11917239
Na      34.94754284      50.28975277      41.18870640
Na      32.83130603      47.81414401      42.41389390
Na      32.78466963      46.16322636      51.15554016
Na      30.16509950      52.21326577      47.28467353
Na      29.24865290      43.54343817      46.63358711
Na      37.03906682      45.09995641      39.33961660
Na      38.71208975      40.05166741      50.72645742
Na      27.50041026      43.77170486      41.79752659
Na      37.55549249      40.91074843      41.45232214
Na      33.18190128      48.49302935      47.01858651
Na      38.74343508      47.00829646      51.15190592
Na      31.89278142      45.14264057      43.43354084
Na      32.34608032      51.93242978      49.94533785
Na      30.44459082      47.82528296      37.92111169
Na      28.70626966      40.34938718      52.82414143
Na      28.78041726      40.54168396      43.50187668
Na      33.34310713      48.78457727      37.15256659
Na      31.77145227      50.83007357      43.35965671
Na      33.60046592      41.45563021      41.15133428
Na      36.10397656      47.34418211      51.24700190
Na      32.27004291      52.21571888      37.35861595
Na      36.08008143      40.96688837      38.28956318
Na      38.93223391      46.45842668      45.92779325
Na      36.05000808      50.64745296      49.94558013
Na      39.74594051      50.96753875      44.52470964
Na      36.34756158      50.13575180      36.72270855
Na      31.98923418      41.53314857      50.77673109
Na      29.10143887      46.57224203      41.77355272
Na      30.00492940      42.53064784      36.68544546
Na      36.07408493      44.64822932      42.78721527
Na      33.42385088      44.52329319      39.62070092
Na      34.97937880      41.98474847      49.80917495
Na      38.82456951      50.99097960      38.56028992
Na      28.73085530      45.73166021      51.24312538
Na      29.42097044      48.99069325      50.56364342
Na      39.25895219      48.55331233      41.21755016
Na      29.21307368      50.79173233      37.17090740
Na      39.28866211      50.78310101      50.01220789
Na      39.71023409      43.63280416      36.76893609
Na      36.37663551      52.84417004      46.83239222
Cl      34.16504529      41.55639863      52.65454351
Cl      36.97991954      44.05197754      45.64684217
Cl      28.60659151      41.71788614      40.31074641
Cl      31.34811769      47.32757363      44.73652533
Cl      33.04695282      43.20976940      42.99990318
Cl      35.72247209      43.36673228      39.97032704
Cl      37.59165319      45.98709286      49.38566471
Cl      35.34237589      53.02252043      42.16990306
Cl      35.39581741      48.05252298      47.70264761
Cl      30.12030748      43.74057758      51.34258244
Cl      29.03658584      50.80745042      44.20243724
Cl      29.62046303      43.73803361      43.64512636
Cl      34.35755104      51.27681267      37.35931857
Cl      28.20289091      48.84129869      39.77184901
Cl      37.17498744      41.39017752      48.41205149
Cl      28.07088619      47.92826827      52.85866673
Cl      34.33165708      48.66050427      52.01043483
Cl      38.30741699      48.99996057       0.06331696
Cl      39.22415433      51.88572978      41.21184440
Cl      34.35650620      52.17601480      48.53246602
Cl      27.91419588      51.98167375      48.97790285
Cl      34.25747313      49.84583021      44.49723477
Cl      30.32824059      40.07143314      37.55891110
Cl      31.90149451      52.95982977      41.81899285
Cl      34.35835058      44.86544791      50.09434174
Cl      27.14256743      44.51778732      47.28323195
Cl      26.67393657      41.66223682      51.81164184
Cl      34.50494678      46.06998990      42.71242259
Cl      38.18884987      41.94788818      38.82625580
Cl      36.71943531      52.16311324      52.81287529
Cl      28.59153666      44.49057594      37.87063208
Cl      31.33774193      46.10096272      40.67309237
Cl      31.98522743      42.99771143      38.59949126
Cl      29.43321784      41.21109120      46.34042499
Cl      33.58376658      46.21017167      36.87363858
Cl      38.29288003      48.89106053      43.77821227
Cl      27.36782951      51.66285994      36.16574170
Cl      31.01890087      49.65439655      35.70442203
Cl      38.88189967      45.74583376      40.92091128
Cl      30.54578626      46.83971310      48.85155239
Cl      32.55359549      49.58271114      39.88852027
Cl      37.72584755      50.87068622      47.77036564
Cl      31.56378265      50.38415218      47.91294904
Cl      37.77799891      45.39288534      36.36047888
Cl      30.33887983      53.09765836      50.88878686
Cl      37.01535339      49.78786406      39.97215627
Cl      32.84215424      41.85206232      48.16867848
Cl      26.83445737      48.26012901      48.51574851
Cl      27.69122610      46.80037243      44.20658028
Cl      38.75869889      40.68496756      44.46699789
Na      48.06173578       3.76068916      17.74894829
Na      49.66584441       9.34475525      10.00708178
Na      41.68669526       6.98630535      11.47538790
Na      43.69366861       3.62311496       5.44555184
Na      45.50300284       1.15491097       9.70706305
Na      52.85171109       7.28788377       2.18002865
Na      52.03273484       3.10297327      11.47989436
Na      49.28552107       5.13834822      12.60153022
Na      40.89897348      13.15989079       4.17333725
Na      43.02144302       9.27970233      10.66868327
Na      48.24147626      10.40795251       5.73821728
Na      46.12523945       7.93234376       6.96340478
Na      46.07860305       6.28142610      15.70505105
Na      43.45903292      12.33146551      11.83418442
Na      42.54258632       3.66163791      11.18309800
Na      50.33300024       5.21815616       3.88912748
Na      52.00602317       0.16986716      15.27596831
Na      40.79434368       3.88990460       6.34703748
Na      50.84942591       1.02894817       6.00183302
Na      46.47583470       8.61122910      11.56809739
Na      52.03736850       7.12649620      15.70141681
Na      45.18671483       5.26084032       7.98305172
Na      45.64001374      12.05062953      14.49484873
Na      43.73852424       7.94348271       2.47062257
Na      42.00020308       0.46758692      17.37365232
Na      42.07435068       0.65988371       8.05138757
Na      46.63704055       8.90277701       1.70207748
Na      45.06538569      10.94827332       7.90916760
Na      46.89439934       1.57382995       5.70084517
Na      49.39790998       7.46238186      15.79651278
Na      45.56397633      12.33391863       1.90812684
Na      49.37401484       1.08508811       2.83907406
Na      52.22616733       6.57662643      10.47730413
Na      49.34394150      10.76565270      14.49509102
Na      53.03987393      11.08573849       9.07422052
Na      49.64149500      10.25395154       1.27221943
Na      45.28316760       1.65134832      15.32624197
Na      42.39537229       6.69044177       6.32306360
Na      43.29886282       2.64884758       1.23495634
Na      49.36801835       4.76642906       7.33672615
Na      46.71778430       4.64149294       4.17021181
Na      48.27331222       2.10294821      14.35868583
Na      52.11850293      11.10917935       3.10980080
Na      42.02478872       5.84985996      15.79263626
Na      42.71490386       9.10889300      15.11315430
Na      52.55288561       8.67151207       5.76706104
Na      42.50700710      10.90993207       1.72041828
Na      52.58259553      10.90130075      14.56171877
Na      53.00416751       3.75100390       1.31844698
Na      49.67056892      12.96236978      11.38190310
Cl      47.45897871       1.67459837      17.20405440
Cl      50.27385296       4.17017728      10.19635306
Cl      41.90052493       1.83608588       4.86025730
Cl      44.64205111       7.44577338       9.28603621
Cl      46.34088624       3.32796914       7.54941406
Cl      49.01640551       3.48493202       4.51983792
Cl      50.88558661       6.10529260      13.93517559
Cl      48.63630931      13.14072017       6.71941394
Cl      48.68975083       8.17072272      12.25215850
Cl      43.41424089       3.85877733      15.89209333
Cl      42.33051926      10.92565017       8.75194813
Cl      42.91439645       3.85623336       8.19463724
Cl      47.65148446      11.39501242       1.90882946
Cl      41.49682433       8.95949843       4.32135990
Cl      50.46892086       1.50837727      12.96156238
Cl      41.36481961       8.04646802      17.40817761
Cl      47.62559049       8.77870402      16.55994572
Cl      51.60135041       9.11816031      17.78856152
Cl      52.51808775      12.00392953       5.76135528
Cl      47.65043962      12.29421454      13.08197690
Cl      41.20812930      12.09987349      13.52741373
Cl      47.55140655       9.96402995       9.04674566
Cl      43.62217400       0.18963289       2.10842198
Cl      45.19542793      13.07802951       6.36850373
Cl      47.65228400       4.98364766      14.64385262
Cl      40.43650085       4.63598706      11.83274284
Cl      39.96786999       1.78043656      16.36115272
Cl      47.79888020       6.18818964       7.26193347
Cl      51.48278329       2.06608792       3.37576668
Cl      50.01336872      12.28131299      17.36238617
Cl      41.88547008       4.60877568       2.42014296
Cl      44.63167535       6.21916246       5.22260326
Cl      45.27916084       3.11591117       3.14900215
Cl      42.72715126       1.32929095      10.88993587
Cl      46.87770000       6.32837141       1.42314947
Cl      51.58681345       9.00926028       8.32772315
Cl      40.66176293      11.78105969       0.71525258
Cl      44.31283428       9.77259630       0.25393291
Cl      52.17583309       5.86403350       5.47042216
Cl      43.83971968       6.95791284      13.40106328
Cl      45.84752891       9.70091089       4.43803115
Cl      51.01978096      10.98888596      12.31987652
Cl      44.85771607      10.50235193      12.46245992
Cl      51.07193233       5.51108508       0.90998976
Cl      43.63281325      13.21585811      15.43829774
Cl      50.30928681       9.90606380       4.52166716
Cl      46.13608766       1.97026207      12.71818936
Cl      40.12839079       8.37832875      13.06525939
Cl      40.98515951       6.91857218       8.75609116
Cl      52.05263231       0.80316730       9.01650877
Na      48.06173578       3.76068916      35.47419285
Na      49.66584441       9.34475525      27.73232633
Na      41.68669526       6.98630535      29.20063246
Na      43.69366861       3.62311496      23.17079640
Na      45.50300284       1.15491097      27.43230761
Na      52.85171109       7.28788377      19.90527321
Na      52.03273484       3.10297327      29.20513892
Na      49.28552107       5.13834822      30.32677477
Na      40.89897348      13.15989079      21.89858181
Na      43.02144302       9.27970233      28.39392783
Na      48.24147626      10.40795251      23.46346184
Na      46.12523945       7.93234376      24.68864934
Na      46.07860305       6.28142610      33.43029561
Na      43.45903292      12.33146551      29.55942898
Na      42.54258632       3.66163791      28.90834255
Na      50.33300024       5.21815616      21.61437204
Na      52.00602317       0.16986716      33.00121286
Na      40.79434368       3.88990460      24.07228204
Na      50.84942591       1.02894817      23.72707758
Na      46.47583470       8.61122910      29.29334195
Na      52.03736850       7.12649620      33.42666136
Na      45.18671483       5.26084032      25.70829628
Na      45.64001374      12.05062953      32.22009329
Na      43.73852424       7.94348271      20.19586713
Na      42.00020308       0.46758692      35.09889688
Na      42.07435068       0.65988371      25.77663213
Na      46.63704055       8.90277701      19.42732203
Na      45.06538569      10.94827332      25.63441215
Na      46.89439934       1.57382995      23.42608973
Na      49.39790998       7.46238186      33.52175734
Na      45.56397633      12.33391863      19.63337140
Na      49.37401484       1.08508811      20.56431862
Na      52.22616733       6.57662643      28.20254869
Na      49.34394150      10.76565270      32.22033557
Na      53.03987393      11.08573849      26.79946508
Na      49.64149500      10.25395154      18.99746399
Na      45.28316760       1.65134832      33.05148653
Na      42.39537229       6.69044177      24.04830816
Na      43.29886282       2.64884758      18.96020090
Na      49.36801835       4.76642906      25.06197071
Na      46.71778430       4.64149294      21.89545637
Na      48.27331222       2.10294821      32.08393039
Na      52.11850293      11.10917935      20.83504536
Na      42.02478872       5.84985996      33.51788082
Na      42.71490386       9.10889300      32.83839886
Na      52.55288561       8.67151207      23.49230560
Na      42.50700710      10.90993207      19.44566284
Na      52.58259553      10.90130075      32.28696333
Na      53.00416751       3.75100390      19.04369154
Na      49.67056892      12.96236978      29.10714766
Cl      47.45897871       1.67459837      34.92929895
Cl      50.27385296       4.17017728      27.92159762
Cl      41.90052493       1.83608588      22.58550185
Cl      44.64205111       7.44577338      27.01128077
Cl      46.34088624       3.32796914      25.27465862
Cl      49.01640551       3.48493202      22.24508248
Cl      50.88558661       6.10529260      31.66042015
Cl      48.63630931      13.14072017      24.44465850
Cl      48.68975083       8.17072272      29.97740306
Cl      43.41424089       3.85877733      33.61733789
Cl      42.33051926      10.92565017      26.47719268
Cl      42.91439645       3.85623336      25.91988180
Cl      47.65148446      11.39501242      19.63407402
Cl      41.49682433       8.95949843      22.04660446
Cl      50.46892086       1.50837727      30.68680693
Cl      41.36481961       8.04646802      35.13342217
Cl      47.62559049       8.77870402      34.28519027
Cl      51.60135041       9.11816031      35.51380608
Cl      52.51808775      12.00392953      23.48659984
Cl      47.65043962      12.29421454      30.80722146
Cl      41.20812930      12.09987349      31.25265829
Cl      47.55140655       9.96402995      26.77199022
Cl      43.62217400       0.18963289      19.83366654
Cl      45.19542793      13.07802951      24.09374829
Cl      47.65228400       4.98364766      32.36909718
Cl      40.43650085       4.63598706      29.55798739
Cl      39.96786999       1.78043656      34.08639728
Cl      47.79888020       6.18818964      24.98717803
Cl      51.48278329       2.06608792      21.10101124
Cl      50.01336872      12.28131299      35.08763073
Cl      41.88547008       4.60877568      20.14538752
Cl      44.63167535       6.21916246      22.94784781
Cl      45.27916084       3.11591117      20.87424671
Cl      42.72715126       1.32929095      28.61518043
Cl      46.87770000       6.32837141      19.14839402
Cl      51.58681345       9.00926028      26.05296771
Cl      40.66176293      11.78105969      18.44049714
Cl      44.31283428       9.77259630      17.97917747
Cl      52.17583309       5.86403350      23.19566672
Cl      43.83971968       6.95791284      31.12630784
Cl      45.84752891       9.70091089      22.16327571
Cl      51.01978096      10.98888596      30.04512108
Cl      44.85771607      10.50235193      30.18770448
Cl      51.07193233       5.51108508      18.63523432
Cl      43.63281325      13.21585811      33.16354230
Cl      50.30928681       9.90606380      22.24691172
Cl      46.13608766       1.97026207      30.44343392
Cl      40.12839079       8.37832875      30.79050395
Cl      40.98515951       6.91857218      26.48133572
Cl      52.05263231       0.80316730      26.74175333
Na      48.06173578       3.76068916       0.02370373
Na      49.66584441       9.34475525      45.45757089
Na      41.68669526       6.98630535      46.92587702
Na      43.69366861       3.62311496      40.89604095
Na      45.50300284       1.15491097      45.15755217
Na      52.85171109       7.28788377      37.63051777
Na      52.03273484       3.10297327      46.93038348
Na      49.28552107       5.13834822      48.05201933
Na      40.89897348      13.15989079      39.62382637
Na      43.02144302       9.27970233      46.11917239
Na      48.24147626      10.40795251      41.18870640
Na      46.12523945       7.93234376      42.41389390
Na      46.07860305       6.28142610      51.15554016
Na      43.45903292      12.33146551      47.28467353
Na      42.54258632       3.66163791      46.63358711
Na      50.33300024       5.21815616      39.33961660
Na      52.00602317       0.16986716      50.72645742
Na      40.79434368       3.88990460      41.79752659
Na      50.84942591       1.02894817      41.45232214
Na      46.47583470       8.61122910      47.01858651
Na      52.03736850       7.12649620      51.15190592
Na      45.18671483       5.26084032      43.43354084
Na      45.64001374      12.05062953      49.94533785
Na      43.73852424       7.94348271      37.92111169
Na      42.00020308       0.46758692      52.82414143
Na      42.07435068       0.65988371      43.50187668
Na      46.63704055       8.90277701      37.15256659
Na      45.06538569      10.94827332      43.35965671
Na      46.89439934       1.57382995      41.15133428
Na      49.39790998       7.46238186      51.24700190
Na      45.56397633      12.33391863      37.35861595
Na      49.37401484       1.08508811      38.28956318
Na      52.22616733       6.57662643      45.92779325
Na      49.34394150      10.76565270      49.94558013
Na      53.03987393      11.08573849      44.52470964
Na      49.64149500      10.25395154      36.72270855
Na      45.28316760       1.65134832      50.77673109
Na      42.39537229       6.69044177      41.77355272
Na      43.29886282       2.64884758      36.68544546
Na      49.36801835       4.76642906      42.78721527
Na      46.71778430       4.64149294      39.62070092
Na      48.27331222       2.10294821      49.80917495
Na      52.11850293      11.10917935      38.56028992
Na      42.02478872       5.84985996      51.24312538
Na      42.71490386       9.10889300      50.56364342
Na      52.55288561       8.67151207      41.21755016
Na      42.50700710      10.90993207      37.17090740
Na      52.58259553      10.90130075      50.01220789
Na      53.00416751       3.75100390      36.76893609
Na      49.67056892      12.96236978      46.83239222
Cl      47.45897871       1.67459837      52.65454351
Cl      50.27385296       4.17017728      45.64684217
Cl      41.90052493       1.83608588      40.31074641
Cl      44.64205111       7.44577338      44.73652533
Cl      46.34088624       3.32796914      42.99990318
Cl      49.01640551       3.48493202      39.97032704
Cl      50.88558661       6.10529260      49.38566471
Cl      48.63630931      13.14072017      42.16990306
Cl      48.68975083       8.17072272      47.70264761
Cl      43.41424089       3.85877733      51.34258244
Cl      42.33051926      10.92565017      44.20243724
Cl      42.91439645       3.85623336      43.64512636
Cl      47.65148446      11.39501242      37.35931857
Cl      41.49682433       8.95949843      39.77184901
Cl      50.46892086       1.50837727      48.41205149
Cl      41.36481961       8.04646802      52.85866673
Cl      47.62559049       8.77870402      52.01043483
Cl      51.60135041       9.11816031       0.06331696
Cl      52.51808775      12.00392953      41.21184440
Cl      47.65043962      12.29421454      48.53246602
Cl      41.20812930      12.09987349      48.97790285
Cl      47.55140655       9.96402995      44.49723477
Cl      43.62217400       0.18963289      37.55891110
Cl      45.19542793      13.07802951      41.81899285
Cl      47.65228400       4.98364766      50.09434174
Cl      40.43650085       4.63598706      47.28323195
Cl      39.96786999       1.78043656      51.81164184
Cl      47.79888020       6.18818964      42.71242259
Cl      51.48278329       2.06608792      38.82625580
Cl      50.01336872      12.28131299      52.81287529
Cl      41.88547008       4.60877568      37.87063208
Cl      44.63167535       6.21916246      40.67309237
Cl      45.27916084       3.11591117      38.59949126
Cl      42.72715126       1.32929095      46.34042499
Cl      46.87770000       6.32837141      36.87363858
Cl      51.58681345       9.00926028      43.77821227
Cl      40.66176293      11.78105969      36.16574170
Cl      44.31283428       9.77259630      35.70442203
Cl      52.17583309       5.86403350      40.92091128
Cl      43.83971968       6.95791284      48.85155239
Cl      45.84752891       9.70091089      39.88852027
Cl      51.01978096      10.98888596      47.77036564
Cl      44.85771607      10.50235193      47.91294904
Cl      51.07193233       5.51108508      36.36047888
Cl      43.63281325      13.21585811      50.88878686
Cl      50.30928681       9.90606380      39.97215627
Cl      46.13608766       1.97026207      48.16867848
Cl      40.12839079       8.37832875      48.51574851
Cl      40.98515951       6.91857218      44.20658028
Cl      52.05263231       0.80316730      44.46699789
Na      48.06173578      17.05462257      17.74894829
Na      49.66584441      22.63868867      10.00708178
Na      41.68669526      20.28023877      11.47538790
Na      43.69366861      16.91704837       5.44555184
Na      45.50300284      14.44884439       9.70706305
Na      52.85171109      20.58181719       2.18002865
Na      52.03273484      16.39690669      11.47989436
Na      49.28552107      18.43228164      12.60153022
Na      40.89897348      26.45382421       4.17333725
Na      43.02144302      22.57363575      10.66868327
Na      48.24147626      23.70188593       5.73821728
Na      46.12523945      21.22627718       6.96340478
Na      46.07860305      19.57535952      15.70505105
Na      43.45903292      25.62539893      11.83418442
Na      42.54258632      16.95557133      11.18309800
Na      50.33300024      18.51208957       3.88912748
Na      52.00602317      13.46380058      15.27596831
Na      40.79434368      17.18383802       6.34703748
Na      50.84942591      14.32288159       6.00183302
Na      46.47583470      21.90516252      11.56809739
Na      52.03736850      20.42042962      15.70141681
Na      45.18671483      18.55477374       7.98305172
Na      45.64001374      25.34456295      14.49484873
Na      43.73852424      21.23741613       2.47062257
Na      42.00020308      13.76152034      17.37365232
Na      42.07435068      13.95381713       8.05138757
Na      46.63704055      22.19671043       1.70207748
Na      45.06538569      24.24220674       7.90916760
Na      46.89439934      14.86776337       5.70084517
Na      49.39790998      20.75631528      15.79651278
Na      45.56397633      25.62785205       1.90812684
Na      49.37401484      14.37902153       2.83907406
Na      52.22616733      19.87055984      10.47730413
Na      49.34394150      24.05958612      14.49509102
Na      53.03987393      24.37967191       9.07422052
Na      49.64149500      23.54788496       1.27221943
Na      45.28316760      14.94528173      15.32624197
Na      42.39537229      19.98437519       6.32306360
Na      43.29886282      15.94278100       1.23495634
Na      49.36801835      18.06036248       7.33672615
Na      46.71778430      17.93542635       4.17021181
Na      48.27331222      15.39688163      14.35868583
Na      52.11850293      24.40311277       3.10980080
Na      42.02478872      19.14379338      15.79263626
Na      42.71490386      22.40282642      15.11315430
Na      52.55288561      21.96544549       5.76706104
Na      42.50700710      24.20386549       1.72041828
Na      52.58259553      24.19523417      14.56171877
Na      53.00416751      17.04493732       1.31844698
Na      49.67056892      26.25630320      11.38190310
Cl      47.45897871      14.96853179      17.20405440
Cl      50.27385296      17.46411070      10.19635306
Cl      41.90052493      15.13001930       4.86025730
Cl      44.64205111      20.73970679       9.28603621
Cl      46.34088624      16.62190256       7.54941406
Cl      49.01640551      16.77886544       4.51983792
Cl      50.88558661      19.39922602      13.93517559
Cl      48.63630931      26.43465359       6.71941394
Cl      48.68975083      21.46465614      12.25215850
Cl      43.41424089      17.15271074      15.89209333
Cl      42.33051926      24.21958359       8.75194813
Cl      42.91439645      17.15016678       8.19463724
Cl      47.65148446      24.68894584       1.90882946
Cl      41.49682433      22.25343185       4.32135990
Cl      50.46892086      14.80231069      12.96156238
Cl      41.36481961      21.34040143      17.40817761
Cl      47.62559049      22.07263743      16.55994572
Cl      51.60135041      22.41209373      17.78856152
Cl      52.51808775      25.29786295       5.76135528
Cl      47.65043962      25.58814796      13.08197690
Cl      41.20812930      25.39380691      13.52741373
Cl      47.55140655      23.25796337       9.04674566
Cl      43.62217400      13.48356631       2.10842198
Cl      45.19542793      26.37196293       6.36850373
Cl      47.65228400      18.27758108      14.64385262
Cl      40.43650085      17.92992048      11.83274284
Cl      39.96786999      15.07436998      16.36115272
Cl      47.79888020      19.48212306       7.26193347
Cl      51.48278329      15.36002134       3.37576668
Cl      50.01336872      25.57524640      17.36238617
Cl      41.88547008      17.90270910       2.42014296
Cl      44.63167535      19.51309588       5.22260326
Cl      45.27916084      16.40984459       3.14900215
Cl      42.72715126      14.62322437      10.88993587
Cl      46.87770000      19.62230483       1.42314947
Cl      51.58681345      22.30319370       8.32772315
Cl      40.66176293      25.07499311       0.71525258
Cl      44.31283428      23.06652971       0.25393291
Cl      52.17583309      19.15796692       5.47042216
Cl      43.83971968      20.25184626      13.40106328
Cl      45.84752891      22.99484431       4.43803115
Cl      51.01978096      24.28281938      12.31987652
Cl      44.85771607      23.79628534      12.46245992
Cl      51.07193233      18.80501850       0.90998976
Cl      43.63281325      26.50979153      15.43829774
Cl      50.30928681      23.19999722       4.52166716
Cl      46.13608766      15.26419548      12.71818936
Cl      40.12839079      21.67226217      13.06525939
Cl      40.98515951      20.21250560       8.75609116
Cl      52.05263231      14.09710072       9.01650877
Na      48.06173578      17.05462257      35.47419285
Na      49.66584441      22.63868867      27.73232633
Na      41.68669526      20.28023877      29.20063246
Na      43.69366861      16.91704837      23.17079640
Na      45.50300284      14.44884439      27.43230761
Na      52.85171109      20.58181719      19.90527321
Na      52.03273484      16.39690669      29.20513892
Na      49.28552107      18.43228164      30.32677477
Na      40.89897348      26.45382421      21.89858181
Na      43.02144302      22.57363575      28.39392783
Na      48.24147626      23.70188593      23.46346184
Na      46.12523945      21.22627718      24.68864934
Na      46.07860305      19.57535952      33.43029561
Na      43.45903292      25.62539893      29.55942898
Na      42.54258632      16.95557133      28.90834255
Na      50.33300024      18.51208957      21.61437204
Na      52.00602317      13.46380058      33.00121286
Na      40.79434368      17.18383802      24.07228204
Na      50.84942591      14.32288159      23.72707758
Na      46.47583470      21.90516252      29.29334195
Na      52.03736850      20.42042962      33.42666136
Na      45.18671483      18.55477374      25.70829628
Na      45.64001374      25.34456295      32.22009329
Na      43.73852424      21.23741613      20.19586713
Na      42.00020308      13.76152034      35.09889688
Na      42.07435068      13.95381713      25.77663213
Na      46.63704055      22.19671043      19.42732203
Na      45.06538569      24.24220674      25.63441215
Na      46.89439934      14.86776337      23.42608973
Na      49.39790998      20.75631528      33.52175734
Na      45.56397633      25.62785205      19.63337140
Na      49.37401484      14.37902153      20.56431862
Na      52.22616733      19.87055984      28.20254869
Na      49.34394150      24.05958612      32.22033557
Na      53.03987393      24.37967191      26.79946508
Na      49.64149500      23.54788496      18.99746399
Na      45.28316760      14.94528173      33.05148653
Na      42.39537229      19.98437519      24.04830816
Na      43.29886282      15.94278100      18.96020090
Na      49.36801835      18.06036248      25.06197071
Na      46.71778430      17.93542635      21.89545637
Na      48.27331222      15.39688163      32.08393039
Na      52.11850293      24.40311277      20.83504536
Na      42.02478872      19.14379338      33.51788082
Na      42.71490386      22.40282642      32.83839886
Na      52.55288561      21.96544549      23.49230560
Na      42.50700710      24.20386549      19.44566284
Na      52.58259553      24.19523417      32.28696333
Na      53.00416751      17.04493732      19.04369154
Na      49.67056892      26.25630320      29.10714766
Cl      47.45897871      14.96853179      34.92929895
Cl      50.27385296      17.46411070      27.92159762
Cl      41.90052493      15.13001930      22.58550185
Cl      44.64205111      20.73970679      27.01128077
Cl      46.34088624      16.62190256      25.27465862
Cl      49.01640551      16.77886544      22.24508248
Cl      50.88558661      19.39922602      31.66042015
Cl      48.63630931      26.43465359      24.44465850
Cl      48.68975083      21.46465614      29.97740306
Cl      43.41424089      17.15271074      33.61733789
Cl      42.33051926      24.21958359      26.47719268
Cl      42.91439645      17.15016678      25.91988180
Cl      47.65148446      24.68894584      19.63407402
Cl      41.49682433      22.25343185      22.04660446
Cl      50.46892086      14.80231069      30.68680693
Cl      41.36481961      21.34040143      35.13342217
Cl      47.62559049      22.07263743      34.28519027
Cl      51.60135041      22.41209373      35.51380608
Cl      52.51808775      25.29786295      23.48659984
Cl      47.65043962      25.58814796      30.80722146
Cl      41.20812930      25.39380691      31.25265829
Cl      47.55140655      23.25796337      26.77199022
Cl      43.62217400      13.48356631      19.83366654
Cl      45.19542793      26.37196293      24.09374829
Cl      47.65228400      18.27758108      32.36909718
Cl      40.43650085      17.92992048      29.55798739
Cl      39.96786999      15.07436998      34.08639728
Cl      47.79888020      19.48212306      24.98717803
Cl      51.48278329      15.36002134      21.10101124
Cl      50.01336872      25.57524640      35.08763073
Cl      41.88547008      17.90270910      20.14538752
Cl      44.63167535      19.51309588      22.94784781
Cl      45.27916084      16.40984459      20.87424671
Cl      42.72715126      14.62322437      28.61518043
Cl      46.87770000      19.62230483      19.14839402
Cl      51.58681345      22.30319370      26.05296771
Cl      40.66176293      25.07499311      18.44049714
Cl      44.31283428      23.06652971      17.97917747
Cl      52.17583309      19.15796692      23.19566672
Cl      43.83971968      20.25184626      31.12630784
Cl      45.84752891      22.99484431      22.16327571
Cl      51.01978096      24.28281938      30.04512108
Cl      44.85771607      23.79628534      30.18770448
Cl      51.07193233      18.80501850      18.63523432
Cl      43.63281325      26.50979153      33.16354230
Cl      50.30928681      23.19999722      22.24691172
Cl      46.13608766      15.26419548      30.44343392
Cl      40.12839079      21.67226217      30.79050395
Cl      40.98515951      20.21250560      26.48133572
Cl      52.05263231      14.09710072      26.74175333
Na      48.06173578      17.05462257       0.02370373
Na      49.66584441      22.63868867      45.45757089
Na      41.68669526      20.28023877      46.92587702
Na      43.69366861      16.91704837      40.89604095
Na      45.50300284      14.44884439      45.15755217
Na      52.85171109      20.58181719      37.63051777
Na      52.03273484      16.39690669      46.93038348
Na      49.28552107      18.43228164      48.05201933
Na      40.89897348      26.45382421      39.62382637
Na      43.02144302      22.57363575      46.11917239
Na      48.24147626      23.70188593      41.18870640
Na      46.12523945      21.22627718      42.41389390
Na      46.07860305      19.57535952      51.15554016
Na      43.45903292      25.62539893      47.28467353
Na      42.54258632      16.95557133      46.63358711
Na      50.33300024      18.51208957      39.33961660
Na      52.00602317      13.46380058      50.72645742
Na      40.79434368      17.18383802      41.79752659
Na      50.84942591      14.32288159      41.45232214
Na      46.47583470      21.90516252      47.01858651
Na      52.03736850      20.42042962      51.15190592
Na      45.18671483      18.55477374      43.43354084
Na      45.64001374      25.34456295      49.94533785
Na      43.73852424      21.23741613      37.92111169
Na      42.00020308      13.76152034      52.82414143
Na      42.07435068      13.95381713      43.50187668
Na      46.63704055      22.19671043      37.15256659
Na      45.06538569      24.24220674      43.35965671
Na      46.89439934      14.86776337      41.15133428
Na      49.39790998      20.75631528      51.24700190
Na      45.56397633      25.62785205      37.35861595
Na      49.37401484      14.37902153      38.28956318
Na      52.22616733      19.87055984      45.92779325
Na      49.34394150      24.05958612      49.94558013
Na      53.03987393      24.37967191      44.52470964
Na      49.64149500      23.54788496      36.72270855
Na      45.28316760      14.94528173      50.77673109
Na      42.39537229      19.98437519      41.77355272
Na      43.29886282      15.94278100      36.68544546
Na      49.36801835      18.06036248      42.78721527
Na      46.71778430      17.93542635      39.62070092
Na      48.27331222      15.39688163      49.80917495
Na      52.11850293      24.40311277      38.56028992
Na      42.02478872      19.14379338      51.24312538
Na      42.71490386      22.40282642      50.56364342
Na      52.55288561      21.96544549      41.21755016
Na      42.50700710      24.20386549      37.17090740
Na      52.58259553      24.19523417      50.01220789
Na      53.00416751      17.04493732      36.76893609
Na      49.67056892      26.25630320      46.83239222
Cl      47.45897871      14.96853179      52.65454351
Cl      50.27385296      17.46411070      45.64684217
Cl      41.90052493      15.13001930      40.31074641
Cl      44.64205111      20.73970679      44.73652533
Cl      46.34088624      16.62190256      42.99990318
Cl      49.01640551      16.77886544      39.97032704
Cl      50.88558661      19.39922602      49.38566471
Cl      48.63630931      26.43465359      42.16990306
Cl      48.68975083      21.46465614      47.70264761
Cl      43.41424089      17.15271074      51.34258244
Cl      42.33051926      24.21958359      44.20243724
Cl      42.91439645      17.15016678      43.64512636
Cl      47.65148446      24.68894584      37.35931857
Cl      41.49682433      22.25343185      39.77184901
Cl      50.46892086      14.80231069      48.41205149
Cl      41.36481961      21.34040143      52.85866673
Cl      47.62559049      22.07263743      52.01043483
Cl      51.60135041      22.41209373       0.06331696
Cl      52.51808775      25.29786295      41.21184440
Cl      47.65043962      25.58814796      48.53246602
Cl      41.20812930      25.39380691      48.97790285
Cl      47.55140655      23.25796337      44.49723477
Cl      43.62217400      13.48356631      37.55891110
Cl      45.19542793      26.37196293      41.81899285
Cl      47.65228400      18.27758108      50.09434174
Cl      40.43650085      17.92992048      47.28323195
Cl      39.96786999      15.07436998      51.81164184
Cl      47.79888020      19.48212306      42.71242259
Cl      51.48278329      15.36002134      38.82625580
Cl      50.01336872      25.57524640      52.81287529
Cl      41.88547008      17.90270910      37.87063208
Cl      44.63167535      19.51309588      40.67309237
Cl      45.27916084      16.40984459      38.59949126
Cl      42.72715126      14.62322437      46.34042499
Cl      46.87770000      19.62230483      36.87363858
Cl      51.58681345      22.30319370      43.77821227
Cl      40.66176293      25.07499311      36.16574170
Cl      44.31283428      23.06652971      35.70442203
Cl      52.17583309      19.15796692      40.92091128
Cl      43.83971968      20.25184626      48.85155239
Cl      45.84752891      22.99484431      39.88852027
Cl      51.01978096      24.28281938      47.77036564
Cl      44.85771607      23.79628534      47.91294904
Cl      51.07193233      18.80501850      36.36047888
Cl      43.63281325      26.50979153      50.88878686
Cl      50.30928681      23.19999722      39.97215627
Cl      46.13608766      15.26419548      48.16867848
Cl      40.12839079      21.67226217      48.51574851
Cl      40.98515951      20.21250560      44.20658028
Cl      52.05263231      14.09710072      44.46699789
Na      48.06173578      30.34855599      17.74894829
Na      49.66584441      35.93262209      10.00708178
Na      41.68669526      33.57417219      11.47538790
Na      43.69366861      30.21098179       5.44555184
Na      45.50300284      27.74277781       9.70706305
Na      52.85171109      33.87575061       2.18002865
Na      52.03273484      29.69084011      11.47989436
Na      49.28552107      31.72621506      12.60153022
Na      40.89897348      39.74775763       4.17333725
Na      43.02144302      35.86756917      10.66868327
Na      48.24147626      36.99581935       5.73821728
Na      46.12523945      34.52021059       6.96340478
Na      46.07860305      32.86929294      15.70505105
Na      43.45903292      38.91933235      11.83418442
Na      42.54258632      30.24950475      11.18309800
Na      50.33300024      31.80602299       3.88912748
Na      52.00602317      26.75773400      15.27596831
Na      40.79434368      30.47777144       6.34703748
Na      50.84942591      27.61681501       6.00183302
Na      46.47583470      35.19909593      11.56809739
Na      52.03736850      33.71436304      15.70141681
Na      45.18671483      31.84870716       7.98305172
Na      45.64001374      38.63849636      14.49484873
Na      43.73852424      34.53134954       2.47062257
Na      42.00020308      27.05545376      17.37365232
Na      42.07435068      27.24775055       8.05138757
Na      46.63704055      35.49064385       1.70207748
Na      45.06538569      37.53614016       7.90916760
Na      46.89439934      28.16169679       5.70084517
Na      49.39790998      34.05024870      15.79651278
Na      45.56397633      38.92178546       1.90812684
Na      49.37401484      27.67295495       2.83907406
Na      52.22616733      33.16449326      10.47730413
Na      49.34394150      37.35351954      14.49509102
Na      53.03987393      37.67360533       9.07422052
Na      49.64149500      36.84181838       1.27221943
Na      45.28316760      28.23921515      15.32624197
Na      42.39537229      33.27830861       6.32306360
Na      43.29886282      29.23671442       1.23495634
Na      49.36801835      31.35429590       7.33672615
Na      46.71778430      31.22935977       4.17021181
Na      48.27331222      28.69081505      14.35868583
Na      52.11850293      37.69704618       3.10980080
Na      42.02478872      32.43772680      15.79263626
Na      42.71490386      35.69675984      15.11315430
Na      52.55288561      35.25937891       5.76706104
Na      42.50700710      37.49779891       1.72041828
Na      52.58259553      37.48916759      14.56171877
Na      53.00416751      30.33887074       1.31844698
Na      49.67056892      39.55023662      11.38190310
Cl      47.45897871      28.26246521      17.20405440
Cl      50.27385296      30.75804412      10.19635306
Cl      41.90052493      28.42395272       4.86025730
Cl      44.64205111      34.03364021       9.28603621
Cl      46.34088624      29.91583598       7.54941406
Cl      49.01640551      30.07279886       4.51983792
Cl      50.88558661      32.69315944      13.93517559
Cl      48.63630931      39.72858701       6.71941394
Cl      48.68975083      34.75858956      12.25215850
Cl      43.41424089      30.44664416      15.89209333
Cl      42.33051926      37.51351700       8.75194813
Cl      42.91439645      30.44410019       8.19463724
Cl      47.65148446      37.98287925       1.90882946
Cl      41.49682433      35.54736527       4.32135990
Cl      50.46892086      28.09624410      12.96156238
Cl      41.36481961      34.63433485      17.40817761
Cl      47.62559049      35.36657085      16.55994572
Cl      51.60135041      35.70602715      17.78856152
Cl      52.51808775      38.59179636       5.76135528
Cl      47.65043962      38.88208138      13.08197690
Cl      41.20812930      38.68774033      13.52741373
Cl      47.55140655      36.55189679       9.04674566
Cl      43.62217400      26.77749973       2.10842198
Cl      45.19542793      39.66589635       6.36850373
Cl      47.65228400      31.57151450      14.64385262
Cl      40.43650085      31.22385390      11.83274284
Cl      39.96786999      28.36830340      16.36115272
Cl      47.79888020      32.77605648       7.26193347
Cl      51.48278329      28.65395476       3.37576668
Cl      50.01336872      38.86917982      17.36238617
Cl      41.88547008      31.19664252       2.42014296
Cl      44.63167535      32.80702930       5.22260326
Cl      45.27916084      29.70377801       3.14900215
Cl      42.72715126      27.91715778      10.88993587
Cl      46.87770000      32.91623825       1.42314947
Cl      51.58681345      35.59712711       8.32772315
Cl      40.66176293      38.36892652       0.71525258
Cl      44.31283428      36.36046313       0.25393291
Cl      52.17583309      32.45190034       5.47042216
Cl      43.83971968      33.54577968      13.40106328
Cl      45.84752891      36.28877773       4.43803115
Cl      51.01978096      37.57675280      12.31987652
Cl      44.85771607      37.09021876      12.46245992
Cl      51.07193233      32.09895192       0.90998976
Cl      43.63281325      39.80372494      15.43829774
Cl      50.30928681      36.49393064       4.52166716
Cl      46.13608766      28.55812890      12.71818936
Cl      40.12839079      34.96619559      13.06525939
Cl      40.98515951      33.50643902       8.75609116
Cl      52.05263231      27.39103414       9.01650877
Na      48.06173578      30.34855599      35.47419285
Na      49.66584441      35.93262209      27.73232633
Na      41.68669526      33.57417219      29.20063246
Na      43.69366861      30.21098179      23.17079640
Na      45.50300284      27.74277781      27.43230761
Na      52.85171109      33.87575061      19.90527321
Na      52.03273484      29.69084011      29.20513892
Na      49.28552107      31.72621506      30.32677477
Na      40.89897348      39.74775763      21.89858181
Na      43.02144302      35.86756917      28.39392783
Na      48.24147626      36.99581935      23.46346184
Na      46.12523945      34.52021059      24.68864934
Na      46.07860305      32.86929294      33.43029561
Na      43.45903292      38.91933235      29.55942898
Na      42.54258632      30.24950475      28.90834255
Na      50.33300024      31.80602299      21.61437204
Na      52.00602317      26.75773400      33.00121286
Na      40.79434368      30.47777144      24.07228204
Na      50.84942591      27.61681501      23.72707758
Na      46.47583470      35.19909593      29.29334195
Na      52.03736850      33.71436304      33.42666136
Na      45.18671483      31.84870716      25.70829628
Na      45.64001374      38.63849636      32.22009329
Na      43.73852424      34.53134954      20.19586713
Na      42.00020308      27.05545376      35.09889688
Na      42.07435068      27.24775055      25.77663213
Na      46.63704055      35.49064385      19.42732203
Na      45.06538569      37.53614016      25.63441215
Na      46.89439934      28.16169679      23.42608973
Na      49.39790998      34.05024870      33.52175734
Na      45.56397633      38.92178546      19.63337140
Na      49.37401484      27.67295495      20.56431862
Na      52.22616733      33.16449326      28.20254869
Na      49.34394150      37.35351954      32.22033557
Na      53.03987393      37.67360533      26.79946508
Na      49.64149500      36.84181838      18.99746399
Na      45.28316760      28.23921515      33.05148653
Na      42.39537229      33.27830861      24.04830816
Na      43.29886282      29.23671442      18.96020090
Na      49.36801835      31.35429590      25.06197071
Na      46.71778430      31.22935977      21.89545637
Na      48.27331222      28.69081505      32.08393039
Na      52.11850293      37.69704618      20.83504536
Na      42.02478872      32.43772680      33.51788082
Na      42.71490386      35.69675984      32.83839886
Na      52.55288561      35.25937891      23.49230560
Na      42.50700710      37.49779891      19.44566284
Na      52.58259553      37.48916759      32.28696333
Na      53.00416751      30.33887074      19.04369154
Na      49.67056892      39.55023662      29.10714766
Cl      47.45897871      28.26246521      34.92929895
Cl      50.27385296      30.75804412      27.92159762
Cl      41.90052493      28.42395272      22.58550185
Cl      44.64205111      34.03364021      27.01128077
Cl      46.34088624      29.91583598      25.27465862
Cl      49.01640551      30.07279886      22.24508248
Cl      50.88558661      32.69315944      31.66042015
Cl      48.63630931      39.72858701      24.44465850
Cl      48.68975083      34.75858956      29.97740306
Cl      43.41424089      30.44664416      33.61733789
Cl      42.33051926      37.51351700      26.47719268
Cl      42.91439645      30.44410019      25.91988180
Cl      47.65148446      37.98287925      19.63407402
Cl      41.49682433      35.54736527      22.04660446
Cl      50.46892086      28.09624410      30.68680693
Cl      41.36481961      34.63433485      35.13342217
Cl      47.62559049      35.36657085      34.28519027
Cl      51.60135041      35.70602715      35.51380608
Cl      52.51808775      38.59179636      23.48659984
Cl      47.65043962      38.88208138      30.80722146
Cl      41.20812930      38.68774033      31.25265829
Cl      47.55140655      36.55189679      26.77199022
Cl      43.62217400      26.77749973      19.83366654
Cl      45.19542793      39.66589635      24.09374829
Cl      47.65228400      31.57151450      32.36909718
Cl      40.43650085      31.22385390      29.55798739
Cl      39.96786999      28.36830340      34.08639728
Cl      47.79888020      32.77605648      24.98717803
Cl      51.48278329      28.65395476      21.10101124
Cl      50.01336872      38.86917982      35.08763073
Cl      41.88547008      31.19664252      20.14538752
Cl      44.63167535      32.80702930      22.94784781
Cl      45.27916084      29.70377801      20.87424671
Cl      42.72715126      27.91715778      28.61518043
Cl      46.87770000      32.91623825      19.14839402
Cl      51.58681345      35.59712711      26.05296771
Cl      40.66176293      38.36892652      18.44049714
Cl      44.31283428      36.36046313      17.97917747
Cl      52.17583309      32.45190034      23.19566672
Cl      43.83971968      33.54577968      31.12630784
Cl      45.84752891      36.28877773      22.16327571
Cl      51.01978096      37.57675280      30.04512108
Cl      44.85771607      37.09021876      30.18770448
Cl      51.07193233      32.09895192      18.63523432
Cl      43.63281325      39.80372494      33.16354230
Cl      50.30928681      36.49393064      22.24691172
Cl      46.13608766      28.55812890      30.44343392
Cl      40.12839079      34.96619559      30.79050395
Cl      40.98515951      33.50643902      26.48133572
Cl      52.05263231      27.39103414      26.74175333
Na      48.06173578      30.34855599       0.02370373
Na      49.66584441      35.93262209      45.45757089
Na      41.68669526      33.57417219      46.92587702
Na      43.69366861      30.21098179      40.89604095
Na      45.50300284      27.74277781      45.15755217
Na      52.85171109      33.87575061      37.63051777
Na      52.03273484      29.69084011      46.93038348
Na      49.28552107      31.72621506      48.05201933
Na      40.89897348      39.74775763      39.62382637
Na      43.02144302      35.86756917      46.11917239
Na      48.24147626      36.99581935      41.18870640
Na      46.12523945      34.52021059      42.41389390
Na      46.07860305      32.86929294      51.15554016
Na      43.45903292      38.91933235      47.28467353
Na      42.54258632      30.24950475      46.63358711
Na      50.33300024      31.80602299      39.33961660
Na      52.00602317      26.75773400      50.72645742
Na      40.79434368      30.47777144      41.79752659
Na      50.84942591      27.61681501      41.45232214
Na      46.47583470      35.19909593      47.01858651
Na      52.03736850      33.71436304      51.15190592
Na      45.18671483      31.84870716      43.43354084
Na      45.64001374      38.63849636      49.94533785
Na      43.73852424      34.53134954      37.92111169
Na      42.00020308      27.05545376      52.82414143
Na      42.07435068      27.24775055      43.50187668
Na      46.63704055      35.49064385      37.15256659
Na      45.06538569      37.53614016      43.35965671
Na      46.89439934      28.16169679      41.15133428
Na      49.39790998      34.05024870      51.24700190
Na      45.56397633      38.92178546      37.35861595
Na      49.37401484      27.67295495      38.28956318
Na      52.22616733      33.16449326      45.92779325
Na      49.34394150      37.35351954      49.94558013
Na      53.03987393      37.67360533      44.52470964
Na      49.64149500      36.84181838      36.72270855
Na      45.28316760      28.23921515      50.77673109
Na      42.39537229      33.27830861      41.77355272
Na      43.29886282      29.23671442      36.68544546
Na      49.36801835      31.35429590      42.78721527
Na      46.71778430      31.22935977      39.62070092
Na      48.27331222      28.69081505      49.80917495
Na      52.11850293      37.69704618      38.56028992
Na      42.02478872      32.43772680      51.24312538
Na      42.71490386      35.69675984      50.56364342
Na      52.55288561      35.25937891      41.21755016
Na      42.50700710      37.49779891      37.17090740
Na      52.58259553      37.48916759      50.01220789
Na      53.00416751      30.33887074      36.76893609
Na      49.67056892      39.55023662      46.83239222
Cl      47.45897871      28.26246521      52.65454351
Cl      50.27385296      30.75804412      45.64684217
Cl      41.90052493      28.42395272      40.31074641
Cl      44.64205111      34.03364021      44.73652533
Cl      46.34088624      29.91583598      42.99990318
Cl      49.01640551      30.07279886      39.97032704
Cl      50.88558661      32.69315944      49.38566471
Cl      48.63630931      39.72858701      42.16990306
Cl      48.68975083      34.75858956      47.70264761
Cl      43.41424089      30.44664416      51.34258244
Cl      42.33051926      37.51351700      44.20243724
Cl      42.91439645      30.44410019      43.64512636
Cl      47.65148446      37.98287925      37.35931857
Cl      41.49682433      35.54736527      39.77184901
Cl      50.46892086      28.09624410      48.41205149
Cl      41.36481961      34.63433485      52.85866673
Cl      47.62559049      35.36657085      52.01043483
Cl      51.60135041      35.70602715       0.06331696
Cl      52.51808775      38.59179636      41.21184440
Cl      47.65043962      38.88208138      48.53246602
Cl      41.20812930      38.68774033      48.97790285
Cl      47.55140655      36.55189679      44.49723477
Cl      43.62217400      26.77749973      37.55891110
Cl      45.19542793      39.66589635      41.81899285
Cl      47.65228400      31.57151450      50.09434174
Cl      40.43650085      31.22385390      47.28323195
Cl      39.96786999      28.36830340      51.81164184
Cl      47.79888020      32.77605648      42.71242259
Cl      51.48278329      28.65395476      38.82625580
Cl      50.01336872      38.86917982      52.81287529
Cl      41.88547008      31.19664252      37.87063208
Cl      44.63167535      32.80702930      40.67309237
Cl      45.27916084      29.70377801      38.59949126
Cl      42.72715126      27.91715778      46.34042499
Cl      46.87770000      32.91623825      36.87363858
Cl      51.58681345      35.59712711      43.77821227
Cl      40.66176293      38.36892652      36.16574170
Cl      44.31283428      36.36046313      35.70442203
Cl      52.17583309      32.45190034      40.92091128
Cl      43.83971968      33.54577968      48.85155239
Cl      45.84752891      36.28877773      39.88852027
Cl      51.01978096      37.57675280      47.77036564
Cl      44.85771607      37.09021876      47.91294904
Cl      51.07193233      32.09895192      36.36047888
Cl      43.63281325      39.80372494      50.88878686
Cl      50.30928681      36.49393064      39.97215627
Cl      46.13608766      28.55812890      48.16867848
Cl      40.12839079      34.96619559      48.51574851
Cl      40.98515951      33.50643902      44.20658028
Cl      52.05263231      27.39103414      44.46699789
Na      48.06173578      43.64248941      17.74894829
Na      49.66584441      49.22655551      10.00708178
Na      41.68669526      46.86810560      11.47538790
Na      43.69366861      43.50491521       5.44555184
Na      45.50300284      41.03671123       9.70706305
Na      52.85171109      47.16968402       2.18002865
Na      52.03273484      42.98477353      11.47989436
Na      49.28552107      45.02014848      12.60153022
Na      40.89897348      53.04169105       4.17333725
Na      43.02144302      49.16150259      10.66868327
Na      48.24147626      50.28975277       5.73821728
Na      46.12523945      47.81414401       6.96340478
Na      46.07860305      46.16322636      15.70505105
Na      43.45903292      52.21326577      11.83418442
Na      42.54258632      43.54343817      11.18309800
Na      50.33300024      45.09995641       3.88912748
Na      52.00602317      40.05166741      15.27596831
Na      40.79434368      43.77170486       6.34703748
Na      50.84942591      40.91074843       6.00183302
Na      46.47583470      48.49302935      11.56809739
Na      52.03736850      47.00829646      15.70141681
Na      45.18671483      45.14264057       7.98305172
Na      45.64001374      51.93242978      14.49484873
Na      43.73852424      47.82528296       2.47062257
Na      42.00020308      40.34938718      17.37365232
Na      42.07435068      40.54168396       8.05138757
Na      46.63704055      48.78457727       1.70207748
Na      45.06538569      50.83007357       7.90916760
Na      46.89439934      41.45563021       5.70084517
Na      49.39790998      47.34418211      15.79651278
Na      45.56397633      52.21571888       1.90812684
Na      49.37401484      40.96688837       2.83907406
Na      52.22616733      46.45842668      10.47730413
Na      49.34394150      50.64745296      14.49509102
Na      53.03987393      50.96753875       9.07422052
Na      49.64149500      50.13575180       1.27221943
Na      45.28316760      41.53314857      15.32624197
Na      42.39537229      46.57224203       6.32306360
Na      43.29886282      42.53064784       1.23495634
Na      49.36801835      44.64822932       7.33672615
Na      46.71778430      44.52329319       4.17021181
Na      48.27331222      41.98474847      14.35868583
Na      52.11850293      50.99097960       3.10980080
Na      42.02478872      45.73166021      15.79263626
Na      42.71490386      48.99069325      15.11315430
Na      52.55288561      48.55331233       5.76706104
Na      42.50700710      50.79173233       1.72041828
Na      52.58259553      50.78310101      14.56171877
Na      53.00416751      43.63280416       1.31844698
Na      49.67056892      52.84417004      11.38190310
Cl      47.45897871      41.55639863      17.20405440
Cl      50.27385296      44.05197754      10.19635306
Cl      41.90052493      41.71788614       4.86025730
Cl      44.64205111      47.32757363       9.28603621
Cl      46.34088624      43.20976940       7.54941406
Cl      49.01640551      43.36673228       4.51983792
Cl      50.88558661      45.98709286      13.93517559
Cl      48.63630931      53.02252043       6.71941394
Cl      48.68975083      48.05252298      12.25215850
Cl      43.41424089      43.74057758      15.89209333
Cl      42.33051926      50.80745042       8.75194813
Cl      42.91439645      43.73803361       8.19463724
Cl      47.65148446      51.27681267       1.90882946
Cl      41.49682433      48.84129869       4.32135990
Cl      50.46892086      41.39017752      12.96156238
Cl      41.36481961      47.92826827      17.40817761
Cl      47.62559049      48.66050427      16.55994572
Cl      51.60135041      48.99996057      17.78856152
Cl      52.51808775      51.88572978       5.76135528
Cl      47.65043962      52.17601480      13.08197690
Cl      41.20812930      51.98167375      13.52741373
Cl      47.55140655      49.84583021       9.04674566
Cl      43.62217400      40.07143314       2.10842198
Cl      45.19542793      52.95982977       6.36850373
Cl      47.65228400      44.86544791      14.64385262
Cl      40.43650085      44.51778732      11.83274284
Cl      39.96786999      41.66223682      16.36115272
Cl      47.79888020      46.06998990       7.26193347
Cl      51.48278329      41.94788818       3.37576668
Cl      50.01336872      52.16311324      17.36238617
Cl      41.88547008      44.49057594       2.42014296
Cl      44.63167535      46.10096272       5.22260326
Cl      45.27916084      42.99771143       3.14900215
Cl      42.72715126      41.21109120      10.88993587
Cl      46.87770000      46.21017167       1.42314947
Cl      51.58681345      48.89106053       8.32772315
Cl      40.66176293      51.66285994       0.71525258
Cl      44.31283428      49.65439655       0.25393291
Cl      52.17583309      45.74583376       5.47042216
Cl      43.83971968      46.83971310      13.40106328
Cl      45.84752891      49.58271114       4.43803115
Cl      51.01978096      50.87068622      12.31987652
Cl      44.85771607      50.38415218      12.46245992
Cl      51.07193233      45.39288534       0.90998976
Cl      43.63281325      53.09765836      15.43829774
Cl      50.30928681      49.78786406       4.52166716
Cl      46.13608766      41.85206232      12.71818936
Cl      40.12839079      48.26012901      13.06525939
Cl      40.98515951      46.80037243       8.75609116
Cl      52.05263231      40.68496756       9.01650877
Na      48.06173578      43.64248941      35.47419285
Na      49.66584441      49.22655551      27.73232633
Na      41.68669526      46.86810560      29.20063246
Na      43.69366861      43.50491521      23.17079640
Na      45.50300284      41.03671123      27.43230761
Na      52.85171109      47.16968402      19.90527321
Na      52.03273484      42.98477353      29.20513892
Na      49.28552107      45.02014848      30.32677477
Na      40.89897348      53.04169105      21.89858181
Na      43.02144302      49.16150259      28.39392783
Na      48.24147626      50.28975277      23.46346184
Na      46.12523945      47.81414401      24.68864934
Na      46.07860305      46.16322636      33.43029561
Na      43.45903292      52.21326577      29.55942898
Na      42.54258632      43.54343817      28.90834255
Na      50.33300024      45.09995641      21.61437204
Na      52.00602317      40.05166741      33.00121286
Na      40.79434368      43.77170486      24.07228204
Na      50.84942591      40.91074843      23.72707758
Na      46.47583470      48.49302935      29.29334195
Na      52.03736850      47.00829646      33.42666136
Na      45.18671483      45.14264057      25.70829628
Na      45.64001374      51.93242978      32.22009329
Na      43.73852424      47.82528296      20.19586713
Na      42.00020308      40.34938718      35.09889688
Na      42.07435068      40.54168396      25.77663213
Na      46.63704055      48.78457727      19.42732203
Na      45.06538569      50.83007357      25.63441215
Na      46.89439934      41.45563021      23.42608973
Na      49.39790998      47.34418211      33.52175734
Na      45.56397633      52.21571888      19.63337140
Na      49.37401484      40.96688837      20.56431862
Na      52.22616733      46.45842668      28.20254869
Na      49.34394150      50.64745296      32.22033557
Na      53.03987393      50.96753875      26.79946508
Na      49.64149500      50.13575180      18.99746399
Na      45.28316760      41.53314857      33.05148653
Na      42.39537229      46.57224203      24.04830816
Na      43.29886282      42.53064784      18.96020090
Na      49.36801835      44.64822932      25.06197071
Na      46.71778430      44.52329319      21.89545637
Na      48.27331222      41.98474847      32.08393039
Na      52.11850293      50.99097960      20.83504536
Na      42.02478872      45.73166021      33.51788082
Na      42.71490386      48.99069325      32.83839886
Na      52.55288561      48.55331233      23.49230560
Na      42.50700710      50.79173233      19.44566284
Na      52.58259553      50.78310101      32.28696333
Na      53.00416751      43.63280416      19.04369154
Na      49.67056892      52.84417004      29.10714766
Cl      47.45897871      41.55639863      34.92929895
Cl      50.27385296      44.05197754      27.92159762
Cl      41.90052493      41.71788614      22.58550185
Cl      44.64205111      47.32757363      27.01128077
Cl      46.34088624      43.20976940      25.27465862
Cl      49.01640551      43.36673228      22.24508248
Cl      50.88558661      45.98709286      31.66042015
Cl      48.63630931      53.02252043      24.44465850
Cl      48.68975083      48.05252298      29.97740306
Cl      43.41424089      43.74057758      33.61733789
Cl      42.33051926      50.80745042      26.47719268
Cl      42.91439645      43.73803361      25.91988180
Cl      47.65148446      51.27681267      19.63407402
Cl      41.49682433      48.84129869      22.04660446
Cl      50.46892086      41.39017752      30.68680693
Cl      41.36481961      47.92826827      35.13342217
Cl      47.62559049      48.66050427      34.28519027
Cl      51.60135041      48.99996057      35.51380608
Cl      52.51808775      51.88572978      23.48659984
Cl      47.65043962      52.17601480      30.80722146
Cl      41.20812930      51.98167375      31.25265829
Cl      47.55140655      49.84583021      26.77199022
Cl      43.62217400      40.07143314      19.83366654
Cl      45.19542793      52.95982977      24.09374829
Cl      47.65228400      44.86544791      32.36909718
Cl      40.43650085      44.51778732      29.55798739
Cl      39.96786999      41.66223682      34.08639728
Cl      47.79888020      46.06998990      24.98717803
Cl      51.48278329      41.94788818      21.10101124
Cl      50.01336872      52.16311324      35.08763073
Cl      41.88547008      44.49057594      20.14538752
Cl      44.63167535      46.10096272      22.94784781
Cl      45.27916084      42.99771143      20.87424671
Cl      42.72715126      41.21109120      28.61518043
Cl      46.87770000      46.21017167      19.14839402
Cl      51.58681345      48.89106053      26.05296771
Cl      40.66176293      51.66285994      18.44049714
Cl      44.31283428      49.65439655      17.97917747
Cl      52.17583309      45.74583376      23.19566672
Cl      43.83971968      46.83971310      31.12630784
Cl      45.84752891      49.58271114      22.16327571
Cl      51.01978096      50.87068622      30.04512108
Cl      44.85771607      50.38415218      30.18770448
Cl      51.07193233      45.39288534      18.63523432
Cl      43.63281325      53.09765836      33.16354230
Cl      50.30928681      49.78786406      22.24691172
Cl      46.13608766      41.85206232      30.44343392
Cl      40.12839079      48.26012901      30.79050395
Cl      40.98515951      46.80037243      26.48133572
Cl      52.05263231      40.68496756      26.74175333
Na      48.06173578      43.64248941       0.02370373
Na      49.66584441      49.22655551      45.45757089
Na      41.68669526      46.86810560      46.92587702
Na      43.69366861      43.50491521      40.89604095
Na      45.50300284      41.03671123      45.15755217
Na      52.85171109      47.16968402      37.63051777
Na      52.03273484      42.98477353      46.93038348
Na      49.28552107      45.02014848      48.05201933
Na      40.89897348      53.04169105      39.62382637
Na      43.02144302      49.16150259      46.11917239
Na      48.24147626      50.28975277      41.18870640
Na      46.12523945      47.81414401      42.41389390
Na      46.07860305      46.16322636      51.15554016
Na      43.45903292      52.21326577      47.28467353
Na      42.54258632      43.54343817      46.63358711
Na      50.33300024      45.09995641      39.33961660
Na      52.00602317      40.05166741      50.72645742
Na      40.79434368      43.77170486      41.79752659
Na      50.84942591      40.91074843      41.45232214
Na      46.47583470      48.49302935      47.01858651
Na      52.03736850      47.00829646      51.15190592
Na      45.18671483      45.14264057      43.43354084
Na      45.64001374      51.93242978      49.94533785
Na      43.73852424      47.82528296      37.92111169
Na      42.00020308      40.34938718      52.82414143
Na      42.07435068      40.54168396      43.50187668
Na      46.63704055      48.78457727      37.15256659
Na      45.06538569      50.83007357      43.35965671
Na      46.89439934      41.45563021      41.15133428
Na      49.39790998      47.34418211      51.24700190
Na      45.56397633      52.21571888      37.35861595
Na      49.37401484      40.96688837      38.28956318
Na      52.22616733      46.45842668      45.92779325
Na      49.34394150      50.64745296      49.94558013
Na      53.03987393      50.96753875      44.52470964
Na      49.64149500      50.13575180      36.72270855
Na      45.28316760      41.53314857      50.77673109
Na      42.39537229      46.57224203      41.77355272
Na      43.29886282      42.53064784      36.68544546
Na      49.36801835      44.64822932      42.78721527
Na      46.71778430      44.52329319      39.62070092
Na      48.27331222      41.98474847      49.80917495
Na      52.11850293      50.99097960      38.56028992
Na      42.02478872      45.73166021      51.24312538
Na      42.71490386      48.99069325      50.56364342
Na      52.55288561      48.55331233      41.21755016
Na      42.50700710      50.79173233      37.17090740
Na      52.58259553      50.78310101      50.01220789
Na      53.00416751      43.63280416      36.76893609
Na      49.67056892      52.84417004      46.83239222
Cl      47.45897871      41.55639863      52.65454351
Cl      50.27385296      44.05197754      45.64684217
Cl      41.90052493      41.71788614      40.31074641
Cl      44.64205111      47.32757363      44.73652533
Cl      46.34088624      43.20976940      42.99990318
Cl      49.01640551      43.36673228      39.97032704
Cl      50.88558661      45.98709286      49.38566471
Cl      48.63630931      53.02252043      42.16990306
Cl      48.68975083      48.05252298      47.70264761
Cl      43.41424089      43.74057758      51.34258244
Cl      42.33051926      50.80745042      44.20243724
Cl      42.91439645      43.73803361      43.64512636
Cl      47.65148446      51.27681267      37.35931857
Cl      41.49682433      48.84129869      39.77184901
Cl      50.46892086      41.39017752      48.41205149
Cl      41.36481961      47.92826827      52.85866673
Cl      47.62559049      48.66050427      52.01043483
Cl      51.60135041      48.99996057       0.06331696
Cl      52.51808775      51.88572978      41.21184440
Cl      47.65043962      52.17601480      48.53246602
Cl      41.20812930      51.98167375      48.97790285
Cl      47.55140655      49.84583021      44.49723477
Cl      43.62217400      40.07143314      37.55891110
Cl      45.19542793      52.95982977      41.81899285
Cl      47.65228400      44.86544791      50.09434174
Cl      40.43650085      44.51778732      47.28323195
Cl      39.96786999      41.66223682      51.81164184
Cl      47.79888020      46.06998990      42.71242259
Cl      51.48278329      41.94788818      38.82625580
Cl      50.01336872      52.16311324      52.81287529
Cl      41.88547008      44.49057594      37.87063208
Cl      44.63167535      46.10096272      40.67309237
Cl      45.27916084      42.99771143      38.59949126
Cl      42.72715126      41.21109120      46.34042499
Cl      46.87770000      46.21017167      36.87363858
Cl      51.58681345      48.89106053      43.77821227
Cl      40.66176293      51.66285994      36.16574170
Cl      44.31283428      49.65439655      35.70442203
Cl      52.17583309      45.74583376      40.92091128
Cl      43.83971968      46.83971310      48.85155239
Cl      45.84752891      49.58271114      39.88852027
Cl      51.01978096      50.87068622      47.77036564
Cl      44.85771607      50.38415218      47.91294904
Cl      51.07193233      45.39288534      36.36047888
Cl      43.63281325      53.09765836      50.88878686
Cl      50.30928681      49.78786406      39.97215627
Cl      46.13608766      41.85206232      48.16867848
Cl      40.12839079      48.26012901      48.51574851
Cl      40.98515951      46.80037243      44.20658028
Cl      52.05263231      40.68496756      44.46699789
