6400
Lattice="58.527468 0.0 0.0 0.0 58.527468 0.0 0.0 0.0 58.527468" Properties=species:S:1:pos:R:3:forces:R:3:energies:R:1 energy=-21660.3125 stress="0.007599326781928539 -0.00018473868840374053 0.0005335042951628566 -0.00018473868840374053 0.006483159959316254 0.0005472498014569283 0.0005335042951628566 0.0005472498014569283 0.010042771697044373" free_energy=-21660.3125 pbc="T T T"
Na      19.85482756       9.22100726      19.33341023       0.04212765      -0.01388013      -0.01321182      -3.22208500
Na      38.25806026      39.43551157      42.61249343      -0.00356009       0.00950432      -0.03653941      -3.34633851
Na      50.59389254      46.24765289      53.03560345      -0.05542528      -0.01902580       0.07114586      -3.33261895
Na      27.52006697      39.06230157      36.81330143      -0.02508416       0.01128458       0.01788243      -3.10017204
Na      52.71709019      30.07387395      31.11397340      -0.01845792       0.02571066      -0.00432458      -3.23844576
Na      42.82689521      10.81982685      29.02454196      -0.00441751      -0.01712631       0.05393567      -3.28085303
Na       0.80776546      21.61662706      25.76038229       0.07707686      -0.00757359      -0.00983552      -3.25330210
Na      28.86999576      48.58279602       7.64605130       0.06332654       0.02148194       0.00033738      -3.29521465
Na      50.86062020      52.20398023      15.98312125       0.03620033      -0.00837785      -0.04424487      -3.38134670
Na       4.94719801      13.46271562      14.63700541      -0.01691025      -0.01610566      -0.01674138      -3.18680191
Na      32.81274306      28.37804989      10.21112696       0.03494013      -0.02768133      -0.06609851      -3.12873483
Na       4.44557843      49.24856707      51.74199185       0.08168874      -0.01661690      -0.04156601      -3.30020070
Na       5.09214740      39.37187165      42.30990222       0.00551491      -0.01259305      -0.05055347      -3.31488419
Na      50.01940352      57.11467354       6.17241303      -0.08751903       0.07050550       0.08352304      -3.21136737
Na      27.84747375      21.42460592      33.32576144       0.02767119       0.05416615       0.02082420      -3.42169833
Na      41.54403863      11.59338588      25.59138959       0.00769705      -0.03888085       0.02122010      -3.32639837
Na      37.75764926       6.18953306      34.81360272      -0.00900435      -0.09757011      -0.03202694      -3.39683366
Na      15.47484129      44.79301031      21.09752060      -0.00486371      -0.01641310      -0.00414681      -3.29213715
Na      42.13433978       0.10350567      32.91805296      -0.01033221      -0.02491553      -0.00660250      -3.31325841
Na      37.09431898       2.66072520      28.09974807      -0.00687254      -0.01287501       0.04319425      -3.26384759
Na      45.92520424      52.26595570      50.69432075       0.03871159      -0.08044609       0.06850334      -3.26194406
Na      56.15111139      21.15475726      14.92501822       0.05124138       0.05361737      -0.00266760      -3.22338676
Na       1.11173055      28.52655869      14.45760640       0.03129505      -0.03726113      -0.00955455      -3.49193525
Na      51.84826695      35.27274599      40.74060878      -0.01876511      -0.02924708       0.02320546      -3.32216454
Na       3.56483389      10.95649127      16.79341614       0.02273089       0.01548884      -0.02632439      -3.22944951
Na      53.30680141       5.04771163      16.51173141       0.03185549       0.07004313      -0.01816100      -3.41883206
Na      33.24241593      32.01174042      27.70354724       0.04003002      -0.11179639       0.09603368      -3.17118931
Na      11.63740631       7.37028970      55.61016842       0.00163206       0.02197006      -0.05144962      -3.14315677
Na      45.65516530      51.37933989       0.99868361      -0.06684506       0.07333103       0.01891340      -3.34517980
Na      33.97876143       5.57183515       3.34042295      -0.00487657      -0.06377658      -0.05718134      -3.31457400
Na      40.94152366      47.29441520       4.54063479       0.05104180      -0.02873979      -0.00195642      -3.40151429
Na      40.61185074      53.51052864      47.09114871      -0.03862488      -0.00342165      -0.00034211      -3.36448574
Na      10.35222102      43.76196075      53.33363221       0.01291910      -0.00870502      -0.01743427      -3.29663491
Na       6.09796970      53.64656408      23.01549725      -0.05630887       0.02575887      -0.00059539      -3.26290369
Na      40.30075201      47.66934249      27.07891049       0.04035756      -0.01638734       0.02384317      -3.30690789
Na      44.04661569      11.53470016      47.26756110       0.05376054      -0.06686490       0.06669994      -3.29147363
Na      24.68401339      18.76029623      52.57351918       0.04315372       0.00848766       0.01300138      -3.34686375
Na      48.73743627      50.13083642      42.42416337      -0.06815846       0.00337417       0.03361953      -3.21867418
Na       0.18488592      47.17789141      44.92281894      -0.07088193      -0.03274566      -0.00049719      -3.25728416
Na       2.60316836      17.87641215      53.80407930       0.03964201       0.01182652       0.10226867      -3.16001272
Na       1.88597088      12.08006857       6.79737310       0.02144101      -0.02758960      -0.00455590      -3.20322776
Na       8.15157044      40.96252727      17.70752479      -0.03373472       0.00276731       0.01235748      -3.35298848
Na      40.84231410      14.56325273      28.17593328       0.03976760       0.01542464      -0.02090287      -3.34509468
Na      31.44970186      24.88739152      25.52897576      -0.09501503       0.01425383       0.08071325      -3.20653200
Na       8.52718073      30.93804436      49.69595683      -0.04924826       0.02973402      -0.02838375      -3.36724830
Na      14.28109822       1.04985710      11.08318166       0.00594506       0.02939413      -0.01050749      -3.27483821
Na       7.39869469      42.75200678      40.94763916      -0.00029231       0.00568864      -0.04272743      -3.17203188
Na      45.61854897      18.82668944      48.28413711      -0.03306341      -0.01404592      -0.08139939      -3.19239712
Na      48.68796904      45.34267421      17.70385728      -0.02801581       0.03798170       0.10845459      -3.10434365
Na      54.97401075      27.63706628       6.06572553       0.06993275      -0.03421951      -0.03567302      -3.17827582
Cl      48.01546498      47.50906555       5.39092331       0.03229067      -0.01773602      -0.19538450      -3.39880657
Cl      14.44878964      38.59174816       9.74115447      -0.02696297      -0.07449390       0.07253010      -3.47207904
Cl      44.65206093      35.58055952      34.85613311       0.03392349      -0.01837858      -0.02507107      -3.53671527
Cl      21.37086512      54.86546150      25.57844816      -0.02319023       0.02256848      -0.03148561      -3.31268668
Cl      48.00663839      37.39523381      16.95034805       0.01772948       0.06799026       0.01250575      -3.56859303
Cl       0.41452614      31.50554378       8.75795428       0.06205987       0.01185156      -0.02211187      -3.56248569
Cl      45.19191192      55.11620852      44.79901456      -0.00962642       0.00396910       0.01024374      -3.49645686
Cl      14.51930464      31.55279309      33.52181463      -0.01357510      -0.02861547       0.00774460      -3.52296925
Cl       5.41190733      36.73240983      35.92894042      -0.01947865       0.08612628       0.04854555      -3.47887659
Cl      39.31211582      35.81302240      24.50408320      -0.09895109       0.05623879      -0.02733786      -3.35641694
Cl      40.91385623      53.63865802      42.09823574       0.03717265      -0.01007905       0.03222452      -3.63277841
Cl      54.48306018      21.86335159       4.12894786      -0.01429348      -0.02858008      -0.05584422      -3.28428936
Cl      35.03602654       4.01774469      -0.04666068      -0.05335316       0.01592774      -0.01417308      -3.44021916
Cl       5.95101001      25.79319276      44.88391485      -0.01260319      -0.01374694      -0.05639704      -3.61602616
Cl      24.95633710      31.38790167      -0.07176206      -0.01457414      -0.02435472       0.01662885      -3.50028443
Cl      55.65897977       4.87797202      36.01802535       0.05450575       0.01124311       0.00220463      -3.37335086
Cl      32.74033012      12.30794826      41.72025739      -0.03441983       0.01195849      -0.00833046      -3.58151817
Cl      55.05822718       0.99197103      20.55872677       0.02022980      -0.01929655       0.02505769      -3.48248744
Cl       3.11228940      14.24057449      22.27673758       0.11851627       0.00571522      -0.10444853      -3.42256498
Cl      32.43838643      10.99487279      48.66899822      -0.05702765      -0.08862443      -0.03391234      -3.53279686
Cl      32.60560325      10.25220043      52.34606315      -0.09135194       0.07484987       0.05401129      -3.52646470
Cl      14.14394957      42.38613604      41.42926218       0.01718750       0.00745055      -0.01914575      -3.48180318
Cl      22.46224122      43.88064312      37.31968897      -0.02886059       0.03540389       0.05829536      -3.51605320
Cl      32.02568794       8.13279984      42.10481955      -0.04244871       0.02267769      -0.01131032      -3.58638382
Cl      27.22527494      19.23473678      31.40207831       0.06337313       0.01942471      -0.01783359      -3.51169658
Cl      36.99071055      33.24879002      36.43281286      -0.02854037      -0.01632321       0.04522087      -3.49152970
Cl      21.49017871      22.65425831      42.51018740      -0.00891145      -0.03504116      -0.03342150      -3.60686493
Cl       8.42119548      32.53499843      40.21572244       0.13573962       0.02914856       0.09229997      -3.58798265
Cl      41.00676201      16.39561519      10.79751011       0.01977063      -0.02714067      -0.00867897      -3.46430302
Cl       3.18233342      58.41151460      16.26158529       0.02087322       0.09748965      -0.02244198      -3.43896508
Cl      31.60285251      48.61732936      45.67002211       0.00286229       0.13601255      -0.01348761      -3.49981284
Cl      13.55978448      34.99199103      41.85971695      -0.04643824      -0.04319409       0.01515627      -3.54388332
Cl      36.49969816      20.95588141      47.00746102      -0.02222535      -0.00530916       0.01987811      -3.45018435
Cl      19.56899658      19.60893287      40.01692744       0.01753979      -0.02373247      -0.08903733      -3.35208893
Cl       9.10534872      46.82432839       3.47924725       0.02174156       0.03677782      -0.01381203      -3.47890735
Cl      36.44426319      29.37683262      14.14762723      -0.03825083      -0.01051719      -0.04234583      -3.56585336
Cl       4.67647577       1.41126555      10.78171611       0.01858972      -0.05842528       0.05442872      -3.57328963
Cl      45.74980628      49.64445478       8.96196166       0.01317701       0.00818811      -0.00844131      -3.50872827
Cl      26.25600458      41.32866621      37.69969869      -0.01814359      -0.03951773      -0.01241718      -3.54481220
Cl      42.53272673      28.54286528      44.97262966      -0.02425703       0.02292958       0.00567959      -3.37198472
Cl      53.74477570       5.88642908      13.79518129       0.03335463      -0.02090005       0.03171799      -3.58070087
Cl      14.38222275      27.87916566       5.45802693       0.00783329      -0.03857153       0.04166419      -3.55600071
Cl      23.89483802      24.42377555      16.03744267      -0.02253208      -0.00572158      -0.05791420      -3.38100314
Cl      43.02461574       8.36076353      30.72910057      -0.03195530       0.08063763       0.05153303      -3.50392842
Cl      28.36336114       9.62201276      19.69128290      -0.02971549      -0.02082001       0.06126579      -3.42129731
Cl       7.19434189      10.79192016      49.66252427      -0.06408821       0.06236828      -0.05088614      -3.47125435
Cl      53.91682548      13.05546757      55.80428987       0.00263183      -0.02204455      -0.02117593      -3.52582765
Cl      30.60483984      31.35425233      56.96054086      -0.03235641      -0.01762735       0.02591183      -3.46063852
Cl      10.80458935      12.35174188      32.82542006      -0.03447219       0.05332929      -0.04881703      -3.45600820
Cl      50.79460262      58.32920858       3.78885495       0.02607581       0.00162161       0.03742506      -3.58036423
Na      19.85482770       9.22100708      33.96527740       0.04212700      -0.01387920      -0.01321408      -3.22208524
Na      38.25806048      39.43551121      57.24436149      -0.00355962       0.00950431      -0.03654458      -3.34633780
Na      50.59389262      46.24765291       9.14000204      -0.05542668      -0.01902715       0.07114367      -3.33261967
Na      27.52006696      39.06230176      51.44516896      -0.02508323       0.01128606       0.01788587      -3.10017133
Na      52.71709025      30.07387399      45.74584021      -0.01845807       0.02570847      -0.00432645      -3.23844624
Na      42.82689506      10.81982681      43.65640879      -0.00441809      -0.01712613       0.05393479      -3.28085446
Na       0.80776537      21.61662705      40.39224929       0.07707635      -0.00757286      -0.00983517      -3.25330138
Na      28.86999575      48.58279591      22.27791830       0.06332733       0.02148077       0.00033800      -3.29521465
Na      50.86062023      52.20398015      30.61498818       0.03620002      -0.00837928      -0.04424434      -3.38134623
Na       4.94719809      13.46271556      29.26887245      -0.01690953      -0.01610450      -0.01674367      -3.18680191
Na      32.81274317      28.37805005      24.84299390       0.03493985      -0.02768061      -0.06610140      -3.12873483
Na       4.44557827      49.24856687       7.84639075       0.08168896      -0.01661739      -0.04156514      -3.30020046
Na       5.09214722      39.37187198      56.94176961       0.00551488      -0.01259315      -0.05055469      -3.31488395
Na      50.01940342      57.11467356      20.80428010      -0.08751700       0.07050305       0.08352332      -3.21136880
Na      27.84747369      21.42460594      47.95762851       0.02766793       0.05416576       0.02082001      -3.42169833
Na      41.54403861      11.59338574      40.22325656       0.00769814      -0.03888097       0.02122545      -3.32639837
Na      37.75764914       6.18953308      49.44546958      -0.00900470      -0.09757002      -0.03202774      -3.39683294
Na      15.47484127      44.79301049      35.72938780      -0.00486387      -0.01641588      -0.00415206      -3.29213715
Na      42.13433974       0.10350565      47.54992009      -0.01033299      -0.02491473      -0.00660401      -3.31325865
Na      37.09431897       2.66072518      42.73161506      -0.00687245      -0.01287767       0.04320119      -3.26384807
Na      45.92520424      52.26595560       6.79871961       0.03871125      -0.08044512       0.06850389      -3.26194453
Na      56.15111140      21.15475730      29.55688524       0.05124176       0.05361762      -0.00266728      -3.22338653
Na       1.11173049      28.52655871      29.08947341       0.03129679      -0.03726002      -0.00955502      -3.49193478
Na      51.84826682      35.27274573      55.37247620      -0.01876724      -0.02924618       0.02320942      -3.32216358
Na       3.56483392      10.95649130      31.42528334       0.02273031       0.01548792      -0.02632043      -3.22944951
Na      53.30680135       5.04771161      31.14359845       0.03185584       0.07004353      -0.01815975      -3.41883230
Na      33.24241584      32.01174031      42.33541424       0.04002808      -0.11179680       0.09603227      -3.17119002
Na      11.63740654       7.37028975      11.71456698       0.00163041       0.02196913      -0.05145264      -3.14315724
Na      45.65516514      51.37933996      15.63055062      -0.06684566       0.07333186       0.01891423      -3.34517884
Na      33.97876151       5.57183505      17.97228971      -0.00487648      -0.06377669      -0.05718105      -3.31457376
Na      40.94152355      47.29441522      19.17250193       0.05104173      -0.02874121      -0.00195774      -3.40151405
Na      40.61185062      53.51052872       3.19554711      -0.03862535      -0.00342225      -0.00034194      -3.36448574
Na      10.35222097      43.76196084       9.43803088       0.01292036      -0.00870414      -0.01743321      -3.29663515
Na       6.09796963      53.64656400      37.64736410      -0.05630899       0.02575866      -0.00059696      -3.26290369
Na      40.30075192      47.66934262      41.71077750       0.04035680      -0.01638806       0.02384587      -3.30690765
Na      44.04661569      11.53470007       3.37195965       0.05375904      -0.06686430       0.06670497      -3.29147339
Na      24.68401332      18.76029625       8.67791789       0.04315240       0.00848758       0.01300714      -3.34686399
Na      48.73743634      50.13083686      57.05603068      -0.06816551       0.00337437       0.03362067      -3.21867394
Na       0.18488616      47.17789090       1.02721783      -0.07088172      -0.03274583      -0.00049847      -3.25728416
Na       2.60316824      17.87641229       9.90847822       0.03964229       0.01182597       0.10227075      -3.16001272
Na       1.88597091      12.08006861      21.42924049       0.02144104      -0.02759035      -0.00455781      -3.20322800
Na       8.15157037      40.96252725      32.33939162      -0.03373416       0.00276776       0.01235929      -3.35298777
Na      40.84231412      14.56325254      42.80780021       0.03976758       0.01542616      -0.02090012      -3.34509587
Na      31.44970194      24.88739153      40.16084250      -0.09501565       0.01425349       0.08071303      -3.20653224
Na       8.52718083      30.93804448       5.80035542      -0.04924939       0.02973344      -0.02838179      -3.36724877
Na      14.28109824       1.04985707      25.71504875       0.00594423       0.02939383      -0.01050616      -3.27483797
Na       7.39869467      42.75200655      55.57950670      -0.00029374       0.00568827      -0.04272735      -3.17203212
Na      45.61854892      18.82668924       4.38853604      -0.03306285      -0.01404274      -0.08139659      -3.19239688
Na      48.68796885      45.34267433      32.33572425      -0.02801593       0.03798243       0.10845428      -3.10434318
Na      54.97401067      27.63706632      20.69759274       0.06993189      -0.03421726      -0.03567963      -3.17827559
Cl      48.01546482      47.50906557      20.02279012       0.03228987      -0.01773553      -0.19538543      -3.39880610
Cl      14.44878963      38.59174814      24.37302144      -0.02696361      -0.07449354       0.07253021      -3.47207928
Cl      44.65206065      35.58055977      49.48800011       0.03392532      -0.01837773      -0.02506847      -3.53671575
Cl      21.37086512      54.86546154      40.21031515      -0.02318926       0.02256716      -0.03148814      -3.31268787
Cl      48.00663841      37.39523383      31.58221511       0.01772969       0.06799041       0.01250558      -3.56859279
Cl       0.41452607      31.50554381      23.38982146       0.06205942       0.01185111      -0.02211015      -3.56248450
Cl      45.19191179      55.11620884       0.90341326      -0.00962633       0.00396815       0.01024261      -3.49645710
Cl      14.51930473      31.55279302      48.15368167      -0.01357488      -0.02861729       0.00774602      -3.52296948
Cl       5.41190733      36.73240982      50.56080740      -0.01947818       0.08612738       0.04854558      -3.47887635
Cl      39.31211595      35.81302258      39.13595000      -0.09894785       0.05624075      -0.02733164      -3.35641527
Cl      40.91385619      53.63865803      56.73010329       0.03717159      -0.01008007       0.03222781      -3.63277864
Cl      54.48306023      21.86335151      18.76081475      -0.01429488      -0.02858064      -0.05584298      -3.28428936
Cl      35.03602657       4.01774425      14.58520812      -0.05335288       0.01592771      -0.01417319      -3.44021964
Cl       5.95100986      25.79319250       0.98831334      -0.01260145      -0.01374793      -0.05639708      -3.61602688
Cl      24.95633719      31.38790133      14.56010600      -0.01457451      -0.02435547       0.01662906      -3.50028491
Cl      55.65897975       4.87797216      50.64989264       0.05450295       0.01124299       0.00220786      -3.37335062
Cl      32.74033049      12.30794848      56.35212505      -0.03441929       0.01196039      -0.00832866      -3.58151722
Cl      55.05822695       0.99197102      35.19059384       0.02022852      -0.01929710       0.02505875      -3.48248696
Cl       3.11228954      14.24057447      36.90860500       0.11851801       0.00571548      -0.10444403      -3.42256498
Cl      32.43838654      10.99487305       4.77339717      -0.05702842      -0.08862291      -0.03391083      -3.53279686
Cl      32.60560302      10.25220045       8.45046206      -0.09134993       0.07485013       0.05400826      -3.52646303
Cl      14.14394964      42.38613605      56.06112995       0.01718801       0.00745270      -0.01914242      -3.48180389
Cl      22.46224125      43.88064316      51.95155559      -0.02886006       0.03540390       0.05829744      -3.51605320
Cl      32.02568801       8.13279997      56.73668691      -0.04244806       0.02267713      -0.01130866      -3.58638287
Cl      27.22527491      19.23473675      46.03394521       0.06337368       0.01942486      -0.01783355      -3.51169443
Cl      36.99071063      33.24879016      51.06467984      -0.02853878      -0.01632321       0.04522518      -3.49152970
Cl      21.49017903      22.65425859      57.14205558      -0.00891072      -0.03503946      -0.03342092      -3.60686445
Cl       8.42119535      32.53499853      54.84758977       0.13573819       0.02914858       0.09228820      -3.58798409
Cl      41.00676210      16.39561514      25.42937695       0.01977088      -0.02713903      -0.00867696      -3.46430302
Cl       3.18233351      58.41151465      30.89345236       0.02087379       0.09749073      -0.02243978      -3.43896508
Cl      31.60285257      48.61732928       1.77442121       0.00286360       0.13601366      -0.01348963      -3.49981403
Cl      13.55978422      34.99199117      56.49158429      -0.04643526      -0.04320015       0.01515849      -3.54388356
Cl      36.49969829      20.95588162       3.11185910      -0.02222439      -0.00530849       0.01987895      -3.45018363
Cl      19.56899659      19.60893296      54.64879402       0.01753961      -0.02373303      -0.08903750      -3.35208774
Cl       9.10534861      46.82432839      18.11111471       0.02174223       0.03677827      -0.01381233      -3.47890735
Cl      36.44426326      29.37683262      28.77949419      -0.03825160      -0.01051799      -0.04234508      -3.56585336
Cl       4.67647591       1.41126560      25.41358313       0.01858968      -0.05842566       0.05442816      -3.57329059
Cl      45.74980621      49.64445477      23.59382852       0.01317625       0.00818833      -0.00844061      -3.50872803
Cl      26.25600446      41.32866645      52.33156532      -0.01814128      -0.03951968      -0.01241099      -3.54481101
Cl      42.53272647      28.54286545       1.07702839      -0.02425579       0.02292933       0.00567602      -3.37198353
Cl      53.74477579       5.88642904      28.42704831       0.03334587      -0.02089852       0.03171751      -3.58070183
Cl      14.38222275      27.87916549      20.08989431       0.00783294      -0.03857257       0.04166171      -3.55600071
Cl      23.89483801      24.42377561      30.66930968      -0.02253307      -0.00572057      -0.05791089      -3.38100290
Cl      43.02461564       8.36076345      45.36096763      -0.03195524       0.08063772       0.05153545      -3.50392652
Cl      28.36336109       9.62201285      34.32315011      -0.02971459      -0.02081907       0.06126170      -3.42129660
Cl       7.19434188      10.79192024       5.76692301      -0.06408796       0.06236590      -0.05088655      -3.47125483
Cl      53.91682561      13.05546740      11.90868845       0.00263283      -0.02204551      -0.02117459      -3.52582693
Cl      30.60483981      31.35425241      13.06493886      -0.03235665      -0.01762715       0.02591229      -3.46063852
Cl      10.80458930      12.35174202      47.45728714      -0.03447049       0.05333005      -0.04881603      -3.45600820
Cl      50.79460251      58.32920866      18.42072241       0.02607502       0.00162194       0.03742484      -3.58036423
Na      19.85482751       9.22100720      48.59714411       0.04212835      -0.01387834      -0.01321339      -3.22208452
Na      38.25806024      39.43551151      13.34875961      -0.00355947       0.00950426      -0.03654385      -3.34633756
Na      50.59389249      46.24765307      23.77186917      -0.05542714      -0.01902693       0.07114209      -3.33261943
Na      27.52006685      39.06230154       7.54956720      -0.02508323       0.01128539       0.01788221      -3.10017228
Na      52.71708987      30.07387438       1.85023865      -0.01845772       0.02571075      -0.00432387      -3.23844600
Na      42.82689530      10.81982674      58.28827670      -0.00441772      -0.01712653       0.05393568      -3.28085351
Na       0.80776538      21.61662708      55.02411689       0.07707623      -0.00757299      -0.00983471      -3.25330210
Na      28.86999575      48.58279579      36.90978534       0.06332617       0.02148265       0.00033650      -3.29521441
Na      50.86062031      52.20398023      45.24685533       0.03620034      -0.00837636      -0.04424725      -3.38134694
Na       4.94719801      13.46271552      43.90073946      -0.01691222      -0.01610561      -0.01673897      -3.18680215
Na      32.81274304      28.37804988      39.47486097       0.03494017      -0.02768004      -0.06610094      -3.12873507
Na       4.44557824      49.24856685      22.47825783       0.08168892      -0.01661821      -0.04156455      -3.30020046
Na       5.09214735      39.37187172      13.04616819       0.00551475      -0.01259261      -0.05055576      -3.31488442
Na      50.01940346      57.11467343      35.43614710      -0.08752000       0.07050497       0.08352485      -3.21136761
Na      27.84747376      21.42460596       4.06202722       0.02767040       0.05416637       0.02082221      -3.42169833
Na      41.54403865      11.59338588      54.85512404       0.00769602      -0.03887974       0.02121315      -3.32639861
Na      37.75764920       6.18953298       5.54986838      -0.00900541      -0.09757017      -0.03202951      -3.39683247
Na      15.47484133      44.79301050      50.36125505      -0.00486449      -0.01641355      -0.00414936      -3.29213691
Na      42.13433969       0.10350549       3.65431870      -0.01033359      -0.02491418      -0.00660493      -3.31325841
Na      37.09431908       2.66072524      57.36348267      -0.00687248      -0.01287604       0.04319788      -3.26384783
Na      45.92520430      52.26595570      21.43058663       0.03871278      -0.08044521       0.06850436      -3.26194382
Na      56.15111146      21.15475713      44.18875225       0.05124044       0.05361572      -0.00266252      -3.22338724
Na       1.11173053      28.52655863      43.72134057       0.03129511      -0.03726096      -0.00955369      -3.49193525
Na      51.84826717      35.27274610      11.47687457      -0.01876964      -0.02924715       0.02320793      -3.32216454
Na       3.56483383      10.95649119      46.05715025       0.02273157       0.01548932      -0.02632581      -3.22944999
Na      53.30680146       5.04771159      45.77546548       0.03185618       0.07004437      -0.01816380      -3.41883278
Na      33.24241595      32.01174034      56.96728135       0.04002958      -0.11179744       0.09603320      -3.17118859
Na      11.63740648       7.37028968      26.34643388       0.00163176       0.02197047      -0.05145128      -3.14315701
Na      45.65516512      51.37933987      30.26241765      -0.06684601       0.07333143       0.01891490      -3.34517932
Na      33.97876154       5.57183505      32.60415669      -0.00487693      -0.06377648      -0.05718019      -3.31457376
Na      40.94152349      47.29441522      33.80436904       0.05104214      -0.02874083      -0.00196112      -3.40151405
Na      40.61185076      53.51052882      17.82741459      -0.03862513      -0.00342172      -0.00034240      -3.36448526
Na      10.35222102      43.76196080      24.06989807       0.01291871      -0.00870432      -0.01743418      -3.29663563
Na       6.09796967      53.64656413      52.27923118      -0.05630907       0.02575909      -0.00059649      -3.26290345
Na      40.30075190      47.66934251      56.34264493       0.04035649      -0.01638533       0.02384866      -3.30690789
Na      44.04661574      11.53470000      18.00382682       0.05375890      -0.06686292       0.06670755      -3.29147339
Na      24.68401336      18.76029632      23.30978508       0.04315293       0.00848705       0.01300433      -3.34686470
Na      48.73743616      50.13083654      13.16042974      -0.06815884       0.00337427       0.03361897      -3.21867347
Na       0.18488596      47.17789140      15.65908494      -0.07088128      -0.03274599      -0.00049780      -3.25728369
Na       2.60316829      17.87641230      24.54034528       0.03964169       0.01182653       0.10226904      -3.16001248
Na       1.88597086      12.08006863      36.06110736       0.02144054      -0.02759062      -0.00455581      -3.20322824
Na       8.15157031      40.96252747      46.97125891      -0.03373443       0.00276731       0.01235611      -3.35298824
Na      40.84231391      14.56325274      57.43966789       0.03976767       0.01542719      -0.02090034      -3.34509516
Na      31.44970219      24.88739141      54.79270979      -0.09501511       0.01425300       0.08071457      -3.20653200
Na       8.52718064      30.93804437      20.43222268      -0.04924978       0.02973326      -0.02838008      -3.36724854
Na      14.28109823       1.04985719      40.34691570       0.00594545       0.02939543      -0.01050968      -3.27483797
Na       7.39869461      42.75200672      11.68390521      -0.00029351       0.00568556      -0.04272917      -3.17203188
Na      45.61854894      18.82668938      19.02040296      -0.03306406      -0.01404431      -0.08139593      -3.19239664
Na      48.68796898      45.34267412      46.96759123      -0.02801540       0.03798129       0.10845409      -3.10434437
Na      54.97401073      27.63706651      35.32945968       0.06993344      -0.03422033      -0.03567576      -3.17827487
Cl      48.01546502      47.50906558      34.65465739       0.03228977      -0.01773570      -0.19538544      -3.39880586
Cl      14.44878959      38.59174829      39.00488838      -0.02696078      -0.07449453       0.07253425      -3.47207928
Cl      44.65206056      35.58055946       5.59239869       0.03392353      -0.01837864      -0.02507220      -3.53671527
Cl      21.37086494      54.86546147      54.84218242      -0.02318927       0.02256801      -0.03148783      -3.31268764
Cl      48.00663823      37.39523374      46.21408205       0.01772992       0.06798981       0.01250672      -3.56859303
Cl       0.41452622      31.50554374      38.02168846       0.06205760       0.01185168      -0.02210325      -3.56248617
Cl      45.19191189      55.11620850      15.53528068      -0.00962552       0.00396812       0.01024390      -3.49645758
Cl      14.51930463      31.55279311       4.25808030      -0.01357547      -0.02861628       0.00774555      -3.52296972
Cl       5.41190733      36.73240966       6.66520625      -0.01947737       0.08613007       0.04854095      -3.47887635
Cl      39.31211606      35.81302243      53.76781729      -0.09895006       0.05623760      -0.02733941      -3.35641766
Cl      40.91385609      53.63865791      12.83450173       0.03717119      -0.01008012       0.03222724      -3.63277864
Cl      54.48306018      21.86335151      33.39268162      -0.01429474      -0.02858022      -0.05584371      -3.28428936
Cl      35.03602651       4.01774422      29.21707516      -0.05335350       0.01592770      -0.01417422      -3.44021988
Cl       5.95100995      25.79319270      15.62018089      -0.01259997      -0.01374821      -0.05639699      -3.61602688
Cl      24.95633721      31.38790133      29.19197296      -0.01457463      -0.02435437       0.01663020      -3.50028515
Cl      55.65897976       4.87797191       6.75429140       0.05450368       0.01124182       0.00219974      -3.37335038
Cl      32.74033003      12.30794821      12.45652352      -0.03441900       0.01196032      -0.00833148      -3.58151770
Cl      55.05822703       0.99197093      49.82246070       0.02022846      -0.01929736       0.02505954      -3.48248696
Cl       3.11228930      14.24057446      51.54047166       0.11851828       0.00571562      -0.10444347      -3.42256498
Cl      32.43838641      10.99487290      19.40526437      -0.05702937      -0.08862269      -0.03390842      -3.53279686
Cl      32.60560306      10.25220044      23.08232904      -0.09135021       0.07484981       0.05400981      -3.52646255
Cl      14.14394945      42.38613594      12.16552821       0.01718871       0.00745182      -0.01914234      -3.48180318
Cl      22.46224122      43.88064311       8.05595452      -0.02886066       0.03540379       0.05829747      -3.51605225
Cl      32.02568783       8.13279985      12.84108549      -0.04244843       0.02267721      -0.01130887      -3.58638334
Cl      27.22527479      19.23473679       2.13834384       0.06337404       0.01942247      -0.01782950      -3.51169443
Cl      36.99071057      33.24879000       7.16907849      -0.02854004      -0.01632277       0.04522134      -3.49152970
Cl      21.49017880      22.65425830      13.24645339      -0.00891173      -0.03504191      -0.03341898      -3.60686445
Cl       8.42119544      32.53499839      10.95198825       0.13573992       0.02914862       0.09229470      -3.58798361
Cl      41.00676212      16.39561535      40.06124412       0.01977098      -0.02714257      -0.00868069      -3.46430230
Cl       3.18233334      58.41151462      45.52531929       0.02087607       0.09749093      -0.02244022      -3.43896413
Cl      31.60285243      48.61732927      16.40628825       0.00286288       0.13601325      -0.01348983      -3.49981380
Cl      13.55978437      34.99199108      12.59598295      -0.04643659      -0.04320121       0.01515996      -3.54388332
Cl      36.49969809      20.95588156      17.74372674      -0.02222460      -0.00530820       0.01987881      -3.45018387
Cl      19.56899653      19.60893281      10.75319299       0.01753830      -0.02373392      -0.08903913      -3.35208797
Cl       9.10534866      46.82432822      32.74298210       0.02174216       0.03677747      -0.01380850      -3.47890687
Cl      36.44426317      29.37683259      43.41136119      -0.03825080      -0.01051675      -0.04234678      -3.56585336
Cl       4.67647567       1.41126559      40.04545047       0.01859033      -0.05842562       0.05442574      -3.57329059
Cl      45.74980623      49.64445473      38.22569584       0.01317486       0.00818866      -0.00844271      -3.50872922
Cl      26.25600453      41.32866649       8.43596433      -0.01814207      -0.03951945      -0.01241339      -3.54481101
Cl      42.53272672      28.54286525      15.70889555      -0.02425677       0.02292894       0.00568008      -3.37198544
Cl      53.74477571       5.88642910      43.05891531       0.03335515      -0.02090061       0.03171845      -3.58070064
Cl      14.38222272      27.87916538      34.72176133       0.00783468      -0.03857139       0.04166605      -3.55600023
Cl      23.89483798      24.42377558      45.30117665      -0.02253366      -0.00572174      -0.05791738      -3.38100171
Cl      43.02461575       8.36076334       1.46536604      -0.03195598       0.08063763       0.05153376      -3.50392771
Cl      28.36336110       9.62201282      48.95501659      -0.02971441      -0.02081950       0.06126353      -3.42129707
Cl       7.19434188      10.79192022      20.39879026      -0.06408802       0.06236596      -0.05088658      -3.47125483
Cl      53.91682567      13.05546740      26.54055546       0.00263296      -0.02204556      -0.02117413      -3.52582741
Cl      30.60483980      31.35425239      27.69680582      -0.03235644      -0.01762723       0.02591264      -3.46063876
Cl      10.80458927      12.35174164       3.56168590      -0.03447165       0.05332900      -0.04881740      -3.45600820
Cl      50.79460259      58.32920874      33.05258910       0.02607573       0.00162173       0.03742453      -3.58036470
Na      19.85482751       9.22100732       4.70154310       0.04212849      -0.01387907      -0.01321153      -3.22208524
Na      38.25806031      39.43551154      27.98062660      -0.00355912       0.00950455      -0.03654495      -3.34633732
Na      50.59389275      46.24765314      38.40373577      -0.05542804      -0.01902701       0.07114415      -3.33261943
Na      27.52006688      39.06230158      22.18143457      -0.02508268       0.01128507       0.01788062      -3.10017204
Na      52.71709023      30.07387412      16.48210628      -0.01845831       0.02571012      -0.00432513      -3.23844624
Na      42.82689523      10.81982681      14.39267501      -0.00441725      -0.01712648       0.05393498      -3.28085303
Na       0.80776542      21.61662706      11.12851521       0.07707666      -0.00757324      -0.00983556      -3.25330257
Na      28.86999587      48.58279590      51.54165220       0.06332669       0.02148193       0.00033636      -3.29521418
Na      50.86061976      52.20397997       1.35125344       0.03619955      -0.00837795      -0.04424497      -3.38134670
Na       4.94719824      13.46271566       0.00513777      -0.01691181      -0.01610751      -0.01674061      -3.18680191
Na      32.81274324      28.37804987      54.10672825       0.03494039      -0.02768045      -0.06610017      -3.12873459
Na       4.44557836      49.24856692      37.11012464       0.08168955      -0.01661500      -0.04156664      -3.30019975
Na       5.09214732      39.37187165      27.67803513       0.00551533      -0.01259238      -0.05055689      -3.31488395
Na      50.01940356      57.11467348      50.06801408      -0.08752018       0.07050534       0.08352490      -3.21136713
Na      27.84747377      21.42460594      18.69389453       0.02766911       0.05416695       0.02082151      -3.42169785
Na      41.54403854      11.59338582      10.95952247       0.00769701      -0.03888085       0.02121941      -3.32639861
Na      37.75764917       6.18953301      20.18173560      -0.00900514      -0.09757021      -0.03202909      -3.39683294
Na      15.47484103      44.79301035       6.46565370      -0.00486414      -0.01641285      -0.00414772      -3.29213691
Na      42.13433986       0.10350553      18.28618608      -0.01033295      -0.02491513      -0.00660461      -3.31325841
Na      37.09431903       2.66072512      13.46788113      -0.00687265      -0.01287601       0.04319622      -3.26384759
Na      45.92520436      52.26595571      36.06245371       0.03871116      -0.08044562       0.06850283      -3.26194429
Na      56.15111147      21.15475687       0.29315045       0.05124162       0.05361486      -0.00266774      -3.22338748
Na       1.11173060      28.52655872      58.35320819       0.03129425      -0.03726057      -0.00955126      -3.49193478
Na      51.84826706      35.27274606      26.10874154      -0.01876611      -0.02924677       0.02320619      -3.32216454
Na       3.56483365      10.95649131       2.16154882       0.02273186       0.01548874      -0.02632105      -3.22944975
Na      53.30680150       5.04771155       1.87986374       0.03185544       0.07004288      -0.01816019      -3.41883230
Na      33.24241584      32.01174041      13.07168033       0.04002925      -0.11179695       0.09603244      -3.17118979
Na      11.63740640       7.37028988      40.97830094       0.00162598       0.02196630      -0.05145814      -3.14315677
Na      45.65516506      51.37933992      44.89428477      -0.06684635       0.07333144       0.01891534      -3.34518003
Na      33.97876151       5.57183496      47.23602363      -0.00487804      -0.06377717      -0.05718045      -3.31457400
Na      40.94152353      47.29441527      48.43623565       0.05104234      -0.02874159      -0.00196114      -3.40151405
Na      40.61185085      53.51052888      32.45928174      -0.03862486      -0.00342170      -0.00034120      -3.36448574
Na      10.35222090      43.76196075      38.70176490       0.01292104      -0.00870298      -0.01742936      -3.29663515
Na       6.09796977      53.64656407       8.38363025      -0.05630918       0.02575867      -0.00059516      -3.26290321
Na      40.30075199      47.66934249      12.44704348       0.04035680      -0.01638654       0.02384469      -3.30690718
Na      44.04661569      11.53470014      32.63569407       0.05375817      -0.06686541       0.06670740      -3.29147267
Na      24.68401339      18.76029625      37.94165198       0.04315239       0.00848801       0.01300742      -3.34686422
Na      48.73743621      50.13083643      27.79229667      -0.06815888       0.00337392       0.03361834      -3.21867347
Na       0.18488586      47.17789142      30.29095199      -0.07088087      -0.03274519      -0.00049823      -3.25728369
Na       2.60316825      17.87641229      39.17221225       0.03964287       0.01182507       0.10227188      -3.16001153
Na       1.88597098      12.08006863      50.69297482       0.02144063      -0.02759023      -0.00455482      -3.20322776
Na       8.15157048      40.96252721       3.07565734      -0.03373385       0.00276740       0.01235800      -3.35298777
Na      40.84231407      14.56325269      13.54406622       0.03976762       0.01542544      -0.02090216      -3.34509468
Na      31.44970192      24.88739150      10.89710865      -0.09501565       0.01425363       0.08071466      -3.20653224
Na       8.52718071      30.93804450      35.06408934      -0.04924795       0.02973391      -0.02838399      -3.36724830
Na      14.28109817       1.04985711      54.97878315       0.00594507       0.02939371      -0.01050633      -3.27483797
Na       7.39869466      42.75200671      26.31577218      -0.00029328       0.00568692      -0.04272962      -3.17203212
Na      45.61854896      18.82668926      33.65226994      -0.03306300      -0.01404288      -0.08139937      -3.19239664
Na      48.68796842      45.34267366       3.07199024      -0.02801665       0.03798174       0.10845356      -3.10434365
Na      54.97401074      27.63706623      49.96132682       0.06993271      -0.03421875      -0.03567581      -3.17827559
Cl      48.01546490      47.50906546      49.28652431       0.03228982      -0.01773505      -0.19538532      -3.39880514
Cl      14.44878977      38.59174822      53.63675545      -0.02696426      -0.07449457       0.07252859      -3.47207904
Cl      44.65206083      35.58055965      20.22426592       0.03392385      -0.01837968      -0.02507275      -3.53671527
Cl      21.37086509      54.86546148      10.94658103      -0.02318989       0.02256881      -0.03148730      -3.31268716
Cl      48.00663815      37.39523385       2.31848105       0.01772941       0.06799063       0.01250482      -3.56859303
Cl       0.41452605      31.50554368      52.65355580       0.06206016       0.01185555      -0.02211097      -3.56248498
Cl      45.19191186      55.11620852      30.16714771      -0.00962754       0.00396806       0.01023898      -3.49645829
Cl      14.51930476      31.55279299      18.88994767      -0.01357740      -0.02861675       0.00774450      -3.52297020
Cl       5.41190730      36.73240963      21.29707345      -0.01947761       0.08612964       0.04854172      -3.47887659
Cl      39.31211586      35.81302252       9.87221624      -0.09894975       0.05623847      -0.02733603      -3.35641623
Cl      40.91385613      53.63865790      27.46636880       0.03717191      -0.01008040       0.03222306      -3.63277864
Cl      54.48306031      21.86335153      48.02454867      -0.01429455      -0.02858004      -0.05584201      -3.28428960
Cl      35.03602650       4.01774426      43.84894208      -0.05335230       0.01592777      -0.01417404      -3.44021988
Cl       5.95100983      25.79319274      30.25204786      -0.01259984      -0.01374785      -0.05639710      -3.61602712
Cl      24.95633713      31.38790139      43.82384034      -0.01457415      -0.02435368       0.01662624      -3.50028348
Cl      55.65897978       4.87797203      21.38615820       0.05450324       0.01124234       0.00220344      -3.37335038
Cl      32.74033014      12.30794811      27.08839058      -0.03441828       0.01195901      -0.00832919      -3.58151770
Cl      55.05822700       0.99197098       5.92685960       0.02022976      -0.01929666       0.02505851      -3.48248696
Cl       3.11228930      14.24057448       7.64487050       0.11851667       0.00571474      -0.10444766      -3.42256498
Cl      32.43838637      10.99487277      34.03713127      -0.05702659      -0.08862394      -0.03391576      -3.53279686
Cl      32.60560300      10.25220050      37.71419636      -0.09135160       0.07485031       0.05401231      -3.52646470
Cl      14.14394949      42.38613603      26.79739506       0.01718823       0.00745089      -0.01914239      -3.48180318
Cl      22.46224119      43.88064306      22.68782161      -0.02886037       0.03540412       0.05829772      -3.51605201
Cl      32.02568784       8.13279987      27.47295240      -0.04244804       0.02267705      -0.01130808      -3.58638310
Cl      27.22527490      19.23473682      16.77021121       0.06337368       0.01942190      -0.01782800      -3.51169538
Cl      36.99071054      33.24879003      21.80094563      -0.02853975      -0.01632255       0.04522172      -3.49152923
Cl      21.49017874      22.65425837      27.87832042      -0.00891311      -0.03504199      -0.03341922      -3.60686469
Cl       8.42119548      32.53499847      25.58385540       0.13573951       0.02914864       0.09229729      -3.58798361
Cl      41.00676183      16.39561540      54.69311123       0.01977679      -0.02714172      -0.00867865      -3.46430206
Cl       3.18233331      58.41151442       1.62971755       0.02087367       0.09748964      -0.02244277      -3.43896413
Cl      31.60285234      48.61732924      31.03815518       0.00286224       0.13601257      -0.01348797      -3.49981356
Cl      13.55978429      34.99199119      27.22784982      -0.04643570      -0.04320051       0.01515907      -3.54388285
Cl      36.49969816      20.95588174      32.37559369      -0.02222479      -0.00530766       0.01987494      -3.45018435
Cl      19.56899652      19.60893289      25.38506007       0.01753845      -0.02373372      -0.08903757      -3.35208917
Cl       9.10534869      46.82432856      47.37484872       0.02174126       0.03677805      -0.01380611      -3.47890687
Cl      36.44426323      29.37683250      58.04322899      -0.03825178      -0.01051804      -0.04234516      -3.56585383
Cl       4.67647558       1.41126594      54.67731723       0.01859064      -0.05842588       0.05442610      -3.57329035
Cl      45.74980619      49.64445476      52.85756262       0.01317457       0.00818760      -0.00844223      -3.50872827
Cl      26.25600447      41.32866646      23.06783134      -0.01814218      -0.03951963      -0.01241211      -3.54481101
Cl      42.53272669      28.54286526      30.34076263      -0.02425643       0.02292935       0.00567882      -3.37198544
Cl      53.74477585       5.88642907      57.69078325       0.03334656      -0.02089865       0.03171526      -3.58070064
Cl      14.38222272      27.87916532      49.35362825       0.00783166      -0.03857137       0.04166189      -3.55600095
Cl      23.89483811      24.42377568       1.40557512      -0.02253266      -0.00572386      -0.05791361      -3.38100338
Cl      43.02461578       8.36076351      16.09723366      -0.03195548       0.08063776       0.05153454      -3.50392795
Cl      28.36336117       9.62201276       5.05941572      -0.02971477      -0.02081988       0.06126421      -3.42129707
Cl       7.19434175      10.79192011      35.03065725      -0.06408747       0.06236885      -0.05088705      -3.47125483
Cl      53.91682560      13.05546736      41.17242256       0.00263304      -0.02204537      -0.02117748      -3.52582598
Cl      30.60483981      31.35425237      42.32867278      -0.03235798      -0.01762778       0.02591189      -3.46063900
Cl      10.80458926      12.35174201      18.19355325      -0.03447248       0.05332793      -0.04882201      -3.45600820
Cl      50.79460257      58.32920868      47.68445619       0.02607574       0.00162162       0.03742672      -3.58036470
Na      19.85482750      23.85287420      19.33341017       0.04212910      -0.01388022      -0.01321068      -3.22208452
Na      38.25806034      54.06737819      42.61249345      -0.00355935       0.00950566      -0.03654019      -3.34633851
Na      50.59389283       2.35205163      53.03560332      -0.05542795      -0.01902323       0.07114666      -3.33262014
Na      27.52006676      53.69416870      36.81330130      -0.02508417       0.01128642       0.01788440      -3.10017252
Na      52.71709003      44.70574083      31.11397325      -0.01845936       0.02570765      -0.00432501      -3.23844528
Na      42.82689525      25.45169379      29.02454200      -0.00441780      -0.01712638       0.05393523      -3.28085303
Na       0.80776546      36.24849401      25.76038263       0.07707658      -0.00757309      -0.00983580      -3.25330210
Na      28.86999598       4.68719457       7.64605134       0.06332674       0.02148040       0.00033710      -3.29521465
Na      50.86062023       8.30837920      15.98312113       0.03619889      -0.00837978      -0.04424367      -3.38134670
Na       4.94719795      28.09458268      14.63700536      -0.01690967      -0.01610925      -0.01674113      -3.18680191
Na      32.81274305      43.00991668      10.21112693       0.03494076      -0.02768322      -0.06609650      -3.12873411
Na       4.44557839       5.35296584      51.74199191       0.08168964      -0.01661959      -0.04156489      -3.30020070
Na       5.09214751      54.00373864      42.30990218       0.00551551      -0.01259173      -0.05055285      -3.31488442
Na      50.01940259      13.21907185       6.17241323      -0.08751632       0.07050311       0.08352110      -3.21136856
Na      27.84747364      36.05647285      33.32576135       0.02767070       0.05416653       0.02082382      -3.42169929
Na      41.54403858      26.22525292      25.59138958       0.00769655      -0.03888019       0.02122010      -3.32639861
Na      37.75764925      20.82140025      34.81360243      -0.00900398      -0.09756991      -0.03202733      -3.39683294
Na      15.47484086       0.89740843      21.09752106      -0.00486442      -0.01641028      -0.00414596      -3.29213738
Na      42.13433942      14.73537321      32.91805316      -0.01033242      -0.02491568      -0.00660178      -3.31325889
Na      37.09431922      17.29259283      28.09974837      -0.00687323      -0.01287620       0.04319588      -3.26384759
Na      45.92520434       8.37035448      50.69432073       0.03871424      -0.08044346       0.06850451      -3.26194286
Na      56.15111124      35.78662425      14.92501824       0.05124255       0.05361345      -0.00266656      -3.22338724
Na       1.11173056      43.15842572      14.45760639       0.03129639      -0.03726079      -0.00955483      -3.49193478
Na      51.84826688      49.90461319      40.74060881      -0.01876739      -0.02924550       0.02320834      -3.32216430
Na       3.56483390      25.58835820      16.79341624       0.02273061       0.01548890      -0.02632516      -3.22944951
Na      53.30680156      19.67957910      16.51173125       0.03185585       0.07004341      -0.01816159      -3.41883230
Na      33.24241575      46.64360733      27.70354715       0.04003073      -0.11179731       0.09603369      -3.17118907
Na      11.63740637      22.00215710      55.61016860       0.00163232       0.02196882      -0.05145033      -3.14315677
Na      45.65516539       7.48373882       0.99868362      -0.06684420       0.07333233       0.01891375      -3.34518003
Na      33.97876158      20.20370237       3.34042279      -0.00487765      -0.06377841      -0.05718146      -3.31457424
Na      40.94152373       3.39881356       4.54063462       0.05104151      -0.02874096      -0.00195719      -3.40151477
Na      40.61185083       9.61492729      47.09114870      -0.03862470      -0.00342028      -0.00034224      -3.36448526
Na      10.35222089      58.39382841      53.33363224       0.01292122      -0.00870597      -0.01743330      -3.29663491
Na       6.09796973       9.75096314      23.01549727      -0.05630936       0.02575843      -0.00059457      -3.26290369
Na      40.30075180       3.77374109      27.07891072       0.04035792      -0.01638916       0.02384398      -3.30690789
Na      44.04661566      26.16656716      47.26756113       0.05375992      -0.06686437       0.06669980      -3.29147267
Na      24.68401345      33.39216332      52.57351919       0.04315356       0.00848921       0.01300143      -3.34686375
Na      48.73743628       6.23523528      42.42416340      -0.06815732       0.00337576       0.03361923      -3.21867442
Na       0.18488589       3.28229024      44.92281858      -0.07088227      -0.03274433      -0.00049723      -3.25728345
Na       2.60316832      32.50827903      53.80407930       0.03964191       0.01182799       0.10226814      -3.16001248
Na       1.88597089      26.71193559       6.79737308       0.02144143      -0.02758696      -0.00455548      -3.20322776
Na       8.15157097      55.59439472      17.70752474      -0.03373586       0.00276984       0.01235858      -3.35298824
Na      40.84231412      29.19511966      28.17593326       0.03976678       0.01542368      -0.02090269      -3.34509492
Na      31.44970185      39.51925852      25.52897564      -0.09501605       0.01425113       0.08071209      -3.20653248
Na       8.52718060      45.56991144      49.69595685      -0.04924825       0.02973067      -0.02838300      -3.36724830
Na      14.28109814      15.68172486      11.08318171       0.00594512       0.02939386      -0.01050695      -3.27483869
Na       7.39869501      57.38387320      40.94763930      -0.00028983       0.00569119      -0.04272598      -3.17203140
Na      45.61854895      33.45855573      48.28413693      -0.03306264      -0.01404777      -0.08139975      -3.19239664
Na      48.68796835       1.44707240      17.70385636      -0.02801428       0.03798313       0.10845634      -3.10434294
Na      54.97401082      42.26893288       6.06572553       0.06993209      -0.03421909      -0.03567421      -3.17827535
Cl      48.01546487       3.61346424       5.39092328       0.03229073      -0.01773684      -0.19538477      -3.39880633
Cl      14.44878956      53.22361539       9.74115452      -0.02696237      -0.07449383       0.07253022      -3.47207928
Cl      44.65206103      50.21242649      34.85613311       0.03392360      -0.01837879      -0.02507064      -3.53671527
Cl      21.37086473      10.96986031      25.57844793      -0.02318946       0.02257228      -0.03148613      -3.31268644
Cl      48.00663848      52.02710094      16.95034810       0.01772862       0.06799099       0.01250515      -3.56859422
Cl       0.41452618      46.13741063       8.75795441       0.06205999       0.01185405      -0.02211048      -3.56248546
Cl      45.19191232      11.22060707      44.79901464      -0.00962591       0.00396722       0.01024438      -3.49645662
Cl      14.51930447      46.18465949      33.52181474      -0.01357265      -0.02860976       0.00774281      -3.52296948
Cl       5.41190743      51.36427700      35.92894010      -0.01947671       0.08612911       0.04854496      -3.47887659
Cl      39.31211587      50.44488957      24.50408317      -0.09895124       0.05623750      -0.02733929      -3.35641646
Cl      40.91385613       9.74305665      42.09823587       0.03717177      -0.01008496       0.03222372      -3.63277864
Cl      54.48306040      36.49521885       4.12894767      -0.01429360      -0.02858142      -0.05584249      -3.28428888
Cl      35.03602653      18.64961238      -0.04666059      -0.05335301       0.01592727      -0.01417404      -3.44021893
Cl       5.95100998      40.42505993      44.88391484      -0.01259951      -0.01375167      -0.05639601      -3.61602688
Cl      24.95633720      46.01976861      -0.07176216      -0.01457403      -0.02434991       0.01662865      -3.50028515
Cl      55.65897977      19.50983957      36.01802539       0.05450483       0.01124292       0.00220465      -3.37335062
Cl      32.74033013      26.93981527      41.72025734      -0.03441965       0.01195908      -0.00833014      -3.58151793
Cl      55.05822676      15.62383909      20.55872750       0.02022919      -0.01930242       0.02505901      -3.48248601
Cl       3.11228938      28.87244150      22.27673765       0.11851601       0.00571418      -0.10444860      -3.42256522
Cl      32.43838631      25.62673994      48.66899826      -0.05702830      -0.08862377      -0.03391185      -3.53279710
Cl      32.60560321      24.88406753      52.34606314      -0.09135166       0.07484929       0.05401153      -3.52646494
Cl      14.14394958      57.01800361      41.42926192       0.01718816       0.00744995      -0.01914142      -3.48180223
Cl      22.46224134      58.51251124      37.31968892      -0.02886106       0.03539877       0.05829488      -3.51605392
Cl      32.02568797      22.76466680      42.10481963      -0.04244890       0.02267689      -0.01131059      -3.58638334
Cl      27.22527503      33.86660385      31.40207826       0.06337238       0.01942467      -0.01783219      -3.51169491
Cl      36.99071037      47.88065709      36.43281269      -0.02854026      -0.01632075       0.04522131      -3.49153090
Cl      21.49017882      37.28612531      42.51018720      -0.00891113      -0.03503866      -0.03342158      -3.60686398
Cl       8.42119543      47.16686522      40.21572250       0.13574116       0.02915017       0.09230017      -3.58798361
Cl      41.00676205      31.02748235      10.79751018       0.01977168      -0.02714430      -0.00868101      -3.46430373
Cl       3.18233328      14.51591293      16.26158539       0.02087556       0.09748988      -0.02244069      -3.43896341
Cl      31.60285237       4.72172806      45.67002222       0.00286229       0.13601252      -0.01348862      -3.49981403
Cl      13.55978450      49.62385808      41.85971697      -0.04643632      -0.04320078       0.01515817      -3.54388452
Cl      36.49969830      35.58774839      47.00746112      -0.02222689      -0.00531229       0.01987943      -3.45018482
Cl      19.56899647      34.24079994      40.01692737       0.01753902      -0.02373343      -0.08903722      -3.35208631
Cl       9.10534859       2.92872691       3.47924719       0.02174225       0.03677885      -0.01381113      -3.47890663
Cl      36.44426299      44.00869923      14.14762726      -0.03824905      -0.01051051      -0.04234556      -3.56585336
Cl       4.67647642      16.04313249      10.78171666       0.01859098      -0.05842543       0.05442817      -3.57329035
Cl      45.74980632       5.74885347       8.96196177       0.01317571       0.00819262      -0.00844101      -3.50872922
Cl      26.25600472      55.96053393      37.69969863      -0.01814323      -0.03951755      -0.01242023      -3.54481030
Cl      42.53272659      43.17473228      44.97262960      -0.02425659       0.02292990       0.00568064      -3.37198520
Cl      53.74477574      20.51829632      13.79518137       0.03335376      -0.02090109       0.03171760      -3.58070087
Cl      14.38222272      42.51103285       5.45802686       0.00783348      -0.03857137       0.04166482      -3.55600142
Cl      23.89483796      39.05564264      16.03744266      -0.02253352      -0.00571904      -0.05791482      -3.38100219
Cl      43.02461573      22.99263057      30.72910049      -0.03195421       0.08063956       0.05153356      -3.50392842
Cl      28.36336115      24.25387976      19.69128294      -0.02971516      -0.02081925       0.06126568      -3.42129779
Cl       7.19434198      25.42378723      49.66252424      -0.06408954       0.06236579      -0.05088657      -3.47125483
Cl      53.91682559      27.68733455      55.80428984       0.00263194      -0.02204281      -0.02117598      -3.52582812
Cl      30.60483987      45.98611929      56.96054086      -0.03235644      -0.01762640       0.02591112      -3.46063876
Cl      10.80458932      26.98360884      32.82541980      -0.03447264       0.05332955      -0.04881644      -3.45600820
Cl      50.79460228      14.43360713       3.78885516       0.02607530       0.00162026       0.03742645      -3.58036327
Na      19.85482760      23.85287416      33.96527724       0.04212802      -0.01387962      -0.01321335      -3.22208452
Na      38.25806055      54.06737801      57.24436154      -0.00355911       0.00950456      -0.03654532      -3.34633803
Na      50.59389278       2.35205167       9.14000203      -0.05542842      -0.01902461       0.07114403      -3.33262014
Na      27.52006675      53.69416881      51.44516889      -0.02508391       0.01128749       0.01788564      -3.10017228
Na      52.71709004      44.70574088      45.74584007      -0.01846090       0.02570809      -0.00432178      -3.23844624
Na      42.82689500      25.45169385      43.65640877      -0.00441863      -0.01712661       0.05393443      -3.28085375
Na       0.80776542      36.24849388      40.39224931       0.07707439      -0.00757445      -0.00983405      -3.25330210
Na      28.86999599       4.68719457      22.27791829       0.06332749       0.02147923       0.00033789      -3.29521465
Na      50.86062025       8.30837917      30.61498813       0.03619839      -0.00838106      -0.04424233      -3.38134623
Na       4.94719803      28.09458268      29.26887239      -0.01690814      -0.01610918      -0.01674309      -3.18680215
Na      32.81274315      43.00991697      24.84299379       0.03494035      -0.02768265      -0.06609953      -3.12873387
Na       4.44557823       5.35296576       7.84639080       0.08168938      -0.01662098      -0.04156303      -3.30020022
Na       5.09214752      54.00373860      56.94176963       0.00551490      -0.01259193      -0.05055400      -3.31488466
Na      50.01940261      13.21907187      20.80428035      -0.08751678       0.07050279       0.08352112      -3.21136880
Na      27.84747364      36.05647268      47.95762843       0.02766868       0.05416624       0.02082046      -3.42169952
Na      41.54403856      26.22525284      40.22325658       0.00769801      -0.03888029       0.02122527      -3.32639813
Na      37.75764912      20.82140024      49.44546952      -0.00900448      -0.09757002      -0.03202798      -3.39683294
Na      15.47484087       0.89740845      35.72938811      -0.00486469      -0.01641206      -0.00415067      -3.29213762
Na      42.13433940      14.73537330      47.54992019      -0.01033312      -0.02491554      -0.00660334      -3.31325984
Na      37.09431928      17.29259294      42.73161507      -0.00687166      -0.01287657       0.04319332      -3.26384807
Na      45.92520430       8.37035448       6.79871965       0.03871430      -0.08044299       0.06850533      -3.26194334
Na      56.15111141      35.78662414      29.55688535       0.05124049       0.05361401      -0.00266696      -3.22338700
Na       1.11173049      43.15842566      29.08947341       0.03129753      -0.03725986      -0.00955492      -3.49193478
Na      51.84826676      49.90461295      55.37247625      -0.01876779      -0.02924548       0.02320892      -3.32216358
Na       3.56483393      25.58835822      31.42528332       0.02273024       0.01548813      -0.02632108      -3.22944975
Na      53.30680145      19.67957906      31.14359842       0.03185533       0.07004320      -0.01816040      -3.41883230
Na      33.24241578      46.64360728      42.33541412       0.04002748      -0.11179845       0.09603319      -3.17119026
Na      11.63740652      22.00215715      11.71456696       0.00163100       0.02196909      -0.05145253      -3.14315724
Na      45.65516527       7.48373901      15.63055057      -0.06684486       0.07333260       0.01891392      -3.34517956
Na      33.97876151      20.20370228      17.97228952      -0.00487726      -0.06377845      -0.05718155      -3.31457424
Na      40.94152366       3.39881350      19.17250184       0.05104126      -0.02874145      -0.00195852      -3.40151405
Na      40.61185074       9.61492723       3.19554712      -0.03862554      -0.00342102      -0.00034175      -3.36448574
Na      10.35222093      58.39382839       9.43803098       0.01292116      -0.00870531      -0.01743215      -3.29663539
Na       6.09796979       9.75096312      37.64736417      -0.05630983       0.02575844      -0.00059538      -3.26290393
Na      40.30075181       3.77374118      41.71077768       0.04035715      -0.01639019       0.02384634      -3.30690765
Na      44.04661559      26.16656704       3.37195962       0.05375896      -0.06686345       0.06670438      -3.29147267
Na      24.68401345      33.39216336       8.67791784       0.04315303       0.00848958       0.01300695      -3.34686446
Na      48.73743636       6.23523565      57.05603068      -0.06816541       0.00337350       0.03361884      -3.21867347
Na       0.18488616       3.28228970       1.02721743      -0.07088195      -0.03274509      -0.00049818      -3.25728273
Na       2.60316819      32.50827906       9.90847839       0.03964324       0.01182848       0.10226970      -3.16001225
Na       1.88597085      26.71193568      21.42924040       0.02144170      -0.02758843      -0.00455746      -3.20322800
Na       8.15157095      55.59439481      32.33939169      -0.03373519       0.00277006       0.01236037      -3.35298753
Na      40.84231409      29.19511949      42.80780017       0.03976714       0.01542472      -0.02090081      -3.34509540
Na      31.44970188      39.51925848      40.16084245      -0.09501493       0.01425536       0.08071348      -3.20653200
Na       8.52718066      45.56991154       5.80035544      -0.04924763       0.02973004      -0.02838053      -3.36724854
Na      14.28109817      15.68172479      25.71504885       0.00594493       0.02939568      -0.01050982      -3.27483845
Na       7.39869499      57.38387319      55.57950710      -0.00029121       0.00569092      -0.04272590      -3.17203140
Na      45.61854888      33.45855598       4.38853601      -0.03306299      -0.01404684      -0.08139704      -3.19239640
Na      48.68796834       1.44707249      32.33572338      -0.02801550       0.03798249       0.10845578      -3.10434198
Na      54.97401068      42.26893293      20.69759276       0.06993158      -0.03421749      -0.03567950      -3.17827535
Cl      48.01546491       3.61346426      20.02279028       0.03228988      -0.01773657      -0.19538553      -3.39880610
Cl      14.44878952      53.22361549      24.37302158      -0.02696323      -0.07449363       0.07253019      -3.47207975
Cl      44.65206087      50.21242649      49.48800036       0.03392550      -0.01837862      -0.02506847      -3.53671575
Cl      21.37086469      10.96986033      40.21031485      -0.02318842       0.02257226      -0.03148688      -3.31268764
Cl      48.00663841      52.02710090      31.58221519       0.01772962       0.06799185       0.01250574      -3.56859422
Cl       0.41452615      46.13741058      23.38982155       0.06206031       0.01185419      -0.02211006      -3.56248450
Cl      45.19191171      11.22060709       0.90341305      -0.00962580       0.00396736       0.01024339      -3.49645782
Cl      14.51930454      46.18465954      48.15368169      -0.01357255      -0.02861081       0.00774544      -3.52296925
Cl       5.41190749      51.36427693      50.56080702      -0.01947689       0.08612875       0.04854478      -3.47887707
Cl      39.31211605      50.44488978      39.13594995      -0.09894834       0.05624055      -0.02733175      -3.35641575
Cl      40.91385633       9.74305678      56.73010348       0.03717068      -0.01008908       0.03222696      -3.63277864
Cl      54.48306047      36.49521890      18.76081450      -0.01429450      -0.02858219      -0.05584190      -3.28428936
Cl      35.03602646      18.64961180      14.58520818      -0.05335204       0.01592622      -0.01417431      -3.44021988
Cl       5.95100985      40.42505981       0.98831331      -0.01259856      -0.01375277      -0.05639628      -3.61602831
Cl      24.95633720      46.01976838      14.56010590      -0.01457399      -0.02434941       0.01662844      -3.50028634
Cl      55.65897970      19.50983972      50.64989275       0.05450239       0.01124290       0.00220905      -3.37335086
Cl      32.74033053      26.93981552      56.35212515      -0.03441952       0.01195994      -0.00832864      -3.58151698
Cl      55.05822676      15.62383927      35.19059444       0.02022820      -0.01930315       0.02506037      -3.48248672
Cl       3.11228949      28.87244140      36.90860490       0.11851656       0.00571410      -0.10444459      -3.42256498
Cl      32.43838644      25.62674015       4.77339717      -0.05702930      -0.08862238      -0.03391038      -3.53279710
Cl      32.60560297      24.88406751       8.45046208      -0.09134956       0.07484992       0.05400855      -3.52646399
Cl      14.14394949      57.01800373      56.06112972       0.01718695       0.00745028      -0.01914499      -3.48180270
Cl      22.46224133      58.51251117      51.95155558      -0.02886038       0.03539915       0.05829669      -3.51605320
Cl      32.02568798      22.76466694      56.73668698      -0.04244778       0.02267700      -0.01130898      -3.58638287
Cl      27.22527502      33.86660410      46.03394512       0.06337311       0.01942586      -0.01783472      -3.51169372
Cl      36.99071051      47.88065708      51.06467998      -0.02853878      -0.01632072       0.04522507      -3.49153090
Cl      21.49017919      37.28612550      57.14205560      -0.00891249      -0.03503921      -0.03342072      -3.60686374
Cl       8.42119526      47.16686529      54.84758984       0.13574041       0.02915017       0.09228879      -3.58798528
Cl      41.00676215      31.02748221      25.42937696       0.01977151      -0.02714274      -0.00867917      -3.46430326
Cl       3.18233346      14.51591309      30.89345240       0.02087429       0.09748958      -0.02243961      -3.43896413
Cl      31.60285253       4.72172774       1.77442126       0.00286189       0.13601249      -0.01349058      -3.49981403
Cl      13.55978430      49.62385826      56.49158422      -0.04643535      -0.04320109       0.01515842      -3.54388285
Cl      36.49969832      35.58774862       3.11185916      -0.02222605      -0.00531138       0.01988054      -3.45018387
Cl      19.56899664      34.24080022      54.64879402       0.01753822      -0.02373401      -0.08903705      -3.35208774
Cl       9.10534837       2.92872705      18.11111467       0.02174219       0.03677755      -0.01381184      -3.47890639
Cl      36.44426310      44.00869934      28.77949410      -0.03824968      -0.01051088      -0.04234407      -3.56585288
Cl       4.67647641      16.04313255      25.41358375       0.01859062      -0.05842559       0.05442801      -3.57329035
Cl      45.74980634       5.74885342      23.59382881       0.01317513       0.00819327      -0.00843991      -3.50872874
Cl      26.25600461      55.96053417      52.33156539      -0.01814266      -0.03951798      -0.01241237      -3.54480886
Cl      42.53272637      43.17473263       1.07702805      -0.02425673       0.02292994       0.00568110      -3.37198496
Cl      53.74477571      20.51829632      28.42704841       0.03335337      -0.02090069       0.03171834      -3.58070111
Cl      14.38222271      42.51103289      20.08989429       0.00783391      -0.03857127       0.04166581      -3.55600119
Cl      23.89483800      39.05564266      30.66930970      -0.02253349      -0.00571962      -0.05791318      -3.38100362
Cl      43.02461574      22.99263056      45.36096757      -0.03195399       0.08064075       0.05153623      -3.50392771
Cl      28.36336111      24.25387989      34.32315009      -0.02971446      -0.02081826       0.06126172      -3.42129707
Cl       7.19434193      25.42378719       5.76692298      -0.06408936       0.06236480      -0.05088676      -3.47125483
Cl      53.91682565      27.68733445      11.90868847       0.00263271      -0.02204254      -0.02117534      -3.52582741
Cl      30.60483979      45.98611928      13.06493879      -0.03235585      -0.01762673       0.02591174      -3.46063924
Cl      10.80458927      26.98360899      47.45728708      -0.03447019       0.05333113      -0.04881513      -3.45600748
Cl      50.79460222      14.43360707      18.42072269       0.02607523       0.00162124       0.03742627      -3.58036351
Na      19.85482756      23.85287414      48.59714416       0.04212848      -0.01387958      -0.01321284      -3.22208405
Na      38.25806036      54.06737823      13.34875950      -0.00355913       0.00950449      -0.03654419      -3.34633780
Na      50.59389272       2.35205166      23.77186923      -0.05542856      -0.01902506       0.07114233      -3.33261991
Na      27.52006670      53.69416869       7.54956717      -0.02508424       0.01128655       0.01788216      -3.10017252
Na      52.71708978      44.70574115       1.85023848      -0.01845929       0.02570822      -0.00432533      -3.23844552
Na      42.82689530      25.45169383      58.28827679      -0.00441776      -0.01712717       0.05393534      -3.28085303
Na       0.80776542      36.24849407      55.02411694       0.07707558      -0.00757249      -0.00983473      -3.25330210
Na      28.86999601       4.68719450      36.90978540       0.06332518       0.02148096       0.00033435      -3.29521489
Na      50.86062026       8.30837925      45.24685533       0.03619795      -0.00837925      -0.04424672      -3.38134694
Na       4.94719804      28.09458261      43.90073927      -0.01691054      -0.01611025      -0.01673876      -3.18680215
Na      32.81274303      43.00991658      39.47486085       0.03493902      -0.02768514      -0.06609837      -3.12873459
Na       4.44557821       5.35296573      22.47825781       0.08168925      -0.01662124      -0.04156375      -3.30020022
Na       5.09214745      54.00373868      13.04616814       0.00551475      -0.01259112      -0.05055532      -3.31488442
Na      50.01940254      13.21907193      35.43614730      -0.08751741       0.07050040       0.08352417      -3.21136951
Na      27.84747361      36.05647288       4.06202715       0.02766945       0.05416686       0.02082312      -3.42169905
Na      41.54403867      26.22525300      54.85512412       0.00769557      -0.03887959       0.02121277      -3.32639813
Na      37.75764921      20.82140015       5.54986832      -0.00900532      -0.09757058      -0.03202865      -3.39683294
Na      15.47484098       0.89740855      50.36125542      -0.00486502      -0.01640964      -0.00414729      -3.29213738
Na      42.13433933      14.73537319       3.65431897      -0.01033304      -0.02491605      -0.00660360      -3.31325841
Na      37.09431929      17.29259280      57.36348284      -0.00687360      -0.01287698       0.04319884      -3.26384807
Na      45.92520435       8.37035453      21.43058663       0.03871501      -0.08044241       0.06850529      -3.26194286
Na      56.15111141      35.78662423      44.18875227       0.05124258       0.05361186      -0.00266287      -3.22338724
Na       1.11173057      43.15842572      43.72134057       0.03129556      -0.03726106      -0.00955380      -3.49193549
Na      51.84826710      49.90461313      11.47687464      -0.01876707      -0.02924573       0.02320686      -3.32216501
Na       3.56483388      25.58835811      46.05715040       0.02273171       0.01548957      -0.02632685      -3.22944975
Na      53.30680148      19.67957903      45.77546551       0.03185651       0.07004402      -0.01816417      -3.41883278
Na      33.24241569      46.64360718      56.96728128       0.04002888      -0.11179850       0.09603425      -3.17118835
Na      11.63740651      22.00215713      26.34643394       0.00163193       0.02197055      -0.05145095      -3.14315677
Na      45.65516521       7.48373896      30.26241771      -0.06684510       0.07333244       0.01891516      -3.34517956
Na      33.97876148      20.20370218      32.60415657      -0.00487829      -0.06377856      -0.05717999      -3.31457424
Na      40.94152361       3.39881353      33.80436890       0.05104192      -0.02874006      -0.00195363      -3.40151477
Na      40.61185081       9.61492736      17.82741446      -0.03862491      -0.00342096      -0.00034033      -3.36448503
Na      10.35222090      58.39382838      24.06989812       0.01292076      -0.00870515      -0.01743291      -3.29663539
Na       6.09796980       9.75096324      52.27923124      -0.05630984       0.02575815      -0.00059559      -3.26290345
Na      40.30075186       3.77374106      56.34264506       0.04035616      -0.01638722       0.02384878      -3.30690789
Na      44.04661572      26.16656705      18.00382685       0.05375846      -0.06686249       0.06670802      -3.29147267
Na      24.68401336      33.39216345      23.30978501       0.04315328       0.00848851       0.01300402      -3.34686446
Na      48.73743635       6.23523527      13.16042974      -0.06816463       0.00337380       0.03361957      -3.21867347
Na       0.18488596       3.28229018      15.65908454      -0.07088208      -0.03274492      -0.00049832      -3.25728273
Na       2.60316826      32.50827911      24.54034547       0.03964217       0.01182855       0.10226887      -3.16001248
Na       1.88597086      26.71193573      36.06110740       0.02143957      -0.02758741      -0.00455662      -3.20322800
Na       8.15157089      55.59439476      46.97125889      -0.03373539       0.00276926       0.01235642      -3.35298824
Na      40.84231398      29.19511951      57.43966794       0.03976813       0.01542620      -0.02089876      -3.34509492
Na      31.44970209      39.51925843      54.79270973      -0.09501410       0.01425488       0.08071367      -3.20653248
Na       8.52718056      45.56991148      20.43222277      -0.04924946       0.02972918      -0.02837983      -3.36724877
Na      14.28109813      15.68172481      40.34691583       0.00594655       0.02939607      -0.01050949      -3.27483821
Na       7.39869491      57.38387321      11.68390550      -0.00029067       0.00569033      -0.04272717      -3.17203116
Na      45.61854890      33.45855589      19.02040299      -0.03306296      -0.01404685      -0.08139686      -3.19239616
Na      48.68796824       1.44707224      46.96759041      -0.02801568       0.03798199       0.10845485      -3.10434246
Na      54.97401077      42.26893301      35.32945946       0.06993276      -0.03421948      -0.03567692      -3.17827511
Cl      48.01546505       3.61346427      34.65465741       0.03229041      -0.01773730      -0.19538635      -3.39880610
Cl      14.44878952      53.22361547      39.00488854      -0.02696344      -0.07449403       0.07252896      -3.47207904
Cl      44.65206072      50.21242636       5.59239880       0.03392423      -0.01837918      -0.02507211      -3.53671551
Cl      21.37086452      10.96986023      54.84218222      -0.02318966       0.02257233      -0.03148799      -3.31268716
Cl      48.00663835      52.02710090      46.21408206       0.01772977       0.06799166       0.01250747      -3.56859422
Cl       0.41452620      46.13741057      38.02168857       0.06205865       0.01185381      -0.02211350      -3.56248617
Cl      45.19191182      11.22060703      15.53528049      -0.00962507       0.00396715       0.01024380      -3.49645829
Cl      14.51930445      46.18465960       4.25808043      -0.01357280      -0.02861065       0.00774461      -3.52297020
Cl       5.41190749      51.36427686       6.66520589      -0.01947578       0.08613156       0.04854264      -3.47887707
Cl      39.31211614      50.44488957      53.76781746      -0.09895021       0.05623684      -0.02733999      -3.35641742
Cl      40.91385626       9.74305665      12.83450212       0.03717078      -0.01008583       0.03222430      -3.63277864
Cl      54.48306028      36.49521885      33.39268154      -0.01429464      -0.02858111      -0.05584370      -3.28428888
Cl      35.03602647      18.64961179      29.21707523      -0.05335248       0.01592575      -0.01417483      -3.44021988
Cl       5.95100999      40.42505991      15.62018086      -0.01259992      -0.01375347      -0.05639552      -3.61602783
Cl      24.95633721      46.01976856      29.19197289      -0.01457441      -0.02434973       0.01662998      -3.50028634
Cl      55.65897975      19.50983943       6.75429143       0.05450358       0.01124127       0.00220040      -3.37334991
Cl      32.74033017      26.93981527      12.45652350      -0.03441875       0.01195906      -0.00833113      -3.58151698
Cl      55.05822675      15.62383899      49.82246135       0.02022840      -0.01930288       0.02506003      -3.48248625
Cl       3.11228924      28.87244135      51.54047179       0.11851797       0.00571356      -0.10444451      -3.42256474
Cl      32.43838647      25.62673994      19.40526429      -0.05703006      -0.08862256      -0.03390829      -3.53279686
Cl      32.60560307      24.88406753      23.08232914      -0.09135063       0.07484965       0.05401006      -3.52646303
Cl      14.14394950      57.01800358      12.16552804       0.01718691       0.00745011      -0.01914385      -3.48180246
Cl      22.46224132      58.51251124       8.05595448      -0.02886072       0.03539908       0.05829689      -3.51605272
Cl      32.02568792      22.76466690      12.84108553      -0.04244803       0.02267662      -0.01130891      -3.58638334
Cl      27.22527489      33.86660377       2.13834393       0.06337319       0.01942459      -0.01783151      -3.51169443
Cl      36.99071057      47.88065708       7.16907845      -0.02854002      -0.01632022       0.04522099      -3.49153090
Cl      21.49017890      37.28612522      13.24645341      -0.00891168      -0.03503775      -0.03341855      -3.60686445
Cl       8.42119538      47.16686524      10.95198832       0.13574165       0.02915011       0.09229613      -3.58798456
Cl      41.00676215      31.02748225      40.06124418       0.01977179      -0.02714618      -0.00868230      -3.46430302
Cl       3.18233320      14.51591297      45.52531933       0.02087665       0.09749000      -0.02244077      -3.43896294
Cl      31.60285248       4.72172805      16.40628831       0.00286250       0.13601255      -0.01349024      -3.49981403
Cl      13.55978436      49.62385816      12.59598293      -0.04643657      -0.04320174       0.01516054      -3.54388356
Cl      36.49969797      35.58774856      17.74372675      -0.02221933      -0.00530983       0.01987976      -3.45018530
Cl      19.56899654      34.24079987      10.75319296       0.01753768      -0.02373452      -0.08903830      -3.35208726
Cl       9.10534837       2.92872699      32.74298211       0.02174160       0.03677763      -0.01381040      -3.47890687
Cl      36.44426299      44.00869926      43.41136113      -0.03824854      -0.01050981      -0.04234710      -3.56585240
Cl       4.67647627      16.04313256      40.04545096       0.01859116      -0.05842511       0.05442606      -3.57329035
Cl      45.74980634       5.74885341      38.22569602       0.01317346       0.00819409      -0.00844110      -3.50872993
Cl      26.25600465      55.96053402       8.43596439      -0.01814318      -0.03951753      -0.01241530      -3.54480934
Cl      42.53272655      43.17473236      15.70889557      -0.02425683       0.02292979       0.00568012      -3.37198591
Cl      53.74477569      20.51829629      43.05891534       0.03335431      -0.02090063       0.03171735      -3.58070064
Cl      14.38222264      42.51103262      34.72176129       0.00783556      -0.03857082       0.04166684      -3.55599999
Cl      23.89483807      39.05564257      45.30117679      -0.02253418      -0.00571911      -0.05791830      -3.38100123
Cl      43.02461570      22.99263039       1.46536606      -0.03195606       0.08063901       0.05153354      -3.50392795
Cl      28.36336109      24.25387987      48.95501663      -0.02971441      -0.02081890       0.06126226      -3.42129827
Cl       7.19434192      25.42378713      20.39879020      -0.06408977       0.06236565      -0.05088708      -3.47125483
Cl      53.91682550      27.68733445      26.54055548       0.00263268      -0.02204314      -0.02117429      -3.52582741
Cl      30.60483976      45.98611933      27.69680574      -0.03235582      -0.01762694       0.02591125      -3.46063948
Cl      10.80458923      26.98360854       3.56168591      -0.03447124       0.05332974      -0.04881676      -3.45600748
Cl      50.79460227      14.43360714      33.05258947       0.02607533       0.00162074       0.03742519      -3.58036375
Na      19.85482740      23.85287436       4.70154303       0.04212905      -0.01388048      -0.01321035      -3.22208500
Na      38.25806038      54.06737819      27.98062662      -0.00355838       0.00950497      -0.03654563      -3.34633756
Na      50.59389259       2.35205173      38.40373595      -0.05542885      -0.01902384       0.07114237      -3.33262014
Na      27.52006665      53.69416869      22.18143444      -0.02508424       0.01128646       0.01788004      -3.10017157
Na      52.71709003      44.70574083      16.48210607      -0.01846063       0.02570756      -0.00432248      -3.23844528
Na      42.82689535      25.45169385      14.39267506      -0.00441761      -0.01712677       0.05393457      -3.28085303
Na       0.80776536      36.24849407      11.12851546       0.07707690      -0.00757260      -0.00983539      -3.25330210
Na      28.86999596       4.68719459      51.54165213       0.06332681       0.02147915       0.00033657      -3.29521441
Na      50.86061994       8.30837907       1.35125336       0.03619808      -0.00837984      -0.04424390      -3.38134670
Na       4.94719813      28.09458276       0.00513765      -0.01690915      -0.01610931      -0.01674137      -3.18680167
Na      32.81274316      43.00991648      54.10672816       0.03493864      -0.02768599      -0.06609862      -3.12873459
Na       4.44557833       5.35296574      37.11012467       0.08169106      -0.01661732      -0.04156544      -3.30019951
Na       5.09214740      54.00373874      27.67803513       0.00551514      -0.01259199      -0.05055636      -3.31488419
Na      50.01940257      13.21907185      50.06801441      -0.08751665       0.07050436       0.08351930      -3.21136785
Na      27.84747368      36.05647285      18.69389443       0.02766817       0.05416727       0.02082168      -3.42169905
Na      41.54403858      26.22525292      10.95952243       0.00769656      -0.03888039       0.02121931      -3.32639861
Na      37.75764921      20.82140021      20.18173563      -0.00900468      -0.09757032      -0.03202945      -3.39683294
Na      15.47484067       0.89740837       6.46565401      -0.00486463      -0.01640983      -0.00414580      -3.29213691
Na      42.13433940      14.73537328      18.28618620      -0.01033291      -0.02491669      -0.00660272      -3.31325889
Na      37.09431911      17.29259282      13.46788132      -0.00687367      -0.01287678       0.04319737      -3.26384735
Na      45.92520437       8.37035457      36.06245366       0.03871360      -0.08044299       0.06850477      -3.26194334
Na      56.15111149      35.78662398       0.29315049       0.05124290       0.05361357      -0.00266827      -3.22338748
Na       1.11173067      43.15842590      58.35320812       0.03129229      -0.03726019      -0.00955116      -3.49193525
Na      51.84826698      49.90461311      26.10874160      -0.01876681      -0.02924591       0.02320667      -3.32216454
Na       3.56483366      25.58835826       2.16154879       0.02273192       0.01548898      -0.02632167      -3.22944951
Na      53.30680159      19.67957901       1.87986366       0.03185518       0.07004234      -0.01816045      -3.41883278
Na      33.24241574      46.64360736      13.07168025       0.04003011      -0.11179795       0.09603191      -3.17118907
Na      11.63740642      22.00215711      40.97830098       0.00162644       0.02196644      -0.05145746      -3.14315677
Na      45.65516521       7.48373898      44.89428465      -0.06684634       0.07333344       0.01891584      -3.34518003
Na      33.97876155      20.20370223      47.23602348      -0.00487851      -0.06377888      -0.05718040      -3.31457400
Na      40.94152367       3.39881352      48.43623565       0.05104134      -0.02874264      -0.00196229      -3.40151429
Na      40.61185095       9.61492742      32.45928170      -0.03862509      -0.00342060      -0.00034166      -3.36448503
Na      10.35222080      58.39382839      38.70176500       0.01292265      -0.00870418      -0.01742805      -3.29663515
Na       6.09796982       9.75096316       8.38363030      -0.05630970       0.02575799      -0.00059464      -3.26290393
Na      40.30075186       3.77374104      12.44704370       0.04035751      -0.01638868       0.02384508      -3.30690765
Na      44.04661568      26.16656710      32.63569404       0.05375821      -0.06686439       0.06670880      -3.29147363
Na      24.68401348      33.39216338      37.94165198       0.04315300       0.00848946       0.01300809      -3.34686399
Na      48.73743638       6.23523528      27.79229673      -0.06816499       0.00337333       0.03361857      -3.21867323
Na       0.18488594       3.28229012      30.29095159      -0.07088135      -0.03274415      -0.00049763      -3.25728273
Na       2.60316805      32.50827912      39.17221232       0.03964385       0.01182746       0.10227200      -3.16001153
Na       1.88597096      26.71193581      50.69297465       0.02144083      -0.02758706      -0.00455459      -3.20322776
Na       8.15157107      55.59439469       3.07565739      -0.03373592       0.00276966       0.01235897      -3.35298824
Na      40.84231415      29.19511963      13.54406621       0.03976673       0.01542452      -0.02090217      -3.34509468
Na      31.44970189      39.51925853      10.89710861      -0.09501679       0.01425129       0.08071377      -3.20653248
Na       8.52718062      45.56991157      35.06408929      -0.04924767       0.02973058      -0.02838343      -3.36724806
Na      14.28109813      15.68172477      54.97878316       0.00594518       0.02939405      -0.01050569      -3.27483773
Na       7.39869490      57.38387329      26.31577257      -0.00029053       0.00568989      -0.04272849      -3.17203140
Na      45.61854893      33.45855596      33.65226975      -0.03306264      -0.01404697      -0.08139919      -3.19239569
Na      48.68796783       1.44707197       3.07198944      -0.02801573       0.03798221       0.10845564      -3.10434270
Na      54.97401083      42.26893294      49.96132694       0.06993277      -0.03421858      -0.03567557      -3.17827535
Cl      48.01546488       3.61346427      49.28652432       0.03229032      -0.01773696      -0.19538641      -3.39880610
Cl      14.44878976      53.22361537      53.63675564      -0.02696352      -0.07449359       0.07252881      -3.47207904
Cl      44.65206076      50.21242647      20.22426611       0.03392437      -0.01837985      -0.02507248      -3.53671575
Cl      21.37086474      10.96986029      10.94658087      -0.02318914       0.02257263      -0.03148673      -3.31268668
Cl      48.00663814      52.02710093       2.31848116       0.01772940       0.06799226       0.01250534      -3.56859422
Cl       0.41452614      46.13741051      52.65355587       0.06206005       0.01185505      -0.02211154      -3.56248569
Cl      45.19191193      11.22060699      30.16714749      -0.00962544       0.00396675       0.01024354      -3.49645829
Cl      14.51930466      46.18465944      18.88994776      -0.01357360      -0.02861009       0.00774433      -3.52297044
Cl       5.41190747      51.36427689      21.29707306      -0.01947630       0.08613148       0.04854120      -3.47887707
Cl      39.31211592      50.44488970       9.87221619      -0.09895045       0.05623813      -0.02733691      -3.35641623
Cl      40.91385606       9.74305667      27.46636909       0.03717062      -0.01008667       0.03222338      -3.63277841
Cl      54.48306034      36.49521879      48.02454865      -0.01429481      -0.02858133      -0.05584210      -3.28428888
Cl      35.03602634      18.64961178      43.84894220      -0.05335230       0.01592638      -0.01417334      -3.44022036
Cl       5.95100985      40.42505991      30.25204782      -0.01259780      -0.01375214      -0.05639666      -3.61602831
Cl      24.95633709      46.01976875      43.82384026      -0.01457462      -0.02434868       0.01662591      -3.50028467
Cl      55.65897976      19.50983947      21.38615834       0.05450210       0.01124186       0.00220366      -3.37334991
Cl      32.74033015      26.93981526      27.08839063      -0.03441818       0.01195833      -0.00832949      -3.58151674
Cl      55.05822677      15.62383902       5.92686032       0.02022967      -0.01930233       0.02505890      -3.48248601
Cl       3.11228936      28.87244138       7.64487048       0.11851513       0.00571344      -0.10444879      -3.42256474
Cl      32.43838634      25.62673986      34.03713122      -0.05702782      -0.08862303      -0.03391619      -3.53279614
Cl      32.60560306      24.88406759      37.71419650      -0.09134945       0.07485017       0.05401162      -3.52646303
Cl      14.14394949      57.01800365      26.79739490       0.01718666       0.00744906      -0.01914378      -3.48180270
Cl      22.46224131      58.51251127      22.68782166      -0.02886017       0.03539894       0.05829698      -3.51605201
Cl      32.02568778      22.76466687      27.47295246      -0.04244792       0.02267671      -0.01130837      -3.58638334
Cl      27.22527504      33.86660395      16.77021118       0.06337222       0.01942335      -0.01782863      -3.51169467
Cl      36.99071052      47.88065701      21.80094569      -0.02854018      -0.01632011       0.04522087      -3.49153042
Cl      21.49017893      37.28612526      27.87832038      -0.00891189      -0.03503785      -0.03341856      -3.60686517
Cl       8.42119547      47.16686525      25.58385520       0.13574176       0.02915024       0.09229739      -3.58798409
Cl      41.00676206      31.02748238      54.69311128       0.01977750      -0.02714577      -0.00868091      -3.46430302
Cl       3.18233325      14.51591289       1.62971771       0.02087520       0.09748949      -0.02244266      -3.43896341
Cl      31.60285237       4.72172799      31.03815523       0.00286353       0.13601319      -0.01348817      -3.49981427
Cl      13.55978423      49.62385818      27.22784978      -0.04643493      -0.04320115       0.01515912      -3.54388356
Cl      36.49969812      35.58774861      32.37559365      -0.02222676      -0.00531073       0.01987706      -3.45018387
Cl      19.56899643      34.24079992      25.38506010       0.01753817      -0.02373380      -0.08903608      -3.35208774
Cl       9.10534847       2.92872701      47.37484876       0.02174154       0.03677792      -0.01380523      -3.47890639
Cl      36.44426322      44.00869940      58.04322900      -0.03824985      -0.01051105      -0.04234612      -3.56585264
Cl       4.67647609      16.04313268      54.67731756       0.01859190      -0.05842517       0.05442651      -3.57329035
Cl      45.74980627       5.74885343      52.85756268       0.01317257       0.00819416      -0.00844008      -3.50872874
Cl      26.25600463      55.96053410      23.06783152      -0.01814227      -0.03951818      -0.01241409      -3.54481006
Cl      42.53272651      43.17473234      30.34076261      -0.02425636       0.02292971       0.00567900      -3.37198591
Cl      53.74477573      20.51829636      57.69078313       0.03335492      -0.02090112       0.03171505      -3.58069944
Cl      14.38222262      42.51103258      49.35362804       0.00783537      -0.03856892       0.04166986      -3.55600142
Cl      23.89483801      39.05564272       1.40557514      -0.02253289      -0.00571883      -0.05791333      -3.38100314
Cl      43.02461577      22.99263062      16.09723364      -0.03195428       0.08064085       0.05153544      -3.50392842
Cl      28.36336110      24.25387979       5.05941567      -0.02971495      -0.02081912       0.06126439      -3.42129731
Cl       7.19434183      25.42378713      35.03065719      -0.06408748       0.06236589      -0.05088738      -3.47125554
Cl      53.91682547      27.68733442      41.17242264       0.00263275      -0.02204347      -0.02117820      -3.52582669
Cl      30.60483977      45.98611925      42.32867283      -0.03235807      -0.01762678       0.02591092      -3.46063852
Cl      10.80458930      26.98360902      18.19355321      -0.03447177       0.05332892      -0.04882202      -3.45600867
Cl      50.79460221      14.43360712      47.68445649       0.02607468       0.00161946       0.03743005      -3.58036351
Na      19.85482753      38.48474159      19.33341003       0.04212888      -0.01388243      -0.01321326      -3.22208571
Na      38.25806024      10.17177748      42.61249349      -0.00355971       0.00950571      -0.03653985      -3.34633899
Na      50.59389268      16.98391901      53.03560332      -0.05542489      -0.01902405       0.07114533      -3.33261967
Na      27.52006720       9.79856738      36.81330130      -0.02508487       0.01128681       0.01788165      -3.10017109
Na      52.71708965       0.81013958      31.11397343      -0.01845853       0.02570873      -0.00432502      -3.23844528
Na      42.82689506      40.08356076      29.02454181      -0.00441787      -0.01712680       0.05393516      -3.28085303
Na       0.80776551      50.88036104      25.76038233       0.07707722      -0.00757204      -0.00983488      -3.25330281
Na      28.86999600      19.31906197       7.64605139       0.06332649       0.02148002       0.00033699      -3.29521465
Na      50.86062026      22.94024606      15.98312120       0.03619879      -0.00838155      -0.04424365      -3.38134670
Na       4.94719799      42.72644967      14.63700543      -0.01691288      -0.01610339      -0.01674137      -3.18680191
Na      32.81274276      57.64178501      10.21112721       0.03494122      -0.02767839      -0.06609784      -3.12873483
Na       4.44557847      19.98483311      51.74199185       0.08168855      -0.01662070      -0.04156459      -3.30020070
Na       5.09214753      10.10813747      42.30990226       0.00551493      -0.01259054      -0.05055323      -3.31488442
Na      50.01940265      27.85093894       6.17241321      -0.08751780       0.07050326       0.08352175      -3.21136904
Na      27.84747382      50.68833969      33.32576138       0.02767051       0.05416775       0.02082423      -3.42169881
Na      41.54403857      40.85711981      25.59138952       0.00769638      -0.03888298       0.02122118      -3.32639813
Na      37.75764916      35.45326725      34.81360276      -0.00900329      -0.09756815      -0.03202812      -3.39683366
Na      15.47484118      15.52927651      21.09752079      -0.00486428      -0.01641256      -0.00414555      -3.29213738
Na      42.13433939      29.36724030      32.91805323      -0.01033210      -0.02491592      -0.00660236      -3.31325889
Na      37.09431909      31.92445965      28.09974847      -0.00687242      -0.01287421       0.04319489      -3.26384807
Na      45.92520428      23.00222139      50.69432071       0.03871408      -0.08044551       0.06850438      -3.26194286
Na      56.15111132      50.41849113      14.92501829       0.05124073       0.05361374      -0.00266736      -3.22338724
Na       1.11173039      57.79029347      14.45760653       0.03129568      -0.03726318      -0.00955424      -3.49193430
Na      51.84826701       6.00901202      40.74060901      -0.01876957      -0.02924577       0.02320842      -3.32216501
Na       3.56483390      40.22022514      16.79341617       0.02273169       0.01548747      -0.02632342      -3.22944927
Na      53.30680147      34.31144618      16.51173130       0.03185654       0.07004233      -0.01816147      -3.41883230
Na      33.24241573       2.74800625      27.70354722       0.04003101      -0.11179537       0.09603426      -3.17118859
Na      11.63740627      36.63402400      55.61016844       0.00163187       0.02196412      -0.05145352      -3.14315724
Na      45.65516537      22.11560578       0.99868360      -0.06684455       0.07333152       0.01891362      -3.34518003
Na      33.97876149      34.83556933       3.34042287      -0.00487514      -0.06377427      -0.05718200      -3.31457424
Na      40.94152369      18.03068108       4.54063464       0.05104106      -0.02874113      -0.00195755      -3.40151477
Na      40.61185089      24.24679445      47.09114867      -0.03862551      -0.00342035      -0.00034253      -3.36448479
Na      10.35222096      14.49822671      53.33363219       0.01292076      -0.00870633      -0.01743387      -3.29663491
Na       6.09796976      24.38283015      23.01549733      -0.05630884       0.02575802      -0.00059366      -3.26290417
Na      40.30075188      18.40560854      27.07891070       0.04035851      -0.01639028       0.02384373      -3.30690765
Na      44.04661559      40.79843436      47.26756126       0.05375952      -0.06686614       0.06670298      -3.29147267
Na      24.68401350      48.02403013      52.57351918       0.04315446       0.00848889       0.01300162      -3.34686327
Na      48.73743627      20.86710263      42.42416347      -0.06815703       0.00337272       0.03361945      -3.21867418
Na       0.18488597      17.91415737      44.92281877      -0.07088238      -0.03274555      -0.00049734      -3.25728393
Na       2.60316831      47.14014603      53.80407925       0.03964202       0.01182791       0.10226879      -3.16001225
Na       1.88597095      41.34380275       6.79737311       0.02144054      -0.02759668      -0.00455721      -3.20322776
Na       8.15157039      11.69879348      17.70752490      -0.03373421       0.00276946       0.01235756      -3.35298800
Na      40.84231414      43.82698686      28.17593327       0.03976787       0.01542088      -0.02090338      -3.34509468
Na      31.44970204      54.15112604      25.52897546      -0.09501586       0.01425092       0.08071625      -3.20653152
Na       8.52718078       1.67430951      49.69595700      -0.04924761       0.02973364      -0.02838248      -3.36724854
Na      14.28109819      30.31359183      11.08318173       0.00594465       0.02939486      -0.01050777      -3.27483797
Na       7.39869475      13.48827253      40.94763896      -0.00029148       0.00568821      -0.04272734      -3.17203188
Na      45.61854912      48.09042310      48.28413703      -0.03306318      -0.01405016      -0.08140036      -3.19239688
Na      48.68796877      16.07893996      17.70385713      -0.02801536       0.03798172       0.10845479      -3.10434318
Na      54.97401154      56.90080103       6.06572542       0.06993262      -0.03422943      -0.03567281      -3.17827559
Cl      48.01546480      18.24533126       5.39092322       0.03229060      -0.01773734      -0.19538420      -3.39880657
Cl      14.44878968       9.32801418       9.74115442      -0.02696273      -0.07449632       0.07253055      -3.47207975
Cl      44.65206083       6.31682558      34.85613300       0.03392370      -0.01838136      -0.02507251      -3.53671575
Cl      21.37086477      25.60172739      25.57844796      -0.02318947       0.02257377      -0.03148592      -3.31268597
Cl      48.00663841       8.13149986      16.95034817       0.01772864       0.06798677       0.01250560      -3.56859398
Cl       0.41452597       2.24180921       8.75795431       0.06206209       0.01185466      -0.02211278      -3.56248498
Cl      45.19191222      25.85247392      44.79901454      -0.00962573       0.00396635       0.01024522      -3.49645710
Cl      14.51930484       2.28905865      33.52181474      -0.01357762      -0.02861786       0.00774240      -3.52296925
Cl       5.41190755       7.46867597      35.92894047      -0.01947703       0.08612898       0.04854436      -3.47887707
Cl      39.31211582       6.54928824      24.50408307      -0.09895221       0.05623963      -0.02733827      -3.35641789
Cl      40.91385619      24.37492341      42.09823592       0.03717203      -0.01008573       0.03222437      -3.63277864
Cl      54.48306021      51.12708571       4.12894777      -0.01429486      -0.02858040      -0.05584411      -3.28428888
Cl      35.03602644      33.28147945      -0.04666072      -0.05335317       0.01592795      -0.01417284      -3.44021916
Cl       5.95101004      55.05692705      44.88391474      -0.01260372      -0.01374837      -0.05639683      -3.61602592
Cl      24.95633712       2.12416730      -0.07176220      -0.01457335      -0.02435493       0.01662904      -3.50028515
Cl      55.65897985      34.14170649      36.01802540       0.05450479       0.01124047       0.00220336      -3.37335038
Cl      32.74033012      41.57168256      41.72025745      -0.03441997       0.01195917      -0.00833173      -3.58151722
Cl      55.05822676      30.25570603      20.55872746       0.02022885      -0.01930523       0.02505902      -3.48248601
Cl       3.11228934      43.50430832      22.27673749       0.11851823       0.00572177      -0.10444825      -3.42256546
Cl      32.43838658      40.25860673      48.66899822      -0.05702947      -0.08862212      -0.03391072      -3.53279734
Cl      32.60560323      39.51593431      52.34606314      -0.09134992       0.07485088       0.05401129      -3.52646303
Cl      14.14394958      13.12240190      41.42926213       0.01718903       0.00745051      -0.01913991      -3.48180294
Cl      22.46224115      14.61690923      37.31968894      -0.02885762       0.03540096       0.05829633      -3.51605320
Cl      32.02568792      37.39653358      42.10481961      -0.04244905       0.02267794      -0.01131048      -3.58638430
Cl      27.22527490      48.49847088      31.40207828       0.06337280       0.01942546      -0.01783209      -3.51169610
Cl      36.99071052       3.98505577      36.43281278      -0.02853975      -0.01631902       0.04522059      -3.49152851
Cl      21.49017889      51.91799238      42.51018755      -0.00891348      -0.03503845      -0.03342248      -3.60686445
Cl       8.42119554       3.27126430      40.21572226       0.13574012       0.02915199       0.09229468      -3.58798432
Cl      41.00676201      45.65934914      10.79751009       0.01977058      -0.02714029      -0.00867877      -3.46430326
Cl       3.18233327      29.14777987      16.26158523       0.02087639       0.09749267      -0.02243832      -3.43896317
Cl      31.60285237      19.35359525      45.67002220       0.00286215       0.13601151      -0.01348779      -3.49981356
Cl      13.55978441       5.72825702      41.85971707      -0.04643290      -0.04319884       0.01515609      -3.54388452
Cl      36.49969825      50.21961572      47.00746092      -0.02222484      -0.00531078       0.01987886      -3.45018530
Cl      19.56899649      48.87266699      40.01692755       0.01753897      -0.02373328      -0.08903790      -3.35208797
Cl       9.10534878      17.56059406       3.47924714       0.02174213       0.03677868      -0.01381177      -3.47890687
Cl      36.44426307      58.64056757      14.14762701      -0.03825145      -0.01051756      -0.04234578      -3.56585407
Cl       4.67647646      30.67499952      10.78171660       0.01859162      -0.05842337       0.05442964      -3.57329035
Cl      45.74980626      20.38072056       8.96196168       0.01317558       0.00819366      -0.00844156      -3.50872970
Cl      26.25600454      12.06493241      37.69969872      -0.01814349      -0.03951818      -0.01241717      -3.54481149
Cl      42.53272622      57.80659981      44.97262964      -0.02425575       0.02293008       0.00567835      -3.37198544
Cl      53.74477579      35.15016363      13.79518141       0.03334583      -0.02089611       0.03171799      -3.58070111
Cl      14.38222288      57.14290022       5.45802671       0.00783338      -0.03856890       0.04166414      -3.55600238
Cl      23.89483783      53.68750987      16.03744263      -0.02253328      -0.00572550      -0.05791517      -3.38100219
Cl      43.02461597      37.62449790      30.72910060      -0.03195458       0.08064051       0.05153310      -3.50392842
Cl      28.36336119      38.88574659      19.69128294      -0.02971464      -0.02081724       0.06126507      -3.42129683
Cl       7.19434188      40.05565433      49.66252438      -0.06408899       0.06237463      -0.05088548      -3.47125363
Cl      53.91682543      42.31920174      55.80428985       0.00263183      -0.02204644      -0.02117518      -3.52582812
Cl      30.60483972       2.09051793      56.96054114      -0.03235705      -0.01762758       0.02591294      -3.46063876
Cl      10.80458937      41.61547606      32.82542005      -0.03447219       0.05333130      -0.04881734      -3.45600820
Cl      50.79460228      29.06547406       3.78885519       0.02607590       0.00162179       0.03742582      -3.58036351
Na      19.85482767      38.48474158      33.96527712       0.04212712      -0.01388057      -0.01321576      -3.22208548
Na      38.25806041      10.17177729      57.24436157      -0.00355987       0.00950517      -0.03654500      -3.34633803
Na      50.59389262      16.98391908       9.14000194      -0.05542679      -0.01902549       0.07114302      -3.33262014
Na      27.52006716       9.79856755      51.44516880      -0.02508302       0.01128856       0.01788541      -3.10017109
Na      52.71708971       0.81013967      45.74584044      -0.01845811       0.02570716      -0.00432805      -3.23844600
Na      42.82689499      40.08356078      43.65640874      -0.00441889      -0.01712691       0.05393471      -3.28085351
Na       0.80776546      50.88036108      40.39224922       0.07707673      -0.00757152      -0.00983585      -3.25330234
Na      28.86999596      19.31906207      22.27791830       0.06332693       0.02147898       0.00033784      -3.29521465
Na      50.86062024      22.94024613      30.61498834       0.03619837      -0.00838361      -0.04424323      -3.38134670
Na       4.94719802      42.72644967      29.26887241      -0.01690884      -0.01610059      -0.01674374      -3.18680191
Na      32.81274284      57.64178509      24.84299409       0.03494127      -0.02767728      -0.06609958      -3.12873411
Na       4.44557830      19.98483290       7.84639076       0.08168898      -0.01662144      -0.04156306      -3.30020022
Na       5.09214739      10.10813782      56.94176960       0.00551546      -0.01259267      -0.05055423      -3.31488442
Na      50.01940250      27.85093890      20.80428040      -0.08751709       0.07050433       0.08352122      -3.21136880
Na      27.84747389      50.68833969      47.95762836       0.02766770       0.05416736       0.02082002      -3.42169905
Na      41.54403856      40.85711968      40.22325658       0.00769727      -0.03888297       0.02122585      -3.32639813
Na      37.75764908      35.45326725      49.44546963      -0.00900329      -0.09756845      -0.03202853      -3.39683342
Na      15.47484121      15.52927652      35.72938791      -0.00486339      -0.01641474      -0.00415045      -3.29213738
Na      42.13433936      29.36724035      47.54992029      -0.01033218      -0.02491521      -0.00660370      -3.31325960
Na      37.09431925      31.92445984      42.73161513      -0.00687145      -0.01287442       0.04319165      -3.26384807
Na      45.92520434      23.00222145       6.79871969       0.03871426      -0.08044400       0.06850450      -3.26194334
Na      56.15111141      50.41849114      29.55688521       0.05124177       0.05361484      -0.00266662      -3.22338676
Na       1.11173030      57.79029343      29.08947355       0.03129587      -0.03726292      -0.00955430      -3.49193430
Na      51.84826717       6.00901185      55.37247631      -0.01876806      -0.02924595       0.02320883      -3.32216358
Na       3.56483385      40.22022519      31.42528331       0.02273137       0.01548648      -0.02631807      -3.22944880
Na      53.30680149      34.31144593      31.14359847       0.03185575       0.07004274      -0.01816008      -3.41883230
Na      33.24241568       2.74800612      42.33541404       0.04002992      -0.11179774       0.09603074      -3.17118979
Na      11.63740649      36.63402388      11.71456689       0.00163044       0.02196422      -0.05145618      -3.14315748
Na      45.65516522      22.11560598      15.63055068      -0.06684458       0.07333200       0.01891391      -3.34517956
Na      33.97876168      34.83556922      17.97228960      -0.00488456      -0.06377673      -0.05718179      -3.31457424
Na      40.94152361      18.03068107      19.17250187       0.05104109      -0.02874270      -0.00195838      -3.40151477
Na      40.61185080      24.24679441       3.19554697      -0.03862564      -0.00342099      -0.00034164      -3.36448479
Na      10.35222096      14.49822679       9.43803087       0.01292056      -0.00870509      -0.01743324      -3.29663563
Na       6.09796973      24.38283008      37.64736417      -0.05630941       0.02575857      -0.00059514      -3.26290369
Na      40.30075190      18.40560847      41.71077755       0.04035691      -0.01639076       0.02384700      -3.30690765
Na      44.04661556      40.79843421       3.37195964       0.05375880      -0.06686594       0.06670562      -3.29147267
Na      24.68401338      48.02403020       8.67791770       0.04315358       0.00848900       0.01300665      -3.34686422
Na      48.73743631      20.86710277      57.05603063      -0.06816527       0.00337261       0.03361899      -3.21867442
Na       0.18488618      17.91415688       1.02721769      -0.07088128      -0.03274520      -0.00049803      -3.25728416
Na       2.60316823      47.14014616       9.90847823       0.03964154       0.01182830       0.10227065      -3.16001201
Na       1.88597101      41.34380291      21.42924058       0.02144084      -0.02759802      -0.00455987      -3.20322847
Na       8.15157042      11.69879333      32.33939171      -0.03373355       0.00276892       0.01235589      -3.35298777
Na      40.84231403      43.82698654      42.80780021       0.03976799       0.01542252      -0.02090223      -3.34509587
Na      31.44970206      54.15112607      40.16084242      -0.09501641       0.01425190       0.08071438      -3.20653200
Na       8.52718087       1.67430955       5.80035555      -0.04924880       0.02973257      -0.02838054      -3.36724925
Na      14.28109817      30.31359168      25.71504887       0.00594429       0.02939617      -0.01050921      -3.27483821
Na       7.39869467      13.48827235      55.57950655      -0.00029241       0.00568752      -0.04272722      -3.17203212
Na      45.61854882      48.09042317       4.38853603      -0.03306442      -0.01404903      -0.08139797      -3.19239664
Na      48.68796881      16.07893993      32.33572408      -0.02801559       0.03798308       0.10845551      -3.10434341
Na      54.97401148      56.90080115      20.69759264       0.06993230      -0.03422862      -0.03566974      -3.17827511
Cl      48.01546483      18.24533123      20.02279015       0.03229000      -0.01773661      -0.19538499      -3.39880610
Cl      14.44878963       9.32801420      24.37302148      -0.02696323      -0.07449569       0.07253063      -3.47208023
Cl      44.65206098       6.31682551      49.48800032       0.03392508      -0.01838150      -0.02507033      -3.53671646
Cl      21.37086474      25.60172741      40.21031493      -0.02318848       0.02257321      -0.03148740      -3.31268668
Cl      48.00663850       8.13149986      31.58221526       0.01772908       0.06798750       0.01250569      -3.56859374
Cl       0.41452598       2.24180927      23.38982152       0.06206203       0.01185375      -0.02211244      -3.56248426
Cl      45.19191182      25.85247396       0.90341307      -0.00962598       0.00396620       0.01024376      -3.49645805
Cl      14.51930479       2.28905864      48.15368174      -0.01357627      -0.02861810       0.00774468      -3.52296925
Cl       5.41190758       7.46867575      50.56080733      -0.01947647       0.08613095       0.04854397      -3.47887707
Cl      39.31211595       6.54928838      39.13594990      -0.09894942       0.05624104      -0.02733138      -3.35641623
Cl      40.91385618      24.37492356      56.73010349       0.03717130      -0.01008615       0.03222840      -3.63277888
Cl      54.48306037      51.12708544      18.76081477      -0.01429538      -0.02858151      -0.05584371      -3.28428888
Cl      35.03602641      33.28147910      14.58520814      -0.05335157       0.01592702      -0.01417281      -3.44021916
Cl       5.95100986      55.05692672       0.98831324      -0.01260084      -0.01374920      -0.05639790      -3.61602688
Cl      24.95633712       2.12416707      14.56010599      -0.01457477      -0.02435457       0.01662896      -3.50028610
Cl      55.65897964      34.14170661      50.64989267       0.05450252       0.01124093       0.00220782      -3.37335038
Cl      32.74033054      41.57168257      56.35212516      -0.03441933       0.01196060      -0.00832994      -3.58151650
Cl      55.05822678      30.25570610      35.19059446       0.02022775      -0.01930552       0.02506139      -3.48248768
Cl       3.11228941      43.50430830      36.90860486       0.11851849       0.00572278      -0.10444485      -3.42256546
Cl      32.43838652      40.25860706       4.77339724      -0.05703012      -0.08862150      -0.03391101      -3.53279686
Cl      32.60560299      39.51593432       8.45046208      -0.09135199       0.07485199       0.05400960      -3.52646399
Cl      14.14394955      13.12240191      56.06112980       0.01718770       0.00745133      -0.01914251      -3.48180389
Cl      22.46224118      14.61690938      51.95155550      -0.02886026       0.03540161       0.05829801      -3.51605272
Cl      32.02568807      37.39653373      56.73668691      -0.04244779       0.02267745      -0.01130844      -3.58638287
Cl      27.22527485      48.49847087      46.03394529       0.06337283       0.01942738      -0.01783511      -3.51169467
Cl      36.99071060       3.98505576      51.06468005      -0.02853748      -0.01631920       0.04522431      -3.49152875
Cl      21.49017894      51.91799286      57.14205563      -0.00891332      -0.03503796      -0.03342167      -3.60686374
Cl       8.42119539       3.27126428      54.84758972       0.13573986       0.02915097       0.09228901      -3.58798456
Cl      41.00676200      45.65934911      25.42937692       0.01977128      -0.02713935      -0.00867726      -3.46430302
Cl       3.18233329      29.14777989      30.89345227       0.02087436       0.09749110      -0.02243798      -3.43896437
Cl      31.60285247      19.35359506       1.77442114       0.00286272       0.13601260      -0.01348945      -3.49981427
Cl      13.55978423       5.72825716      56.49158424      -0.04643448      -0.04319847       0.01515775      -3.54388332
Cl      36.49969817      50.21961565       3.11185917      -0.02222382      -0.00531056       0.01988047      -3.45018435
Cl      19.56899654      48.87266721      54.64879414       0.01753889      -0.02373373      -0.08903782      -3.35208821
Cl       9.10534871      17.56059439      18.11111470       0.02174179       0.03677844      -0.01381152      -3.47890711
Cl      36.44426304      58.64056745      28.77949392      -0.03825206      -0.01051786      -0.04234454      -3.56585407
Cl       4.67647644      30.67499950      25.41358374       0.01859173      -0.05842355       0.05442876      -3.57329082
Cl      45.74980630      20.38072054      23.59382863       0.01317606       0.00819337      -0.00844008      -3.50872874
Cl      26.25600435      12.06493275      52.33156536      -0.01814156      -0.03952023      -0.01241069      -3.54481006
Cl      42.53272626      57.80659997       1.07702814      -0.02425637       0.02293060       0.00568090      -3.37198544
Cl      53.74477576      35.15016361      28.42704840       0.03335325      -0.02089723       0.03171927      -3.58070064
Cl      14.38222286      57.14290018      20.08989411       0.00783437      -0.03856981       0.04166548      -3.55600166
Cl      23.89483772      53.68750983      30.66930942      -0.02253392      -0.00572520      -0.05791288      -3.38100171
Cl      43.02461596      37.62449788      45.36096774      -0.03195489       0.08064026       0.05153130      -3.50392723
Cl      28.36336111      38.88574657      34.32315008      -0.02971428      -0.02081660       0.06126106      -3.42129564
Cl       7.19434183      40.05565443       5.76692307      -0.06408886       0.06237442      -0.05088638      -3.47125340
Cl      53.91682544      42.31920163      11.90868850       0.00263304      -0.02204646      -0.02117400      -3.52582717
Cl      30.60483961       2.09051799      13.06493898      -0.03235692      -0.01762732       0.02591399      -3.46063924
Cl      10.80458931      41.61547618      47.45728731      -0.03447116       0.05333197      -0.04881573      -3.45600820
Cl      50.79460226      29.06547395      18.42072269       0.02607495       0.00162252       0.03742613      -3.58036351
Na      19.85482759      38.48474156      48.59714404       0.04212691      -0.01388089      -0.01321590      -3.22208524
Na      38.25806030      10.17177736      13.34875958      -0.00355965       0.00950535      -0.03654429      -3.34633803
Na      50.59389263      16.98391915      23.77186903      -0.05542640      -0.01902581       0.07114107      -3.33261967
Na      27.52006712       9.79856744       7.54956716      -0.02508369       0.01128724       0.01788240      -3.10017133
Na      52.71708941       0.81013990       1.85023862      -0.01845825       0.02570859      -0.00432514      -3.23844552
Na      42.82689525      40.08356078      58.28827675      -0.00441856      -0.01712745       0.05393525      -3.28085303
Na       0.80776545      50.88036116      55.02411672       0.07707665      -0.00757196      -0.00983464      -3.25330281
Na      28.86999586      19.31906190      36.90978536       0.06332500       0.02148141       0.00033441      -3.29521465
Na      50.86062018      22.94024617      45.24685534       0.03619891      -0.00837995      -0.04424636      -3.38134718
Na       4.94719806      42.72644963      43.90073944      -0.01691204      -0.01610164      -0.01673897      -3.18680215
Na      32.81274285      57.64178498      39.47486113       0.03494120      -0.02767890      -0.06609914      -3.12873459
Na       4.44557832      19.98483289      22.47825787       0.08168888      -0.01662160      -0.04156312      -3.30020046
Na       5.09214752      10.10813750      13.04616823       0.00551409      -0.01259048      -0.05055521      -3.31488442
Na      50.01940247      27.85093891      35.43614731      -0.08751737       0.07050136       0.08352457      -3.21136904
Na      27.84747371      50.68833972       4.06202716       0.02766995       0.05416735       0.02082302      -3.42169881
Na      41.54403857      40.85711971      54.85512420       0.00769572      -0.03888199       0.02121434      -3.32639861
Na      37.75764917      35.45326719       5.54986843      -0.00900394      -0.09756830      -0.03203007      -3.39683366
Na      15.47484124      15.52927662      50.36125512      -0.00486398      -0.01641146      -0.00414682      -3.29213738
Na      42.13433920      29.36724032       3.65431894      -0.01033245      -0.02491587      -0.00660453      -3.31325889
Na      37.09431932      31.92445991      57.36348289      -0.00687224      -0.01287456       0.04319775      -3.26384807
Na      45.92520440      23.00222155      21.43058666       0.03871454      -0.08044350       0.06850498      -3.26194263
Na      56.15111129      50.41849106      44.18875209       0.05124554       0.05361715      -0.00266013      -3.22338724
Na       1.11173036      57.79029332      43.72134071       0.03129549      -0.03726365      -0.00955299      -3.49193478
Na      51.84826720       6.00901205      11.47687477      -0.01876986      -0.02924704       0.02320825      -3.32216382
Na       3.56483389      40.22022520      46.05715013       0.02273190       0.01548757      -0.02632467      -3.22944975
Na      53.30680153      34.31144601      45.77546545       0.03185795       0.07004389      -0.01816287      -3.41883230
Na      33.24241572       2.74800616      56.96728129       0.04003010      -0.11179645       0.09603411      -3.17118859
Na      11.63740648      36.63402382      26.34643387       0.00163169       0.02196580      -0.05145416      -3.14315748
Na      45.65516513      22.11560599      30.26241770      -0.06684525       0.07333180       0.01891568      -3.34517884
Na      33.97876164      34.83556913      32.60415659      -0.00487560      -0.06377376      -0.05718225      -3.31457376
Na      40.94152349      18.03068103      33.80436897       0.05104152      -0.02874046      -0.00195365      -3.40151477
Na      40.61185091      24.24679446      17.82741441      -0.03862529      -0.00342084      -0.00034045      -3.36448503
Na      10.35222100      14.49822682      24.06989803       0.01292055      -0.00870530      -0.01743375      -3.29663539
Na       6.09796979      24.38283016      52.27923122      -0.05630942       0.02575801      -0.00059485      -3.26290345
Na      40.30075193      18.40560838      56.34264507       0.04035682      -0.01638899       0.02384870      -3.30690789
Na      44.04661567      40.79843420      18.00382683       0.05375920      -0.06686546       0.06670856      -3.29147339
Na      24.68401343      48.02403029      23.30978490       0.04315374       0.00848822       0.01300406      -3.34686446
Na      48.73743630      20.86710262      13.16042968      -0.06816415       0.00337657       0.03361985      -3.21867394
Na       0.18488589      17.91415738      15.65908488      -0.07088174      -0.03274648      -0.00049868      -3.25728345
Na       2.60316827      47.14014615      24.54034525       0.03964124       0.01182820       0.10226911      -3.16001201
Na       1.88597094      41.34380290      36.06110762       0.02143870      -0.02759681      -0.00455801      -3.20322824
Na       8.15157033      11.69879352      46.97125902      -0.03373468       0.00277006       0.01235642      -3.35298848
Na      40.84231392      43.82698671      57.43966796       0.03976851       0.01542307      -0.02090102      -3.34509516
Na      31.44970219      54.15112589      54.79270967      -0.09501611       0.01425063       0.08071469      -3.20653200
Na       8.52718078       1.67430951      20.43222287      -0.04924858       0.02973242      -0.02837992      -3.36724925
Na      14.28109816      30.31359194      40.34691555       0.00594492       0.02939561      -0.01050664      -3.27483797
Na       7.39869466      13.48827247      11.68390506      -0.00029256       0.00568768      -0.04272727      -3.17203164
Na      45.61854894      48.09042302      19.02040296      -0.03306374      -0.01404921      -0.08139732      -3.19239664
Na      48.68796885      16.07893986      46.96759107      -0.02801547       0.03798132       0.10845440      -3.10434341
Na      54.97401142      56.90080115      35.32945923       0.06993285      -0.03422939      -0.03567557      -3.17827559
Cl      48.01546488      18.24533126      34.65465722       0.03229220      -0.01773752      -0.19538231      -3.39880657
Cl      14.44878962       9.32801420      39.00488844      -0.02696036      -0.07449744       0.07253432      -3.47207975
Cl      44.65206060       6.31682550       5.59239873       0.03392379      -0.01838253      -0.02507415      -3.53671575
Cl      21.37086458      25.60172723      54.84218220      -0.02318914       0.02257454      -0.03148779      -3.31268668
Cl      48.00663834       8.13149977      46.21408210       0.01772970       0.06798729       0.01250791      -3.56859374
Cl       0.41452602       2.24180922      38.02168840       0.06205858       0.01185486      -0.02210364      -3.56248569
Cl      45.19191181      25.85247385      15.53528043      -0.00962555       0.00396587       0.01024422      -3.49645829
Cl      14.51930478       2.28905868       4.25808044      -0.01357685      -0.02861867       0.00774471      -3.52297044
Cl       5.41190756       7.46867574       6.66520622      -0.01947569       0.08613402       0.04853992      -3.47887754
Cl      39.31211602       6.54928819      53.76781725      -0.09895046       0.05623792      -0.02733949      -3.35641885
Cl      40.91385617      24.37492341      12.83450206       0.03717119      -0.01008695       0.03222531      -3.63277864
Cl      54.48306020      51.12708545      33.39268164      -0.01429565      -0.02858151      -0.05584412      -3.28428888
Cl      35.03602635      33.28147909      29.21707515      -0.05335245       0.01592693      -0.01417384      -3.44021988
Cl       5.95100997      55.05692690      15.62018088      -0.01260106      -0.01374947      -0.05639774      -3.61602712
Cl      24.95633709       2.12416714      29.19197295      -0.01457463      -0.02435505       0.01663009      -3.50028658
Cl      55.65897978      34.14170638       6.75429141       0.05450416       0.01124466       0.00220200      -3.37335038
Cl      32.74033016      41.57168246      12.45652351      -0.03441928       0.01196165      -0.00833184      -3.58151817
Cl      55.05822683      30.25570602      49.82246139       0.02022804      -0.01930495       0.02506026      -3.48248649
Cl       3.11228910      43.50430824      51.54047164       0.11852075       0.00572106      -0.10444216      -3.42256546
Cl      32.43838656      40.25860680      19.40526437      -0.05703138      -0.08862069      -0.03390764      -3.53279686
Cl      32.60560307      39.51593428      23.08232919      -0.09135027       0.07485121       0.05401013      -3.52646232
Cl      14.14394954      13.12240188      12.16552817       0.01718711       0.00745005      -0.01914287      -3.48180270
Cl      22.46224119      14.61690926       8.05595456      -0.02886024       0.03540147       0.05829740      -3.51605225
Cl      32.02568781      37.39653356      12.84108553      -0.04244781       0.02267846      -0.01130866      -3.58638215
Cl      27.22527484      48.49847088       2.13834389       0.06337315       0.01942426      -0.01783113      -3.51169491
Cl      36.99071058       3.98505571       7.16907848      -0.02853961      -0.01631884       0.04522009      -3.49152923
Cl      21.49017895      51.91799244      13.24645349      -0.00891380      -0.03503781      -0.03341986      -3.60686445
Cl       8.42119549       3.27126433      10.95198831       0.13574117       0.02915110       0.09229557      -3.58798337
Cl      41.00676211      45.65934912      40.06124405       0.01977650      -0.02714361      -0.00868003      -3.46430182
Cl       3.18233319      29.14778003      45.52531940       0.02087633       0.09749074      -0.02243911      -3.43896341
Cl      31.60285239      19.35359529      16.40628821       0.00286196       0.13601220      -0.01348978      -3.49981380
Cl      13.55978433       5.72825706      12.59598298      -0.04643483      -0.04319964       0.01515908      -3.54388380
Cl      36.49969830      50.21961578      17.74372669      -0.02222374      -0.00531036       0.01988034      -3.45018506
Cl      19.56899650      48.87266693      10.75319303       0.01753787      -0.02373414      -0.08903873      -3.35208774
Cl       9.10534874      17.56059425      32.74298189       0.02174125       0.03677747      -0.01380989      -3.47890687
Cl      36.44426320      58.64056769      43.41136101      -0.03825257      -0.01051639      -0.04234762      -3.56585312
Cl       4.67647640      30.67499960      40.04545094       0.01859176      -0.05842333       0.05442697      -3.57329035
Cl      45.74980636      20.38072046      38.22569590       0.01317413       0.00819363      -0.00844244      -3.50873017
Cl      26.25600448      12.06493262       8.43596437      -0.01814210      -0.03951962      -0.01241412      -3.54481053
Cl      42.53272619      57.80659984      15.70889550      -0.02425671       0.02292988       0.00568082      -3.37198544
Cl      53.74477580      35.15016349      43.05891535       0.03334549      -0.02089571       0.03171799      -3.58070183
Cl      14.38222288      57.14290008      34.72176123       0.00783423      -0.03856920       0.04166609      -3.55600119
Cl      23.89483793      53.68750985      45.30117657      -0.02253487      -0.00572480      -0.05791942      -3.38100123
Cl      43.02461580      37.62449748       1.46536610      -0.03195481       0.08064084       0.05153361      -3.50392771
Cl      28.36336110      38.88574668      48.95501655      -0.02971404      -0.02081850       0.06126555      -3.42129803
Cl       7.19434183      40.05565437      20.39879035      -0.06408882       0.06237418      -0.05088592      -3.47125316
Cl      53.91682549      42.31920160      26.54055546       0.00263323      -0.02204666      -0.02117374      -3.52582812
Cl      30.60483960       2.09051801      27.69680595      -0.03235683      -0.01762725       0.02591423      -3.46064019
Cl      10.80458926      41.61547568       3.56168590      -0.03447188       0.05333070      -0.04881716      -3.45600867
Cl      50.79460227      29.06547404      33.05258950       0.02607522       0.00162215       0.03742532      -3.58036423
Na      19.85482749      38.48474168       4.70154295       0.04213009      -0.01388246      -0.01321170      -3.22208595
Na      38.25806034      10.17177745      27.98062656      -0.00355884       0.00950515      -0.03654547      -3.34633756
Na      50.59389260      16.98391913      38.40373576      -0.05542810      -0.01902621       0.07114364      -3.33261991
Na      27.52006703       9.79856742      22.18143444      -0.02508291       0.01128723       0.01788026      -3.10017133
Na      52.71708978       0.81013969      16.48210630      -0.01845888       0.02570826      -0.00432573      -3.23844552
Na      42.82689533      40.08356093      14.39267502      -0.00441770      -0.01712713       0.05393448      -3.28085303
Na       0.80776544      50.88036105      11.12851525       0.07707741      -0.00757166      -0.00983592      -3.25330281
Na      28.86999608      19.31906195      51.54165221       0.06332107       0.02148032       0.00033488      -3.29521465
Na      50.86061988      22.94024597       1.35125347       0.03619817      -0.00838197      -0.04424402      -3.38134718
Na       4.94719825      42.72644971       0.00513773      -0.01691126      -0.01609980      -0.01674128      -3.18680167
Na      32.81274299      57.64178485      54.10672860       0.03494134      -0.02767731      -0.06609823      -3.12873411
Na       4.44557849      19.98483289      37.11012477       0.08168960      -0.01661921      -0.04156512      -3.30019951
Na       5.09214751      10.10813748      27.67803523       0.00551467      -0.01259039      -0.05055640      -3.31488442
Na      50.01940248      27.85093889      50.06801438      -0.08751728       0.07050402       0.08351918      -3.21136880
Na      27.84747385      50.68833973      18.69389444       0.02766857       0.05416785       0.02082208      -3.42169833
Na      41.54403855      40.85711978      10.95952235       0.00769592      -0.03888335       0.02121996      -3.32639837
Na      37.75764920      35.45326725      20.18173574      -0.00900343      -0.09756871      -0.03202946      -3.39683366
Na      15.47484100      15.52927647       6.46565379      -0.00486383      -0.01641235      -0.00414627      -3.29213715
Na      42.13433934      29.36724037      18.28618619      -0.01033209      -0.02491616      -0.00660301      -3.31325889
Na      37.09431908      31.92445969      13.46788135      -0.00687271      -0.01287482       0.04319694      -3.26384807
Na      45.92520448      23.00222169      36.06245377       0.03871281      -0.08044367       0.06850397      -3.26194406
Na      56.15111129      50.41849078       0.29315033       0.05124402       0.05361406      -0.00266776      -3.22338748
Na       1.11173035      57.79029332      58.35320825       0.03129509      -0.03726292      -0.00955140      -3.49193430
Na      51.84826706       6.00901207      26.10874178      -0.01876995      -0.02924702       0.02320792      -3.32216334
Na       3.56483362      40.22022526       2.16154884       0.02273180       0.01548717      -0.02631964      -3.22944927
Na      53.30680152      34.31144568       1.87986380       0.03185606       0.07004214      -0.01816044      -3.41883278
Na      33.24241569       2.74800624      13.07168024       0.04003036      -0.11179617       0.09603232      -3.17118907
Na      11.63740629      36.63402383      40.97830078       0.00162909       0.02195830      -0.05145968      -3.14315748
Na      45.65516517      22.11560603      44.89428472      -0.06684604       0.07333217       0.01891623      -3.34517980
Na      33.97876148      34.83556907      47.23602365      -0.00487651      -0.06377410      -0.05718189      -3.31457424
Na      40.94152354      18.03068103      48.43623562       0.05104163      -0.02874395      -0.00196253      -3.40151525
Na      40.61185098      24.24679443      32.45928173      -0.03862527      -0.00342028      -0.00034170      -3.36448503
Na      10.35222091      14.49822674      38.70176495       0.01292171      -0.00870421      -0.01742905      -3.29663515
Na       6.09796979      24.38283018       8.38363038      -0.05630971       0.02575828      -0.00059489      -3.26290393
Na      40.30075185      18.40560847      12.44704360       0.04035771      -0.01638953       0.02384539      -3.30690765
Na      44.04661567      40.79843434      32.63569390       0.05375777      -0.06686663       0.06670802      -3.29147267
Na      24.68401345      48.02403019      37.94165193       0.04315332       0.00848910       0.01300802      -3.34686327
Na      48.73743625      20.86710257      27.79229667      -0.06815737       0.00337721       0.03361918      -3.21867418
Na       0.18488589      17.91415732      30.29095190      -0.07088111      -0.03274620      -0.00049824      -3.25728345
Na       2.60316811      47.14014616      39.17221219       0.03964407       0.01182820       0.10227341      -3.16001105
Na       1.88597102      41.34380298      50.69297486       0.02143915      -0.02759618      -0.00455698      -3.20322776
Na       8.15157050      11.69879334       3.07565742      -0.03373437       0.00276984       0.01235755      -3.35298800
Na      40.84231402      43.82698668      13.54406628       0.03976836       0.01542126      -0.02090327      -3.34509444
Na      31.44970207      54.15112602      10.89710845      -0.09501664       0.01425071       0.08071494      -3.20653248
Na       8.52718082       1.67430969      35.06408941      -0.04924786       0.02973327      -0.02838314      -3.36724854
Na      14.28109816      30.31359178      54.97878317       0.00594506       0.02939492      -0.01050607      -3.27483702
Na       7.39869468      13.48827250      26.31577195      -0.00029269       0.00568764      -0.04272775      -3.17203212
Na      45.61854905      48.09042326      33.65226967      -0.03306308      -0.01404953      -0.08139962      -3.19239688
Na      48.68796842      16.07893949       3.07199023      -0.02801612       0.03798196       0.10845508      -3.10434318
Na      54.97401153      56.90080100      49.96132657       0.06993289      -0.03422926      -0.03567532      -3.17827535
Cl      48.01546473      18.24533131      49.28652422       0.03228997      -0.01773641      -0.19538544      -3.39880538
Cl      14.44878975       9.32801418      53.63675555      -0.02696341      -0.07449586       0.07252930      -3.47207975
Cl      44.65206069       6.31682555      20.22426590       0.03392425      -0.01838307      -0.02507453      -3.53671646
Cl      21.37086475      25.60172726      10.94658082      -0.02318913       0.02257409      -0.03148691      -3.31268644
Cl      48.00663832       8.13149990       2.31848113       0.01772832       0.06798737       0.01250539      -3.56859398
Cl       0.41452594       2.24180915      52.65355560       0.06206237       0.01185442      -0.02211361      -3.56248569
Cl      45.19191202      25.85247383      30.16714752      -0.00962507       0.00396529       0.01024345      -3.49645901
Cl      14.51930485       2.28905850      18.88994772      -0.01357677      -0.02861753       0.00774441      -3.52297044
Cl       5.41190759       7.46867584      21.29707334      -0.01947557       0.08613425       0.04854021      -3.47887731
Cl      39.31211574       6.54928826       9.87221603      -0.09895153       0.05623943      -0.02733704      -3.35641742
Cl      40.91385609      24.37492350      27.46636912       0.03717133      -0.01008730       0.03222388      -3.63277864
Cl      54.48306028      51.12708560      48.02454873      -0.01429517      -0.02858122      -0.05584276      -3.28428912
Cl      35.03602630      33.28147913      43.84894208      -0.05335156       0.01592774      -0.01417187      -3.44021988
Cl       5.95100990      55.05692693      30.25204788      -0.01260054      -0.01374890      -0.05639812      -3.61602759
Cl      24.95633712       2.12416715      43.82384023      -0.01457488      -0.02435477       0.01662683      -3.50028515
Cl      55.65897980      34.14170635      21.38615832       0.05450296       0.01124476       0.00220413      -3.37334991
Cl      32.74033032      41.57168217      27.08839065      -0.03441899       0.01196104      -0.00832967      -3.58151817
Cl      55.05822676      30.25570605       5.92686026       0.02022868      -0.01930591       0.02505910      -3.48248649
Cl       3.11228931      43.50430835       7.64487041       0.11851787       0.00572155      -0.10444877      -3.42256546
Cl      32.43838646      40.25860671      34.03713124      -0.05702830      -0.08862211      -0.03391465      -3.53279662
Cl      32.60560300      39.51593435      37.71419629      -0.09135121       0.07485133       0.05401216      -3.52646399
Cl      14.14394954      13.12240189      26.79739510       0.01718661       0.00744954      -0.01914276      -3.48180294
Cl      22.46224118      14.61690926      22.68782156      -0.02886001       0.03540136       0.05829802      -3.51605225
Cl      32.02568782      37.39653352      27.47295248      -0.04244779       0.02267855      -0.01130774      -3.58638310
Cl      27.22527488      48.49847091      16.77021128       0.06337273       0.01942626      -0.01783313      -3.51169586
Cl      36.99071042       3.98505570      21.80094565      -0.02853905      -0.01631866       0.04522096      -3.49152851
Cl      21.49017887      51.91799251      27.87832055      -0.00891393      -0.03503828      -0.03341959      -3.60686493
Cl       8.42119551       3.27126437      25.58385522       0.13573952       0.02915099       0.09229817      -3.58798432
Cl      41.00676182      45.65934919      54.69311121       0.01977649      -0.02714150      -0.00867894      -3.46430302
Cl       3.18233324      29.14777983       1.62971766       0.02087463       0.09748989      -0.02244156      -3.43896341
Cl      31.60285234      19.35359531      31.03815508       0.00286178       0.13601215      -0.01348804      -3.49981403
Cl      13.55978439       5.72825707      27.22784984      -0.04643407      -0.04319888       0.01515850      -3.54388380
Cl      36.49969830      50.21961570      32.37559371      -0.02222482      -0.00530937       0.01987654      -3.45018482
Cl      19.56899642      48.87266698      25.38506011       0.01753792      -0.02373399      -0.08903706      -3.35208774
Cl       9.10534871      17.56059448      47.37484877       0.02174160       0.03677818      -0.01380588      -3.47890663
Cl      36.44426316      58.64056742      58.04322873      -0.03825242      -0.01051785      -0.04234564      -3.56585383
Cl       4.67647611      30.67499948      54.67731759       0.01859305      -0.05842252       0.05442731      -3.57329035
Cl      45.74980631      20.38072042      52.85756258       0.01317339       0.00819285      -0.00844020      -3.50872827
Cl      26.25600440      12.06493265      23.06783130      -0.01814240      -0.03951974      -0.01241263      -3.54481006
Cl      42.53272616      57.80659983      30.34076252      -0.02425632       0.02293037       0.00567905      -3.37198544
Cl      53.74477585      35.15016353      57.69078321       0.03334621      -0.02089651       0.03171524      -3.58070016
Cl      14.38222274      57.14290003      49.35362807       0.00783383      -0.03856733       0.04166878      -3.55600238
Cl      23.89483792      53.68750989       1.40557510      -0.02253396      -0.00572457      -0.05791453      -3.38100290
Cl      43.02461597      37.62449782      16.09723365      -0.03195442       0.08064157       0.05153474      -3.50392771
Cl      28.36336119      38.88574671       5.05941568      -0.02971425      -0.02081720       0.06126367      -3.42129636
Cl       7.19434178      40.05565430      35.03065739      -0.06408872       0.06237421      -0.05088679      -3.47125292
Cl      53.91682547      42.31920150      41.17242262       0.00263195      -0.02204711      -0.02117719      -3.52582717
Cl      30.60483961       2.09051802      42.32867322      -0.03235759      -0.01762792       0.02591218      -3.46063948
Cl      10.80458928      41.61547611      18.19355322      -0.03447173       0.05333060      -0.04882162      -3.45600867
Cl      50.79460228      29.06547401      47.68445655       0.02607451       0.00162206       0.03742926      -3.58036351
Na      19.85482759      53.11660818      19.33341035       0.04212908      -0.01387883      -0.01321245      -3.22208500
Na      38.25806030      24.80364445      42.61249345      -0.00356033       0.00950508      -0.03653966      -3.34633923
Na      50.59389262      31.61578594      53.03560340      -0.05542365      -0.01902210       0.07114594      -3.33261943
Na      27.52006717      24.43043439      36.81330128      -0.02508514       0.01128579       0.01788241      -3.10017133
Na      52.71709013      15.44200699      31.11397347      -0.01845877       0.02570865      -0.00432536      -3.23844576
Na      42.82689511      54.71542786      29.02454208      -0.00441708      -0.01712646       0.05393675      -3.28085256
Na       0.80776546       6.98476004      25.76038238       0.07707676      -0.00757348      -0.00983516      -3.25330210
Na      28.86999590      33.95092876       7.64605150       0.06332617       0.02148318       0.00033668      -3.29521537
Na      50.86062034      37.57211339      15.98312115       0.03619782      -0.00837954      -0.04424405      -3.38134623
Na       4.94719824      57.35831702      14.63700554      -0.01691036      -0.01611105      -0.01674160      -3.18680096
Na      32.81274305      13.74618292      10.21112701       0.03493981      -0.02768201      -0.06609754      -3.12873507
Na       4.44557850      34.61670004      51.74199178       0.08169027      -0.01661751      -0.04156578      -3.30020070
Na       5.09214749      24.74000471      42.30990218       0.00551549      -0.01259263      -0.05055299      -3.31488442
Na      50.01940255      42.48280596       6.17241320      -0.08751525       0.07049855       0.08352118      -3.21136856
Na      27.84747375       6.79273888      33.32576142       0.02767063       0.05416660       0.02082414      -3.42169833
Na      41.54403882      55.48898753      25.59138937       0.00769226      -0.03888251       0.02122014      -3.32639861
Na      37.75764909      50.08513413      34.81360264      -0.00900319      -0.09756833      -0.03202774      -3.39683318
Na      15.47484118      30.16114345      21.09752071      -0.00486230      -0.01641170      -0.00414486      -3.29213738
Na      42.13433944      43.99910728      32.91805318      -0.01033285      -0.02491637      -0.00660259      -3.31325889
Na      37.09431916      46.55632656      28.09974857      -0.00687344      -0.01288084       0.04319577      -3.26384759
Na      45.92520443      37.63408859      50.69432080       0.03871372      -0.08044791       0.06850336      -3.26194453
Na      56.15111137       6.52289001      14.92501835       0.05124076       0.05361541      -0.00266653      -3.22338676
Na       1.11173052      13.89469158      14.45760641       0.03129520      -0.03726120      -0.00955500      -3.49193525
Na      51.84826683      20.64087916      40.74060877      -0.01876619      -0.02924459       0.02320686      -3.32216477
Na       3.56483376      54.85209216      16.79341605       0.02273200       0.01548796      -0.02632448      -3.22944951
Na      53.30680141      48.94331321      16.51173141       0.03185641       0.07004331      -0.01816104      -3.41883183
Na      33.24241583      17.37987344      27.70354722       0.04003099      -0.11179605       0.09603482      -3.17118907
Na      11.63740642      51.26589114      55.61016851       0.00163188       0.02196478      -0.05145283      -3.14315748
Na      45.65516538      36.74747298       0.99868361      -0.06684432       0.07333084       0.01891379      -3.34517980
Na      33.97876159      49.46743629       3.34042287      -0.00487807      -0.06377978      -0.05718065      -3.31457424
Na      40.94152359      32.66254791       4.54063487       0.05104143      -0.02873880      -0.00195634      -3.40151477
Na      40.61185073      38.87866131      47.09114867      -0.03862482      -0.00342359      -0.00034211      -3.36448574
Na      10.35222097      29.13009373      53.33363217       0.01292109      -0.00870638      -0.01743320      -3.29663444
Na       6.09796971      39.01469693      23.01549728      -0.05630928       0.02575725      -0.00059559      -3.26290488
Na      40.30075191      33.03747571      27.07891069       0.04035765      -0.01638857       0.02384450      -3.30690765
Na      44.04661519      55.43030175      47.26756123       0.05376048      -0.06686822       0.06670000      -3.29147291
Na      24.68401320       4.12842916      52.57351934       0.04315246       0.00848681       0.01300121      -3.34686399
Na      48.73743632      35.49896940      42.42416340      -0.06816477       0.00337198       0.03361855      -3.21867394
Na       0.18488592      32.54602428      44.92281893      -0.07088295      -0.03274439      -0.00049721      -3.25728440
Na       2.60316830       3.24454478      53.80407925       0.03964129       0.01182707       0.10226848      -3.16001225
Na       1.88597078      55.97567025       6.79737312       0.02144248      -0.02759030      -0.00455714      -3.20322728
Na       8.15157042      26.33066051      17.70752492      -0.03373478       0.00276973       0.01235780      -3.35298800
Na      40.84231414      -0.06861478      28.17593344       0.03976716       0.01542372      -0.02090379      -3.34509516
Na      31.44970193      10.25552458      25.52897574      -0.09501463       0.01425406       0.08071290      -3.20653224
Na       8.52718068      16.30617720      49.69595674      -0.04924843       0.02973199      -0.02838325      -3.36724877
Na      14.28109820      44.94545874      11.08318171       0.00594494       0.02939368      -0.01050706      -3.27483773
Na       7.39869471      28.12013947      40.94763895      -0.00029100       0.00568709      -0.04272792      -3.17203212
Na      45.61854864       4.19482192      48.28413703      -0.03306309      -0.01404540      -0.08139841      -3.19239688
Na      48.68796881      30.71080721      17.70385716      -0.02801623       0.03797917       0.10845422      -3.10434318
Na      54.97401075      13.00519923       6.06572562       0.06993236      -0.03422051      -0.03567616      -3.17827559
Cl      48.01546479      32.87719850       5.39092327       0.03229028      -0.01773776      -0.19538556      -3.39880681
Cl      14.44878970      23.95988121       9.74115444      -0.02696280      -0.07449601       0.07252991      -3.47207999
Cl      44.65206070      20.94869242      34.85613298       0.03392410      -0.01838137      -0.02507201      -3.53671527
Cl      21.37086474      40.23359408      25.57844788      -0.02318815       0.02257553      -0.03148394      -3.31268668
Cl      48.00663851      22.76336702      16.95034814       0.01772851       0.06798915       0.01250631      -3.56859422
Cl       0.41452607      16.87367656       8.75795432       0.06206030       0.01185368      -0.02211249      -3.56248450
Cl      45.19191203      40.48434072      44.79901436      -0.00962598       0.00396674       0.01024492      -3.49645782
Cl      14.51930461      16.92092605      33.52181465      -0.01357472      -0.02861267       0.00774169      -3.52296948
Cl       5.41190744      22.10054294      35.92894028      -0.01947637       0.08613285       0.04854270      -3.47887731
Cl      39.31211575      21.18115540      24.50408307      -0.09895327       0.05623663      -0.02733925      -3.35641742
Cl      40.91385625      39.00679064      42.09823599       0.03717240      -0.01008034       0.03222546      -3.63277912
Cl      54.48306027       7.23148477       4.12894797      -0.01429348      -0.02857938      -0.05584425      -3.28428960
Cl      35.03602655      47.91334666      -0.04666047      -0.05335309       0.01592838      -0.01417270      -3.44022036
Cl       5.95100998      11.16132596      44.88391471      -0.01260065      -0.01375187      -0.05639629      -3.61602616
Cl      24.95633713      16.75603487      -0.07176210      -0.01457373      -0.02435508       0.01662839      -3.50028443
Cl      55.65897990      48.77357343      36.01802535       0.05450330       0.01124074       0.00220463      -3.37335086
Cl      32.74033049      56.20354956      41.72025724      -0.03441942       0.01196274      -0.00833077      -3.58151674
Cl      55.05822684      44.88757311      20.55872739       0.02022875      -0.01930355       0.02505870      -3.48248601
Cl       3.11228862      58.13617580      22.27673785       0.11851661       0.00571228      -0.10444483      -3.42256498
Cl      32.43838654      54.89047390      48.66899809      -0.05702969      -0.08862203      -0.03390992      -3.53279805
Cl      32.60560313      54.14780149      52.34606297      -0.09135228       0.07485272       0.05401118      -3.52646518
Cl      14.14394959      27.75426879      41.42926211       0.01718875       0.00745042      -0.01914040      -3.48180270
Cl      22.46224113      29.24877616      37.31968895      -0.02885719       0.03540239       0.05829571      -3.51605272
Cl      32.02568802      52.02840086      42.10481955      -0.04244706       0.02267780      -0.01130978      -3.58638310
Cl      27.22527491       4.60286956      31.40207842       0.06337409       0.01942475      -0.01783465      -3.51169538
Cl      36.99071047      18.61692311      36.43281286      -0.02853978      -0.01631849       0.04522093      -3.49152970
Cl      21.49017877       8.02239122      42.51018744      -0.00891168      -0.03504035      -0.03342127      -3.60686445
Cl       8.42119544      17.90313127      40.21572245       0.13574278       0.02915235       0.09229477      -3.58798456
Cl      41.00676169       1.76374769      10.79751045       0.01977650      -0.02714442      -0.00867883      -3.46430159
Cl       3.18233327      43.77964679      16.26158517       0.02087583       0.09748904      -0.02244169      -3.43896341
Cl      31.60285232      33.98546244      45.67002218       0.00286274       0.13601148      -0.01348809      -3.49981260
Cl      13.55978440      20.36012410      41.85971691      -0.04643303      -0.04319943       0.01515624      -3.54388523
Cl      36.49969819       6.32401438      47.00746092      -0.02222541      -0.00530986       0.01987780      -3.45018435
Cl      19.56899660       4.97706591      40.01692740       0.01753942      -0.02373443      -0.08903781      -3.35208774
Cl       9.10534887      32.19246115       3.47924716       0.02174073       0.03677507      -0.01381183      -3.47890663
Cl      36.44426319      14.74496559      14.14762723      -0.03825022      -0.01051505      -0.04234650      -3.56585383
Cl       4.67647648      45.30686642      10.78171667       0.01859334      -0.05841941       0.05442945      -3.57329082
Cl      45.74980642      35.01258755       8.96196160       0.01317517       0.00818978      -0.00843946      -3.50872707
Cl      26.25600450      26.69679942      37.69969854      -0.01814295      -0.03951821      -0.01241694      -3.54481173
Cl      42.53272666      13.91099823      44.97262971      -0.02425694       0.02292966       0.00567951      -3.37198472
Cl      53.74477575      49.78203054      13.79518141       0.03335465      -0.02090314       0.03171814      -3.58070064
Cl      14.38222278      13.24729857       5.45802687       0.00783290      -0.03857055       0.04166447      -3.55600071
Cl      23.89483794       9.79190855      16.03744267      -0.02253421      -0.00572120      -0.05791467      -3.38100338
Cl      43.02461584      52.25636480      30.72910062      -0.03195462       0.08063965       0.05153311      -3.50392842
Cl      28.36336141      53.51761389      19.69128304      -0.02971407      -0.02081827       0.06126642      -3.42129660
Cl       7.19434184      54.68752140      49.66252436      -0.06408922       0.06236496      -0.05088676      -3.47125459
Cl      53.91682573      56.95106888      55.80428999       0.00263320      -0.02204437      -0.02117564      -3.52582812
Cl      30.60483988      16.72238543      56.96054091      -0.03235696      -0.01762759       0.02591262      -3.46063900
Cl      10.80458985      56.24734269      32.82542059      -0.03447134       0.05333252      -0.04881456      -3.45600796
Cl      50.79460233      43.69734106       3.78885515       0.02607607       0.00162010       0.03742639      -3.58036375
Na      19.85482766      53.11660798      33.96527751       0.04212799      -0.01387731      -0.01321498      -3.22208428
Na      38.25806040      24.80364424      57.24436152      -0.00356048       0.00950478      -0.03654527      -3.34633803
Na      50.59389252      31.61578593       9.14000202      -0.05542618      -0.01902315       0.07114389      -3.33262014
Na      27.52006713      24.43043458      51.44516882      -0.02508365       0.01128705       0.01788596      -3.10017109
Na      52.71709018      15.44200704      45.74584046      -0.01845884       0.02570742      -0.00432850      -3.23844671
Na      42.82689500      54.71542788      43.65640895      -0.00441867      -0.01712738       0.05393530      -3.28085351
Na       0.80776543       6.98475997      40.39224928       0.07707638      -0.00757284      -0.00983551      -3.25330162
Na      28.86999585      33.95092871      22.27791840       0.06332715       0.02148186       0.00033785      -3.29521537
Na      50.86062024      37.57211335      30.61498824       0.03619768      -0.00838099      -0.04424319      -3.38134670
Na       4.94719831      57.35831693      29.26887247      -0.01690998      -0.01611076      -0.01674240      -3.18680096
Na      32.81274310      13.74618290      24.84299391       0.03494039      -0.02767904      -0.06610136      -3.12873507
Na       4.44557841      34.61669988       7.84639069       0.08168967      -0.01661908      -0.04156354      -3.30020070
Na       5.09214736      24.74000493      56.94176959       0.00551532      -0.01259292      -0.05055403      -3.31488442
Na      50.01940244      42.48280597      20.80428030      -0.08751506       0.07049937       0.08352095      -3.21136856
Na      27.84747377       6.79273877      47.95762856       0.02766755       0.05416711       0.02081972      -3.42169905
Na      41.54403880      55.48898732      40.22325662       0.00769266      -0.03888328       0.02122379      -3.32639885
Na      37.75764908      50.08513408      49.44546958      -0.00900290      -0.09756866      -0.03202801      -3.39683270
Na      15.47484122      30.16114343      35.72938783      -0.00486388      -0.01641281      -0.00414750      -3.29213738
Na      42.13433938      43.99910738      47.54992035      -0.01033212      -0.02491645      -0.00660214      -3.31325889
Na      37.09431936      46.55632685      42.73161520      -0.00687164      -0.01288123       0.04319278      -3.26384807
Na      45.92520442      37.63408864       6.79871973       0.03871389      -0.08044742       0.06850402      -3.26194549
Na      56.15111134       6.52289001      29.55688525       0.05124451       0.05361657      -0.00266492      -3.22338676
Na       1.11173048      13.89469164      29.08947349       0.03129676      -0.03726045      -0.00955539      -3.49193478
Na      51.84826692      20.64087903      55.37247615      -0.01876791      -0.02924513       0.02320946      -3.32216382
Na       3.56483363      54.85209215      31.42528306       0.02273183       0.01548707      -0.02631993      -3.22944927
Na      53.30680142      48.94331307      31.14359846       0.03185642       0.07004341      -0.01816031      -3.41883183
Na      33.24241588      17.37987334      42.33541420       0.04002949      -0.11179623       0.09603407      -3.17118979
Na      11.63740668      51.26589119      11.71456703       0.00163047       0.02196512      -0.05145598      -3.14315772
Na      45.65516518      36.74747311      15.63055057      -0.06684439       0.07333142       0.01891365      -3.34517956
Na      33.97876149      49.46743609      17.97228963      -0.00487739      -0.06377977      -0.05718106      -3.31457305
Na      40.94152350      32.66254791      19.17250198       0.05104161      -0.02874012      -0.00195730      -3.40151477
Na      40.61185069      38.87866141       3.19554703      -0.03862465      -0.00342356      -0.00034140      -3.36448574
Na      10.35222094      29.13009367       9.43803083       0.01292141      -0.00870501      -0.01743257      -3.29663515
Na       6.09796965      39.01469694      37.64736413      -0.05630958       0.02575779      -0.00059673      -3.26290441
Na      40.30075193      33.03747564      41.71077744       0.04035546      -0.01638630       0.02384803      -3.30690765
Na      44.04661530      55.43030185       3.37195965       0.05375883      -0.06686504       0.06670676      -3.29147339
Na      24.68401326       4.12842921       8.67791785       0.04315165       0.00848569       0.01300655      -3.34686399
Na      48.73743630      35.49896967      57.05603048      -0.06816554       0.00337305       0.03361914      -3.21867394
Na       0.18488614      32.54602367       1.02721772      -0.07088238      -0.03274619      -0.00049832      -3.25728393
Na       2.60316818       3.24454495       9.90847823       0.03964225       0.01182535       0.10227029      -3.16001248
Na       1.88597086      55.97567027      21.42924042       0.02144320      -0.02759032      -0.00455778      -3.20322728
Na       8.15157044      26.33066050      32.33939176      -0.03373346       0.00276874       0.01235533      -3.35298777
Na      40.84231409      -0.06861488      42.80780030       0.03976673       0.01542503      -0.02090227      -3.34509635
Na      31.44970201      10.25552457      40.16084255      -0.09501553       0.01425435       0.08071330      -3.20653152
Na       8.52718075      16.30617731       5.80035546      -0.04924935       0.02973132      -0.02838095      -3.36724925
Na      14.28109820      44.94545863      25.71504891       0.00594459       0.02939486      -0.01050903      -3.27483773
Na       7.39869464      28.12013930      55.57950656      -0.00029258       0.00568582      -0.04272725      -3.17203259
Na      45.61854871       4.19482188       4.38853608      -0.03306394      -0.01404443      -0.08139600      -3.19239664
Na      48.68796891      30.71080723      32.33572418      -0.02801631       0.03797963       0.10845414      -3.10434270
Na      54.97401067      13.00519921      20.69759268       0.06993301      -0.03421998      -0.03567044      -3.17827582
Cl      48.01546485      32.87719849      20.02279032       0.03228991      -0.01773752      -0.19538595      -3.39880681
Cl      14.44878967      23.95988125      24.37302147      -0.02696301      -0.07449548       0.07253040      -3.47207999
Cl      44.65206090      20.94869244      49.48800021       0.03392545      -0.01838068      -0.02507005      -3.53671646
Cl      21.37086476      40.23359404      40.21031490      -0.02318704       0.02257494      -0.03148662      -3.31268764
Cl      48.00663850      22.76336708      31.58221522       0.01772903       0.06799038       0.01250637      -3.56859422
Cl       0.41452608      16.87367657      23.38982151       0.06205983       0.01185377      -0.02211017      -3.56248426
Cl      45.19191187      40.48434081       0.90341312      -0.00962542       0.00396671       0.01024386      -3.49645829
Cl      14.51930464      16.92092588      48.15368173      -0.01357422      -0.02861426       0.00774470      -3.52296948
Cl       5.41190746      22.10054276      50.56080732      -0.01947626       0.08613387       0.04854224      -3.47887731
Cl      39.31211585      21.18115556      39.13594985      -0.09894989       0.05623905      -0.02733248      -3.35641623
Cl      40.91385627      39.00679073      56.73010331       0.03717051      -0.01008193       0.03222866      -3.63277912
Cl      54.48306020       7.23148461      18.76081491      -0.01429348      -0.02857919      -0.05584421      -3.28429008
Cl      35.03602643      47.91334606      14.58520833      -0.05335223       0.01592797      -0.01417276      -3.44021988
Cl       5.95100983      11.16132571       0.98831322      -0.01260030      -0.01374998      -0.05639671      -3.61602712
Cl      24.95633713      16.75603461      14.56010592      -0.01457446      -0.02435498       0.01662877      -3.50028467
Cl      55.65897962      48.77357363      50.64989279       0.05450208       0.01124062       0.00220771      -3.37335038
Cl      32.74033081      56.20354983      56.35212504      -0.03441889       0.01196320      -0.00833055      -3.58151698
Cl      55.05822684      44.88757319      35.19059446       0.02022775      -0.01930490       0.02506073      -3.48248696
Cl       3.11228866      58.13617579      36.90860505       0.11851707       0.00571359      -0.10444420      -3.42256570
Cl      32.43838641      54.89047418       4.77339715      -0.05702988      -0.08862132      -0.03390938      -3.53279662
Cl      32.60560297      54.14780147       8.45046195      -0.09134918       0.07485243       0.05400739      -3.52646351
Cl      14.14394957      27.75426886      56.06112984       0.01718700       0.00745213      -0.01914300      -3.48180413
Cl      22.46224114      29.24877621      51.95155550      -0.02885723       0.03540305       0.05829838      -3.51605320
Cl      32.02568803      52.02840106      56.73668690      -0.04244773       0.02267804      -0.01130861      -3.58638167
Cl      27.22527484       4.60286971      46.03394519       0.06337345       0.01942513      -0.01783502      -3.51169443
Cl      36.99071052      18.61692306      51.06468008      -0.02853730      -0.01631852       0.04522491      -3.49152970
Cl      21.49017906       8.02239156      57.14205562      -0.00891158      -0.03503933      -0.03342100      -3.60686398
Cl       8.42119529      17.90313135      54.84758972       0.13574019       0.02915121       0.09228859      -3.58798456
Cl      41.00676186       1.76374775      25.42937732       0.01977750      -0.02714329      -0.00867765      -3.46430159
Cl       3.18233338      43.77964692      30.89345230       0.02087495       0.09748885      -0.02244072      -3.43896341
Cl      31.60285252      33.98546210       1.77442118       0.00286409       0.13601351      -0.01348991      -3.49981427
Cl      13.55978417      20.36012416      56.49158428      -0.04643497      -0.04319912       0.01515769      -3.54388356
Cl      36.49969841       6.32401458       3.11185908      -0.02222428      -0.00531021       0.01987991      -3.45018387
Cl      19.56899662       4.97706613      54.64879412       0.01753948      -0.02373447      -0.08903769      -3.35208774
Cl       9.10534870      32.19246124      18.11111464       0.02174150       0.03677569      -0.01381070      -3.47890735
Cl      36.44426308      14.74496550      28.77949413      -0.03825211      -0.01051587      -0.04234384      -3.56585407
Cl       4.67647654      45.30686658      25.41358371       0.01859261      -0.05842012       0.05442881      -3.57329106
Cl      45.74980630      35.01258757      23.59382856       0.01317525       0.00818821      -0.00843838      -3.50872660
Cl      26.25600439      26.69679962      52.33156539      -0.01814135      -0.03951981      -0.01241005      -3.54480982
Cl      42.53272646      13.91099845       1.07702823      -0.02425518       0.02292968       0.00567842      -3.37198544
Cl      53.74477568      49.78203038      28.42704847       0.03335416      -0.02090313       0.03171892      -3.58070087
Cl      14.38222267      13.24729848      20.08989426       0.00783424      -0.03857073       0.04166561      -3.55599999
Cl      23.89483793       9.79190862      30.66930963      -0.02253367      -0.00572175      -0.05791289      -3.38100338
Cl      43.02461593      52.25636476      45.36096761      -0.03195412       0.08064127       0.05153632      -3.50392723
Cl      28.36336142      53.51761395      34.32315026      -0.02971305      -0.02081766       0.06126288      -3.42129564
Cl       7.19434179      54.68752143       5.76692305      -0.06408956       0.06236480      -0.05088622      -3.47125435
Cl      53.91682583      56.95106874      11.90868848       0.00263370      -0.02204435      -0.02117450      -3.52582717
Cl      30.60483977      16.72238545      13.06493878      -0.03235712      -0.01762671       0.02591293      -3.46063900
Cl      10.80458974      56.24734279      47.45728757      -0.03446878       0.05333394      -0.04881178      -3.45600748
Cl      50.79460230      43.69734097      18.42072269       0.02607561       0.00162047       0.03742625      -3.58036375
Na      19.85482755      53.11660821      48.59714428       0.04212840      -0.01387830      -0.01321433      -3.22208428
Na      38.25806024      24.80364443      13.34875951      -0.00356018       0.00950537      -0.03654444      -3.34633827
Na      50.59389255      31.61578597      23.77186912      -0.05542552      -0.01902383       0.07114184      -3.33261967
Na      27.52006713      24.43043439       7.54956717      -0.02508383       0.01128630       0.01788216      -3.10017133
Na      52.71708990      15.44200742       1.85023860      -0.01845835       0.02570852      -0.00432482      -3.23844576
Na      42.82689510      54.71542784      58.28827672      -0.00441840      -0.01712734       0.05393634      -3.28085303
Na       0.80776540       6.98476004      55.02411675       0.07707568      -0.00757294      -0.00983460      -3.25330234
Na      28.86999571      33.95092878      36.90978538       0.06332573       0.02148383       0.00033629      -3.29521489
Na      50.86062028      37.57211344      45.24685529       0.03619810      -0.00837805      -0.04424609      -3.38134694
Na       4.94719821      57.35831702      43.90073963      -0.01691165      -0.01611186      -0.01673868      -3.18680215
Na      32.81274311      13.74618274      39.47486101       0.03494126      -0.02767807      -0.06610010      -3.12873483
Na       4.44557836      34.61669990      22.47825769       0.08168958      -0.01661884      -0.04156409      -3.30020070
Na       5.09214745      24.74000472      13.04616815       0.00551456      -0.01259239      -0.05055512      -3.31488466
Na      50.01940239      42.48280595      35.43614733      -0.08751602       0.07049732       0.08352296      -3.21136856
Na      27.84747377       6.79273884       4.06202728       0.02766889       0.05416730       0.02082208      -3.42169809
Na      41.54403894      55.48898754      54.85512414       0.00769212      -0.03888161       0.02121315      -3.32639861
Na      37.75764916      50.08513400       5.54986837      -0.00900353      -0.09756887      -0.03203025      -3.39683318
Na      15.47484124      30.16114348      50.36125510      -0.00486316      -0.01641108      -0.00414671      -3.29213715
Na      42.13433932      43.99910718       3.65431904      -0.01033302      -0.02491683      -0.00660423      -3.31325889
Na      37.09431936      46.55632660      57.36348290      -0.00687303      -0.01288193       0.04319916      -3.26384735
Na      45.92520447      37.63408859      21.43058670       0.03871410      -0.08044607       0.06850415      -3.26194549
Na      56.15111141       6.52288995      44.18875220       0.05124031       0.05361450      -0.00266206      -3.22338700
Na       1.11173058      13.89469161      43.72134064       0.03129496      -0.03726165      -0.00955387      -3.49193525
Na      51.84826694      20.64087916      11.47687467      -0.01876637      -0.02924506       0.02320627      -3.32216454
Na       3.56483373      54.85209214      46.05715031       0.02273230       0.01548850      -0.02632733      -3.22945046
Na      53.30680146      48.94331313      45.77546546       0.03185752       0.07004394      -0.01816346      -3.41883159
Na      33.24241579      17.37987325      56.96728137       0.04003070      -0.11179586       0.09603435      -3.17118907
Na      11.63740667      51.26589117      26.34643390       0.00163100       0.02196643      -0.05145387      -3.14315772
Na      45.65516511      36.74747306      30.26241767      -0.06684443       0.07333090       0.01891424      -3.34517956
Na      33.97876153      49.46743605      32.60415658      -0.00487874      -0.06377990      -0.05717954      -3.31457376
Na      40.94152336      32.66254790      33.80436905       0.05104170      -0.02873984      -0.00196099      -3.40151477
Na      40.61185084      38.87866141      17.82741440      -0.03862427      -0.00342379      -0.00033997      -3.36448526
Na      10.35222097      29.13009366      24.06989800       0.01292152      -0.00870530      -0.01743246      -3.29663515
Na       6.09796972      39.01469698      52.27923120      -0.05630947       0.02575701      -0.00059670      -3.26290417
Na      40.30075180      33.03747561      56.34264507       0.04035627      -0.01638684       0.02384947      -3.30690813
Na      44.04661538      55.43030184      18.00382704       0.05375864      -0.06686632       0.06670552      -3.29147243
Na      24.68401327       4.12842927      23.30978494       0.04315161       0.00848475       0.01300409      -3.34686446
Na      48.73743631      35.49896946      13.16042969      -0.06816590       0.00337307       0.03361875      -3.21867394
Na       0.18488591      32.54602428      15.65908488      -0.07088238      -0.03274604      -0.00049819      -3.25728369
Na       2.60316818       3.24454499      24.54034528       0.03964115       0.01182615       0.10226835      -3.16001248
Na       1.88597079      55.97567028      36.06110749       0.02144060      -0.02759029      -0.00455694      -3.20322776
Na       8.15157037      26.33066056      46.97125902      -0.03373447       0.00277070       0.01235676      -3.35298824
Na      40.84231403      -0.06861488      57.43966790       0.03976745       0.01542601      -0.02090071      -3.34509516
Na      31.44970211      10.25552447      54.79270986      -0.09501502       0.01425380       0.08071454      -3.20653152
Na       8.52718060      16.30617726      20.43222276      -0.04924949       0.02973138      -0.02837916      -3.36724925
Na      14.28109814      44.94545878      40.34691572       0.00594674       0.02939475      -0.01050852      -3.27483797
Na       7.39869468      28.12013944      11.68390512      -0.00029232       0.00568564      -0.04272773      -3.17203188
Na      45.61854869       4.19482191      19.02040301      -0.03306410      -0.01404451      -0.08139542      -3.19239664
Na      48.68796891      30.71080710      46.96759130      -0.02801635       0.03797884       0.10845374      -3.10434294
Na      54.97401077      13.00519927      35.32945995       0.06993310      -0.03422141      -0.03567569      -3.17827535
Cl      48.01546501      32.87719853      34.65465748       0.03228941      -0.01773761      -0.19538629      -3.39880776
Cl      14.44878959      23.95988131      39.00488836      -0.02696018      -0.07449675       0.07253361      -3.47207975
Cl      44.65206049      20.94869239       5.59239875       0.03392453      -0.01838150      -0.02507284      -3.53671527
Cl      21.37086455      40.23359409      54.84218215      -0.02318807       0.02257552      -0.03148700      -3.31268716
Cl      48.00663843      22.76336706      46.21408204       0.01772940       0.06798892       0.01250751      -3.56859374
Cl       0.41452610      16.87367645      38.02168844       0.06205846       0.01185497      -0.02210404      -3.56248593
Cl      45.19191176      40.48434063      15.53528045      -0.00962576       0.00396717       0.01024369      -3.49645853
Cl      14.51930462      16.92092601       4.25808038      -0.01357469      -0.02861389       0.00774423      -3.52297020
Cl       5.41190751      22.10054284       6.66520613      -0.01947570       0.08613606       0.04853949      -3.47887754
Cl      39.31211605      21.18115539      53.76781739      -0.09895149       0.05623550      -0.02734049      -3.35641885
Cl      40.91385619      39.00679040      12.83450202       0.03717026      -0.01008130       0.03222548      -3.63277888
Cl      54.48306025       7.23148462      33.39268184      -0.01429338      -0.02857891      -0.05584465      -3.28428936
Cl      35.03602650      47.91334618      29.21707530      -0.05335269       0.01592755      -0.01417388      -3.44022036
Cl       5.95100998      11.16132580      15.62018083      -0.01259959      -0.01375064      -0.05639659      -3.61602759
Cl      24.95633711      16.75603460      29.19197293      -0.01457408      -0.02435408       0.01662994      -3.50028586
Cl      55.65897968      48.77357334       6.75429139       0.05450262       0.01123903       0.00220006      -3.37334991
Cl      32.74033052      56.20354973      12.45652339      -0.03441820       0.01196265      -0.00833050      -3.58151770
Cl      55.05822686      44.88757302      49.82246134       0.02022761      -0.01930418       0.02506036      -3.48248601
Cl       3.11228842      58.13617587      51.54047188       0.11851671       0.00571264      -0.10444449      -3.42256522
Cl      32.43838654      54.89047384      19.40526413      -0.05703075      -0.08862101      -0.03390594      -3.53279686
Cl      32.60560301      54.14780146      23.08232896      -0.09135241       0.07485268       0.05400839      -3.52646494
Cl      14.14394952      27.75426887      12.16552818       0.01718692       0.00745055      -0.01914318      -3.48180294
Cl      22.46224112      29.24877616       8.05595452      -0.02885743       0.03540262       0.05829825      -3.51605272
Cl      32.02568789      52.02840080      12.84108544      -0.04244764       0.02267770      -0.01130865      -3.58638215
Cl      27.22527483       4.60286949       2.13834394       0.06337284       0.01942460      -0.01783119      -3.51169515
Cl      36.99071038      18.61692300       7.16907852      -0.02853929      -0.01631861       0.04522058      -3.49152970
Cl      21.49017893       8.02239119      13.24645346      -0.00891185      -0.03503944      -0.03341880      -3.60686493
Cl       8.42119543      17.90313126      10.95198836       0.13574196       0.02915180       0.09229519      -3.58798409
Cl      41.00676193       1.76374770      40.06124437       0.01977740      -0.02714555      -0.00868044      -3.46430159
Cl       3.18233324      43.77964694      45.52531928       0.02087801       0.09748869      -0.02244185      -3.43896294
Cl      31.60285236      33.98546238      16.40628807       0.00286354       0.13601243      -0.01348966      -3.49981260
Cl      13.55978430      20.36012407      12.59598298      -0.04643551      -0.04320005       0.01515898      -3.54388404
Cl      36.49969821       6.32401445      17.74372681      -0.02222510      -0.00530986       0.01987881      -3.45018435
Cl      19.56899655       4.97706594      10.75319312       0.01753836      -0.02373475      -0.08903933      -3.35208750
Cl       9.10534878      32.19246134      32.74298206       0.02174050       0.03677401      -0.01380829      -3.47890663
Cl      36.44426308      14.74496553      43.41136122      -0.03825111      -0.01051490      -0.04234722      -3.56585288
Cl       4.67647630      45.30686654      40.04545089       0.01859307      -0.05841984       0.05442674      -3.57329035
Cl      45.74980634      35.01258766      38.22569582       0.01317490       0.00818971      -0.00844268      -3.50872779
Cl      26.25600442      26.69679955       8.43596428      -0.01814179      -0.03951965      -0.01241365      -3.54481053
Cl      42.53272671      13.91099825      15.70889558      -0.02425705       0.02292911       0.00568011      -3.37198544
Cl      53.74477578      49.78203050      43.05891534       0.03334665      -0.02090253       0.03171871      -3.58070111
Cl      14.38222268      13.24729834      34.72176122       0.00783435      -0.03857053       0.04166635      -3.55599999
Cl      23.89483786       9.79190857      45.30117683      -0.02253355      -0.00572219      -0.05791763      -3.38100123
Cl      43.02461572      52.25636426       1.46536599      -0.03195461       0.08064103       0.05153438      -3.50392771
Cl      28.36336133      53.51761407      48.95501680      -0.02971336      -0.02081827       0.06126545      -3.42129683
Cl       7.19434182      54.68752137      20.39879024      -0.06409000       0.06236416      -0.05088649      -3.47125435
Cl      53.91682570      56.95106863      26.54055546       0.00263402      -0.02204473      -0.02117391      -3.52582812
Cl      30.60483977      16.72238546      27.69680581      -0.03235692      -0.01762679       0.02591345      -3.46063900
Cl      10.80458973      56.24734234       3.56168643      -0.03446871       0.05333277      -0.04881576      -3.45600748
Cl      50.79460232      43.69734111      33.05258949       0.02607574       0.00162033       0.03742643      -3.58036423
Na      19.85482749      53.11660842       4.70154323       0.04212896      -0.01387874      -0.01321284      -3.22208452
Na      38.25806036      24.80364447      27.98062657      -0.00355977       0.00950560      -0.03654546      -3.34633803
Na      50.59389260      31.61578602      38.40373592      -0.05542730      -0.01902325       0.07114467      -3.33262038
Na      27.52006710      24.43043433      22.18143448      -0.02508342       0.01128617       0.01788069      -3.10017133
Na      52.71709021      15.44200705      16.48210624      -0.01845897       0.02570824      -0.00432613      -3.23844576
Na      42.82689518      54.71542794      14.39267507      -0.00441844      -0.01712676       0.05393466      -3.28085327
Na       0.80776540       6.98476004      11.12851525       0.07707673      -0.00757331      -0.00983541      -3.25330210
Na      28.86999579      33.95092868      51.54165231       0.06332694       0.02148291       0.00033576      -3.29521465
Na      50.86061989      37.57211339       1.35125331       0.03619736      -0.00837994      -0.04424447      -3.38134670
Na       4.94719840      57.35831723       0.00513795      -0.01691060      -0.01611071      -0.01674144      -3.18680167
Na      32.81274322      13.74618270      54.10672830       0.03494102      -0.02767832      -0.06609991      -3.12873507
Na       4.44557846      34.61669990      37.11012461       0.08169143      -0.01661586      -0.04156567      -3.30019951
Na       5.09214744      24.74000476      27.67803513       0.00551553      -0.01259208      -0.05055631      -3.31488419
Na      50.01940257      42.48280597      50.06801429      -0.08751550       0.07049944       0.08351865      -3.21136904
Na      27.84747374       6.79273885      18.69389458       0.02766896       0.05416718       0.02082149      -3.42169833
Na      41.54403876      55.48898751      10.95952246       0.00769794      -0.03888024       0.02122032      -3.32639861
Na      37.75764919      50.08513415      20.18173564      -0.00900379      -0.09756885      -0.03203011      -3.39683270
Na      15.47484096      30.16114340       6.46565374      -0.00486378      -0.01641179      -0.00414678      -3.29213715
Na      42.13433949      43.99910731      18.28618626      -0.01033268      -0.02491694      -0.00660277      -3.31325889
Na      37.09431920      46.55632681      13.46788131      -0.00687384      -0.01288087       0.04319672      -3.26384759
Na      45.92520453      37.63408870      36.06245371       0.03871254      -0.08044694       0.06850380      -3.26194525
Na      56.15111125       6.52288958       0.29315042       0.05124444       0.05361661      -0.00266720      -3.22338724
Na       1.11173059      13.89469177      58.35320822       0.03129444      -0.03726166      -0.00955123      -3.49193525
Na      51.84826687      20.64087918      26.10874166      -0.01876709      -0.02924459       0.02320717      -3.32216477
Na       3.56483355      54.85209220       2.16154868       0.02273162       0.01548748      -0.02632125      -3.22944975
Na      53.30680165      48.94331302       1.87986375       0.03185703       0.07004294      -0.01816072      -3.41883230
Na      33.24241586      17.37987346      13.07168037       0.04003048      -0.11179627       0.09603345      -3.17118907
Na      11.63740640      51.26589128      40.97830097       0.00162707       0.02196228      -0.05146012      -3.14315772
Na      45.65516508      36.74747322      44.89428464      -0.06684542       0.07333123       0.01891573      -3.34518003
Na      33.97876146      49.46743603      47.23602360      -0.00487956      -0.06378062      -0.05718010      -3.31457353
Na      40.94152352      32.66254805      48.43623587       0.05104202      -0.02874085      -0.00196102      -3.40151477
Na      40.61185090      38.87866162      32.45928163      -0.03862493      -0.00342331      -0.00034127      -3.36448526
Na      10.35222093      29.13009364      38.70176486       0.01292222      -0.00870421      -0.01742799      -3.29663515
Na       6.09796972      39.01469690       8.38363024      -0.05630971       0.02575754      -0.00059466      -3.26290441
Na      40.30075196      33.03747561      12.44704354       0.04035687      -0.01638753       0.02384580      -3.30690765
Na      44.04661535      55.43030180      32.63569392       0.05375779      -0.06686680       0.06670900      -3.29147339
Na      24.68401327       4.12842922      37.94165206       0.04315126       0.00848563       0.01300727      -3.34686399
Na      48.73743635      35.49896939      27.79229666      -0.06816597       0.00337281       0.03361821      -3.21867347
Na       0.18488589      32.54602434      30.29095205      -0.07088156      -0.03274559      -0.00049815      -3.25728369
Na       2.60316807       3.24454497      39.17221218       0.03964261       0.01182459       0.10227169      -3.16001153
Na       1.88597082      55.97567029      50.69297469       0.02144129      -0.02758916      -0.00455603      -3.20322704
Na       8.15157057      26.33066035       3.07565742      -0.03373408       0.00277071       0.01235835      -3.35298824
Na      40.84231411      -0.06861482      13.54406629       0.03976786       0.01542440      -0.02090338      -3.34509540
Na      31.44970187      10.25552455      10.89710868      -0.09501466       0.01425438       0.08071388      -3.20653200
Na       8.52718063      16.30617736      35.06408937      -0.04924756       0.02973128      -0.02838303      -3.36724877
Na      14.28109813      44.94545863      54.97878322       0.00594590       0.02939374      -0.01050528      -3.27483702
Na       7.39869469      28.12013946      26.31577198      -0.00029218       0.00568563      -0.04272765      -3.17203259
Na      45.61854872       4.19482184      33.65226989      -0.03306335      -0.01404533      -0.08139797      -3.19239688
Na      48.68796844      30.71080656       3.07199027      -0.02801667       0.03798156       0.10845502      -3.10434270
Na      54.97401076      13.00519916      49.96132699       0.06993334      -0.03422071      -0.03567473      -3.17827535
Cl      48.01546478      32.87719843      49.28652430       0.03228992      -0.01773749      -0.19538635      -3.39880657
Cl      14.44878983      23.95988133      53.63675561      -0.02696352      -0.07449551       0.07252863      -3.47207928
Cl      44.65206074      20.94869237      20.22426600       0.03392483      -0.01838298      -0.02507425      -3.53671575
Cl      21.37086474      40.23359410      10.94658085      -0.02318810       0.02257590      -0.03148566      -3.31268668
Cl      48.00663839      22.76336700       2.31848114       0.01772853       0.06798974       0.01250529      -3.56859398
Cl       0.41452602      16.87367654      52.65355570       0.06205988       0.01185474      -0.02211148      -3.56248498
Cl      45.19191204      40.48434049      30.16714757      -0.00962503       0.00396634       0.01024417      -3.49645948
Cl      14.51930466      16.92092587      18.88994764      -0.01357408      -0.02861344       0.00774466      -3.52296972
Cl       5.41190753      22.10054290      21.29707326      -0.01947575       0.08613631       0.04853889      -3.47887707
Cl      39.31211579      21.18115549       9.87221603      -0.09895235       0.05623668      -0.02733825      -3.35641718
Cl      40.91385623      39.00679065      27.46636919       0.03717018      -0.01008260       0.03222396      -3.63277888
Cl      54.48306038       7.23148458      48.02454886      -0.01429352      -0.02857849      -0.05584322      -3.28428960
Cl      35.03602636      47.91334613      43.84894222      -0.05335189       0.01592914      -0.01417220      -3.44022036
Cl       5.95100988      11.16132594      30.25204775      -0.01259878      -0.01375271      -0.05639647      -3.61602759
Cl      24.95633715      16.75603461      43.82384029      -0.01457400      -0.02435419       0.01662565      -3.50028396
Cl      55.65897975      48.77357336      21.38615820       0.05450146       0.01123971       0.00220269      -3.37334967
Cl      32.74033059      56.20354969      27.08839059      -0.03441854       0.01196234      -0.00833077      -3.58151722
Cl      55.05822682      44.88757306       5.92686022       0.02022880      -0.01930380       0.02505857      -3.48248649
Cl       3.11228851      58.13617580       7.64487068       0.11851586       0.00571311      -0.10444766      -3.42256546
Cl      32.43838650      54.89047375      34.03713110      -0.05702843      -0.08862230      -0.03391361      -3.53279662
Cl      32.60560287      54.14780154      37.71419611      -0.09135199       0.07485228       0.05401165      -3.52646494
Cl      14.14394956      27.75426893      26.79739509       0.01718650       0.00745004      -0.01914338      -3.48180318
Cl      22.46224110      29.24877621      22.68782154      -0.02885728       0.03540248       0.05829844      -3.51605225
Cl      32.02568789      52.02840084      27.47295240      -0.04244806       0.02267799      -0.01130858      -3.58638287
Cl      27.22527486       4.60286965      16.77021136       0.06337279       0.01942538      -0.01783299      -3.51169467
Cl      36.99071040      18.61692305      21.80094561      -0.02853940      -0.01631816       0.04522175      -3.49152923
Cl      21.49017883       8.02239126      27.87832050      -0.00891206      -0.03503935      -0.03341868      -3.60686493
Cl       8.42119549      17.90313128      25.58385535       0.13574143       0.02915141       0.09229777      -3.58798432
Cl      41.00676176       1.76374788      54.69311171       0.01977706      -0.02714439      -0.00867992      -3.46430230
Cl       3.18233326      43.77964685       1.62971765       0.02087634       0.09748727      -0.02244389      -3.43896294
Cl      31.60285239      33.98546247      31.03815504       0.00286319       0.13601193      -0.01348748      -3.49981332
Cl      13.55978426      20.36012412      27.22784988      -0.04643476      -0.04319920       0.01515843      -3.54388380
Cl      36.49969819       6.32401450      32.37559359      -0.02222592      -0.00530910       0.01987569      -3.45018411
Cl      19.56899653       4.97706585      25.38506011       0.01753837      -0.02373451      -0.08903761      -3.35208774
Cl       9.10534873      32.19246142      47.37484864       0.02174022       0.03677449      -0.01380607      -3.47890639
Cl      36.44426320      14.74496549      58.04322901      -0.03825142      -0.01051578      -0.04234555      -3.56585336
Cl       4.67647630      45.30686676      54.67731762       0.01859126      -0.05842548       0.05442576      -3.57328963
Cl      45.74980626      35.01258758      52.85756265       0.01317433       0.00818946      -0.00843975      -3.50872707
Cl      26.25600437      26.69679962      23.06783124      -0.01814181      -0.03951986      -0.01241199      -3.54481053
Cl      42.53272673      13.91099823      30.34076258      -0.02425672       0.02292972       0.00567922      -3.37198591
Cl      53.74477583      49.78203047      57.69078324       0.03334653      -0.02090231       0.03171473      -3.58070040
Cl      14.38222271      13.24729832      49.35362824       0.00783102      -0.03857049       0.04166202      -3.55600071
Cl      23.89483806       9.79190868       1.40557511      -0.02253282      -0.00572169      -0.05791214      -3.38100290
Cl      43.02461591      52.25636479      16.09723366      -0.03195418       0.08064091       0.05153536      -3.50392771
Cl      28.36336143      53.51761407       5.05941590      -0.02971423      -0.02081802       0.06126345      -3.42129636
Cl       7.19434176      54.68752139      35.03065728      -0.06408910       0.06236502      -0.05088703      -3.47125363
Cl      53.91682576      56.95106856      41.17242256       0.00263309      -0.02204477      -0.02117675      -3.52582812
Cl      30.60483987      16.72238544      42.32867286      -0.03235871      -0.01762795       0.02591118      -3.46063900
Cl      10.80458973      56.24734261      18.19355350      -0.03446961       0.05333199      -0.04881816      -3.45600748
Cl      50.79460232      43.69734099      47.68445658       0.02607550       0.00161925       0.03742934      -3.58036232
Na      34.48669453       9.22100727      19.33341015       0.04212900      -0.01387922      -0.01321226      -3.22208548
Na      52.88992783      39.43551137      42.61249343      -0.00355824       0.00950563      -0.03653857      -3.34633803
Na       6.69829156      46.24765293      53.03560339      -0.05542902      -0.01902604       0.07114808      -3.33261967
Na      42.15193387      39.06230155      36.81330153      -0.02508507       0.01128571       0.01788401      -3.10017204
Na       8.82148889      30.07387375      31.11397338      -0.01845745       0.02571034      -0.00432575      -3.23844576
Na      57.45876227      10.81982692      29.02454208      -0.00441772      -0.01712684       0.05393709      -3.28085232
Na      15.43963331      21.61662718      25.76038235       0.07707541      -0.00757365      -0.00983524      -3.25330234
Na      43.50186310      48.58279594       7.64605143       0.06332689       0.02148280       0.00033636      -3.29521465
Na       6.96501871      52.20398006      15.98312130       0.03619773      -0.00837982      -0.04424465      -3.38134670
Na      19.57906519      13.46271544      14.63700537      -0.01691157      -0.01610433      -0.01674053      -3.18680191
Na      47.44461002      28.37804972      10.21112710       0.03494172      -0.02767809      -0.06609919      -3.12873530
Na      19.07744551      49.24856708      51.74199173       0.08168926      -0.01661652      -0.04156602      -3.30020118
Na      19.72401463      39.37187165      42.30990220       0.00551560      -0.01259432      -0.05055342      -3.31488442
Na       6.12380253      57.11467340       6.17241303      -0.08751748       0.07050410       0.08352268      -3.21136737
Na      42.47934090      21.42460596      33.32576149       0.02767402       0.05416613       0.02082528      -3.42169881
Na      56.17590613      11.59338614      25.59138979       0.00769002      -0.03888170       0.02121202      -3.32639837
Na      52.38951623       6.18953323      34.81360230      -0.00900516      -0.09756936      -0.03202637      -3.39683318
Na      30.10670822      44.79301035      21.09752068      -0.00486491      -0.01641260      -0.00414697      -3.29213738
Na      56.76620750       0.10350550      32.91805343      -0.01033724      -0.02491425      -0.00660322      -3.31325817
Na      51.72618615       2.66072507      28.09974803      -0.00687269      -0.01287624       0.04319441      -3.26384711
Na       2.02960310      52.26595527      50.69432114       0.03871396      -0.08044772       0.06850314      -3.26194334
Na      12.25550971      21.15475741      14.92501825       0.05124440       0.05361860      -0.00266580      -3.22338676
Na      15.74359833      28.52655865      14.45760648       0.03129534      -0.03726035      -0.00955547      -3.49193525
Na       7.95266588      35.27274607      40.74060863      -0.01876808      -0.02924762       0.02320730      -3.32216549
Na      18.19670166      10.95649092      16.79341636       0.02272971       0.01548916      -0.02632429      -3.22944927
Na       9.41120053       5.04771153      16.51173132       0.03185418       0.07004335      -0.01816058      -3.41883206
Na      47.87428271      32.01174042      27.70354725       0.04002992      -0.11179637       0.09603384      -3.17118907
Na      26.26927347       7.37028969      55.61016862       0.00163081       0.02197061      -0.05145133      -3.14315724
Na       1.75956378      51.37933999       0.99868386      -0.06684363       0.07333122       0.01891342      -3.34518003
Na      48.61062827       5.57183510       3.34042291      -0.00488570      -0.06377918      -0.05718094      -3.31457305
Na      55.57339053      47.29441537       4.54063488       0.05104217      -0.02873872      -0.00195666      -3.40151501
Na      55.24371771      53.51052844      47.09114867      -0.03862281      -0.00342131      -0.00034097      -3.36448646
Na      24.98408798      43.76196086      53.33363233       0.01291908      -0.00870519      -0.01743395      -3.29663491
Na      20.72983692      53.64656416      23.01549729      -0.05630987       0.02575913      -0.00059503      -3.26290393
Na      54.93261905      47.66934240      27.07891039       0.04035834      -0.01638819       0.02384339      -3.30690718
Na      58.67848295      11.53470019      47.26756108       0.05376098      -0.06686510       0.06670147      -3.29147243
Na      39.31588031      18.76029635      52.57351934       0.04315402       0.00848868       0.01300218      -3.34686279
Na       4.84183503      50.13083656      42.42416356      -0.06816234       0.00337302       0.03361937      -3.21867418
Na      14.81675366      47.17789118      44.92281897      -0.07088118      -0.03274686      -0.00049707      -3.25728393
Na      17.23503589      17.87641233      53.80407937       0.03964362       0.01182716       0.10226910      -3.16001201
Na      16.51783824      12.08006849       6.79737322       0.02144077      -0.02759058      -0.00455515      -3.20322800
Na      22.78343751      40.96252732      17.70752477      -0.03373434       0.00276740       0.01235727      -3.35298824
Na      55.47418185      14.56325242      28.17593376       0.03976626       0.01542557      -0.02090299      -3.34509516
Na      46.08156869      24.88739152      25.52897571      -0.09501694       0.01425350       0.08071378      -3.20653200
Na      23.15904773      30.93804440      49.69595687      -0.04924960       0.02973368      -0.02838351      -3.36724830
Na      28.91296503       1.04985710      11.08318178       0.00594414       0.02939406      -0.01050778      -3.27483821
Na      22.03056165      42.75200670      40.94763922      -0.00029138       0.00568781      -0.04272737      -3.17203164
Na       1.72294716      18.82668973      48.28413705      -0.03306030      -0.01404900      -0.08139929      -3.19239640
Na       4.79236779      45.34267400      17.70385712      -0.02801510       0.03798229       0.10845505      -3.10434341
Na      11.07841011      27.63706631       6.06572521       0.06993245      -0.03421883      -0.03567611      -3.17827559
Cl       4.11986349      47.50906567       5.39092305       0.03229036      -0.01773997      -0.19538364      -3.39880705
Cl      29.08065660      38.59174809       9.74115450      -0.02696205      -0.07449444       0.07253136      -3.47207904
Cl       0.75645907      35.58055951      34.85613292       0.03392415      -0.01837987      -0.02507306      -3.53671646
Cl      36.00273194      54.86546131      25.57844808      -0.02318905       0.02257662      -0.03148511      -3.31268644
Cl       4.11103711      37.39523379      16.95034807       0.01772629       0.06798979       0.01250415      -3.56859231
Cl      15.04639368      31.50554376       8.75795436       0.06205899       0.01185139      -0.02211190      -3.56248617
Cl       1.29631016      55.11620870      44.79901482      -0.00961836       0.00397027       0.01024707      -3.49645543
Cl      29.15117147      31.55279307      33.52181461      -0.01357470      -0.02861522       0.00774445      -3.52296948
Cl      20.04377444      36.73240976      35.92894052      -0.01947577       0.08613023       0.04854342      -3.47887659
Cl      53.94398319      35.81302261      24.50408323      -0.09895936       0.05623487      -0.02733950      -3.35641766
Cl      55.54572379      53.63865794      42.09823580       0.03717293      -0.01007845       0.03222292      -3.63277793
Cl      10.58745869      21.86335212       4.12894795      -0.01429235      -0.02857822      -0.05584456      -3.28428960
Cl      49.66789368       4.01774471      -0.04666070      -0.05335073       0.01592781      -0.01417276      -3.44022036
Cl      20.58287719      25.79319287      44.88391474      -0.01260269      -0.01375340      -0.05639487      -3.61602640
Cl      39.58820408      31.38790175      -0.07176214      -0.01457256      -0.02435596       0.01662755      -3.50028467
Cl      11.76337790       4.87797212      36.01802492       0.05450803       0.01124164       0.00219790      -3.37335038
Cl      47.37219725      12.30794832      41.72025735      -0.03441877       0.01195865      -0.00833055      -3.58151793
Cl      11.16262584       0.99197113      20.55872711       0.02022912      -0.01929619       0.02505775      -3.48248696
Cl      17.74415677      14.24057428      22.27673751       0.11851849       0.00571605      -0.10444410      -3.42256451
Cl      47.07025334      10.99487296      48.66899823      -0.05702569      -0.08862539      -0.03391211      -3.53279734
Cl      47.23747020      10.25220050      52.34606320      -0.09134689       0.07484926       0.05401001      -3.52646422
Cl      28.77581681      42.38613598      41.42926223       0.01718846       0.00745108      -0.01914471      -3.48180270
Cl      37.09410818      43.88064305      37.31968888      -0.02885955       0.03540374       0.05829504      -3.51605272
Cl      46.65755500       8.13279970      42.10481952      -0.04244725       0.02267706      -0.01131027      -3.58638453
Cl      41.85714178      19.23473690      31.40207827       0.06337044       0.01942526      -0.01783361      -3.51169610
Cl      51.62257779      33.24879015      36.43281269      -0.02853921      -0.01632157       0.04522077      -3.49153018
Cl      36.12204609      22.65425846      42.51018750      -0.00891837      -0.03504196      -0.03342247      -3.60686231
Cl      23.05306254      32.53499833      40.21572243       0.13574067       0.02915002       0.09229376      -3.58798409
Cl      55.63862957      16.39561536      10.79750982       0.01977781      -0.02714202      -0.00867852      -3.46430206
Cl      17.81420048      58.41151482      16.26158550       0.02087134       0.09748919      -0.02244127      -3.43896484
Cl      46.23471940      48.61732932      45.67002211       0.00286394       0.13601248      -0.01348889      -3.49981189
Cl      28.19165130      34.99199114      41.85971700      -0.04643166      -0.04320055       0.01515696      -3.54388428
Cl      51.13156551      20.95588169      47.00746090      -0.02221924      -0.00530701       0.01987725      -3.45018601
Cl      34.20086362      19.60893293      40.01692738       0.01753948      -0.02373392      -0.08903828      -3.35208845
Cl      23.73721574      46.82432843       3.47924718       0.02174259       0.03677903      -0.01381143      -3.47890806
Cl      51.07613015      29.37683269      14.14762724      -0.03825120      -0.01051702      -0.04234528      -3.56585336
Cl      19.30834274       1.41126568      10.78171615       0.01859136      -0.05842458       0.05442807      -3.57329035
Cl       1.85420506      49.64445466       8.96196144       0.01317517       0.00818923      -0.00843992      -3.50872803
Cl      40.88787171      41.32866621      37.69969869      -0.01814301      -0.03951826      -0.01241767      -3.54481220
Cl      57.16459443      28.54286499      44.97262997      -0.02425507       0.02292940       0.00568000      -3.37198544
Cl       9.84917427       5.88642908      13.79518110       0.03334977      -0.02089997       0.03171688      -3.58070111
Cl      29.01408977      27.87916559       5.45802700       0.00783543      -0.03857176       0.04166512      -3.55599999
Cl      38.52670466      24.42377560      16.03744244      -0.02252620      -0.00572054      -0.05791219      -3.38100362
Cl      57.65648401       8.36076359      30.72910029      -0.03195474       0.08063732       0.05153343      -3.50392842
Cl      42.99522832       9.62201270      19.69128278      -0.02971477      -0.02082062       0.06126481      -3.42129707
Cl      21.82620910      10.79192023      49.66252427      -0.06409018       0.06236650      -0.05088640      -3.47125483
Cl      10.02122428      13.05546738      55.80428977       0.00262803      -0.02204498      -0.02117648      -3.52582812
Cl      45.23670688      31.35425219      56.96054093      -0.03235518      -0.01762803       0.02591112      -3.46063924
Cl      25.43645642      12.35174191      32.82542000      -0.03447314       0.05332869      -0.04881798      -3.45600796
Cl       6.89900148      58.32920857       3.78885493       0.02607210       0.00162244       0.03742551      -3.58036423
Na      34.48669436       9.22100723      33.96527723       0.04212876      -0.01387833      -0.01321408      -3.22208524
Na      52.88992809      39.43551101      57.24436166      -0.00355767       0.00950512      -0.03654450      -3.34633780
Na       6.69829158      46.24765302       9.14000194      -0.05542938      -0.01902701       0.07114482      -3.33261967
Na      42.15193370      39.06230183      51.44516919      -0.02508375       0.01128736       0.01788730      -3.10017157
Na       8.82148896      30.07387380      45.74584020      -0.01845708       0.02570879      -0.00432646      -3.23844624
Na      57.45876216      10.81982681      43.65640888      -0.00441842      -0.01712606       0.05393525      -3.28085446
Na      15.43963332      21.61662705      40.39224915       0.07707557      -0.00757340      -0.00983565      -3.25330138
Na      43.50186306      48.58279599      22.27791839       0.06332780       0.02148111       0.00033769      -3.29521441
Na       6.96501878      52.20397998      30.61498829       0.03619748      -0.00838130      -0.04424371      -3.38134670
Na      19.57906524      13.46271554      29.26887241      -0.01691075      -0.01610354      -0.01674221      -3.18680167
Na      47.44461009      28.37804987      24.84299397       0.03494082      -0.02767756      -0.06610089      -3.12873483
Na      19.07744545      49.24856700       7.84639069       0.08168806      -0.01661894      -0.04156340      -3.30020022
Na      19.72401446      39.37187185      56.94176961       0.00551590      -0.01259327      -0.05055399      -3.31488442
Na       6.12380242      57.11467340      20.80428010      -0.08751778       0.07050437       0.08352390      -3.21136832
Na      42.47934089      21.42460595      47.95762847       0.02767058       0.05416477       0.02082053      -3.42169833
Na      56.17590607      11.59338614      40.22325663       0.00769183      -0.03888251       0.02122328      -3.32639933
Na      52.38951613       6.18953314      49.44546932      -0.00900516      -0.09756984      -0.03202719      -3.39683270
Na      30.10670823      44.79301058      35.72938783      -0.00486517      -0.01641395      -0.00414858      -3.29213738
Na      56.76620755       0.10350547      47.54992027      -0.01033736      -0.02491387      -0.00660460      -3.31325841
Na      51.72618618       2.66072508      42.73161491      -0.00687283      -0.01287748       0.04320144      -3.26384759
Na       2.02960307      52.26595534       6.79872015       0.03871345      -0.08044730       0.06850315      -3.26194429
Na      12.25550980      21.15475739      29.55688538       0.05124497       0.05362064      -0.00266530      -3.22338629
Na      15.74359830      28.52655872      29.08947341       0.03129534      -0.03726009      -0.00955611      -3.49193525
Na       7.95266598      35.27274584      55.37247600      -0.01877049      -0.02924763       0.02321124      -3.32216454
Na      18.19670158      10.95649102      31.42528350       0.02272986       0.01548780      -0.02631945      -3.22944927
Na       9.41120044       5.04771151      31.14359841       0.03185358       0.07004389      -0.01816013      -3.41883183
Na      47.87428283      32.01174027      42.33541431       0.04002826      -0.11179728       0.09603104      -3.17119026
Na      26.26927363       7.37028974      11.71456700       0.00162840       0.02196915      -0.05145491      -3.14315724
Na       1.75956369      51.37934012      15.63055091      -0.06684327       0.07333180       0.01891356      -3.34517956
Na      48.61062837       5.57183500      17.97228968      -0.00488558      -0.06377914      -0.05718117      -3.31457376
Na      55.57339041      47.29441538      19.17250220       0.05104220      -0.02874015      -0.00195689      -3.40151477
Na      55.24371789      53.51052839       3.19554721      -0.03862291      -0.00342215      -0.00033995      -3.36448598
Na      24.98408795      43.76196089       9.43803092       0.01291949      -0.00870410      -0.01743347      -3.29663587
Na      20.72983690      53.64656405      37.64736414      -0.05631000       0.02575939      -0.00059538      -3.26290321
Na      54.93261898      47.66934245      41.71077733       0.04035808      -0.01638877       0.02384534      -3.30690718
Na      58.67848293      11.53470014       3.37195980       0.05375979      -0.06686530       0.06670393      -3.29147339
Na      39.31588032      18.76029628       8.67791794       0.04315356       0.00848860       0.01300725      -3.34686399
Na       4.84183510      50.13083677      57.05603084      -0.06816265       0.00337294       0.03361941      -3.21867442
Na      14.81675385      47.17789062       1.02721767      -0.07088102      -0.03274730      -0.00049838      -3.25728393
Na      17.23503588      17.87641248       9.90847852       0.03964262       0.01182435       0.10227071      -3.16001225
Na      16.51783836      12.08006852      21.42924064       0.02144077      -0.02759144      -0.00455798      -3.20322824
Na      22.78343752      40.96252721      32.33939163      -0.03373417       0.00276771       0.01235927      -3.35298753
Na      55.47418193      14.56325234      42.80780064       0.03976651       0.01542623      -0.02090127      -3.34509611
Na      46.08156886      24.88739149      40.16084242      -0.09501712       0.01425365       0.08071332      -3.20653152
Na      23.15904784      30.93804451       5.80035537      -0.04924990       0.02973351      -0.02838105      -3.36724854
Na      28.91296505       1.04985708      25.71504883       0.00594459       0.02939527      -0.01050974      -3.27483869
Na      22.03056163      42.75200650      55.57950672      -0.00029242       0.00568759      -0.04272699      -3.17203212
Na       1.72294714      18.82668950       4.38853611      -0.03306125      -0.01404294      -0.08139572      -3.19239664
Na       4.79236767      45.34267390      32.33572402      -0.02801441       0.03798380       0.10845427      -3.10434318
Na      11.07840998      27.63706625      20.69759226       0.06993271      -0.03421833      -0.03567144      -3.17827535
Cl       4.11986362      47.50906557      20.02278999       0.03228857      -0.01773588      -0.19538589      -3.39880610
Cl      29.08065665      38.59174813      24.37302154      -0.02696278      -0.07449406       0.07253163      -3.47207928
Cl       0.75645923      35.58055945      49.48800027       0.03392578      -0.01837981      -0.02507041      -3.53671694
Cl      36.00273196      54.86546136      40.21031515      -0.02318972       0.02256852      -0.03148817      -3.31268764
Cl       4.11103707      37.39523382      31.58221513       0.01772685       0.06799132       0.01250512      -3.56859231
Cl      15.04639376      31.50554380      23.38982152       0.06205938       0.01185065      -0.02211238      -3.56248569
Cl       1.29630970      55.11620885       0.90341326      -0.00962065       0.00396882       0.01024505      -3.49645710
Cl      29.15117142      31.55279299      48.15368154      -0.01357442      -0.02861657       0.00774556      -3.52296901
Cl      20.04377442      36.73240992      50.56080737      -0.01947694       0.08612780       0.04854530      -3.47887588
Cl      53.94398324      35.81302271      39.13594996      -0.09895653       0.05623787      -0.02733269      -3.35641599
Cl      55.54572379      53.63865827      56.73010333       0.03717222      -0.01007959       0.03222713      -3.63277841
Cl      10.58745870      21.86335212      18.76081495      -0.01429252      -0.02857835      -0.05584434      -3.28428936
Cl      49.66789357       4.01774429      14.58520813      -0.05335139       0.01592750      -0.01417215      -3.44021988
Cl      20.58287713      25.79319258       0.98831333      -0.01259801      -0.01374894      -0.05639653      -3.61602712
Cl      39.58820424      31.38790140      14.56010595      -0.01457334      -0.02435580       0.01662798      -3.50028491
Cl      11.76337779       4.87797230      50.64989220       0.05450623       0.01124443       0.00220673      -3.37335157
Cl      47.37219761      12.30794842      56.35212505      -0.03441835       0.01196099      -0.00832904      -3.58151770
Cl      11.16262586       0.99197119      35.19059411       0.02022798      -0.01929704       0.02505923      -3.48248768
Cl      17.74415689      14.24057433      36.90860478       0.11851661       0.00571654      -0.10444516      -3.42256474
Cl      47.07025342      10.99487324       4.77339733      -0.05703270      -0.08861987      -0.03390933      -3.53279686
Cl      47.23747003      10.25220048       8.45046209      -0.09134696       0.07484937       0.05400664      -3.52646422
Cl      28.77581670      42.38613598      56.06112995       0.01718920       0.00745270      -0.01914316      -3.48180318
Cl      37.09410823      43.88064315      51.95155552      -0.02885966       0.03540449       0.05829739      -3.51605320
Cl      46.65755503       8.13279994      56.73668689      -0.04244578       0.02267651      -0.01130892      -3.58638167
Cl      41.85714172      19.23473697      46.03394529       0.06337167       0.01942660      -0.01783441      -3.51169419
Cl      51.62257798      33.24879016      51.06467984      -0.02853771      -0.01632210       0.04522508      -3.49153018
Cl      36.12204614      22.65425870      57.14205557      -0.00891755      -0.03504068      -0.03342144      -3.60686278
Cl      23.05306248      32.53499842      54.84758969       0.13573778       0.02914835       0.09228772      -3.58798409
Cl      55.63862951      16.39561533      25.42937667       0.01977863      -0.02714061      -0.00867680      -3.46430230
Cl      17.81420055      58.41151476      30.89345240       0.02087267       0.09749075      -0.02243942      -3.43896508
Cl      46.23471961      48.61732919       1.77442127       0.00286411       0.13601278      -0.01349030      -3.49981213
Cl      28.19165115      34.99199123      56.49158414      -0.04643361      -0.04320018       0.01515883      -3.54388332
Cl      51.13156528      20.95588183       3.11185908      -0.02221803      -0.00530648       0.01987731      -3.45018530
Cl      34.20086364      19.60893308      54.64879389       0.01753986      -0.02373321      -0.08903739      -3.35208893
Cl      23.73721557      46.82432841      18.11111462       0.02174244       0.03677844      -0.01381236      -3.47890735
Cl      51.07613016      29.37683269      28.77949409      -0.03825208      -0.01051769      -0.04234353      -3.56585407
Cl      19.30834275       1.41126560      25.41358325       0.01859115      -0.05842488       0.05442754      -3.57329035
Cl       1.85420511      49.64445457      23.59382849       0.01317464       0.00818924      -0.00843940      -3.50872803
Cl      40.88787160      41.32866647      52.33156527      -0.01814159      -0.03952033      -0.01241165      -3.54481053
Cl      57.16459442      28.54286522       1.07702845      -0.02425432       0.02292977       0.00567592      -3.37198377
Cl       9.84917432       5.88642909      28.42704806       0.03334878      -0.02090029       0.03171805      -3.58070183
Cl      29.01408976      27.87916566      20.08989448       0.00783448      -0.03857304       0.04166196      -3.55599999
Cl      38.52670437      24.42377556      30.66930927      -0.02252543      -0.00572115      -0.05791100      -3.38100386
Cl      57.65648390       8.36076354      45.36096743      -0.03195502       0.08063655       0.05153547      -3.50392652
Cl      42.99522825       9.62201279      34.32315001      -0.02971366      -0.02081901       0.06125981      -3.42129683
Cl      21.82620912      10.79192021       5.76692301      -0.06409009       0.06236738      -0.05088668      -3.47125435
Cl      10.02122433      13.05546723      11.90868835       0.00262861      -0.02204549      -0.02117514      -3.52582741
Cl      45.23670699      31.35425238      13.06493889      -0.03235671      -0.01762752       0.02591093      -3.46063852
Cl      25.43645634      12.35174194      47.45728706      -0.03447073       0.05332981      -0.04881682      -3.45600820
Cl       6.89900148      58.32920854      18.42072242       0.02607236       0.00162225       0.03742391      -3.58036423
Na      34.48669450       9.22100722      48.59714412       0.04212877      -0.01387826      -0.01321390      -3.22208500
Na      52.88992783      39.43551130      13.34875961      -0.00355785       0.00950518      -0.03654363      -3.34633756
Na       6.69829150      46.24765305      23.77186917      -0.05542894      -0.01902718       0.07114425      -3.33261967
Na      42.15193393      39.06230163       7.54956730      -0.02508382       0.01128605       0.01788368      -3.10017228
Na       8.82148879      30.07387428       1.85023860      -0.01845650       0.02571151      -0.00432456      -3.23844576
Na      57.45876230      10.81982678      58.28827687      -0.00441814      -0.01712698       0.05393735      -3.28085351
Na      15.43963321      21.61662728      55.02411679       0.07707579      -0.00757346      -0.00983434      -3.25330234
Na      43.50186276      48.58279591      36.90978532       0.06332585       0.02148309       0.00033547      -3.29521418
Na       6.96501877      52.20398007      45.24685532       0.03619801      -0.00837763      -0.04424727      -3.38134718
Na      19.57906524      13.46271542      43.90073948      -0.01691180      -0.01610482      -0.01673811      -3.18680239
Na      47.44460995      28.37804970      39.47486094       0.03494293      -0.02767694      -0.06609824      -3.12873507
Na      19.07744538      49.24856684      22.47825777       0.08168811      -0.01661939      -0.04156399      -3.30020118
Na      19.72401449      39.37187174      13.04616814       0.00551523      -0.01259321      -0.05055591      -3.31488419
Na       6.12380250      57.11467345      35.43614717      -0.08751794       0.07050288       0.08352393      -3.21136737
Na      42.47934094      21.42460594       4.06202727       0.02767298       0.05416580       0.02082328      -3.42169809
Na      56.17590629      11.59338621      54.85512418       0.00769037      -0.03888307       0.02121119      -3.32639861
Na      52.38951617       6.18953312       5.54986815      -0.00900584      -0.09756973      -0.03202760      -3.39683270
Na      30.10670831      44.79301051      50.36125510      -0.00486527      -0.01641318      -0.00414912      -3.29213762
Na      56.76620743       0.10350540       3.65431900      -0.01033723      -0.02491492      -0.00660523      -3.31325841
Na      51.72618612       2.66072517      57.36348257      -0.00687302      -0.01287724       0.04319789      -3.26384759
Na       2.02960316      52.26595543      21.43058719       0.03871324      -0.08044821       0.06850258      -3.26194406
Na      12.25550989      21.15475734      44.18875258       0.05124384       0.05361921      -0.00265974      -3.22338724
Na      15.74359830      28.52655860      43.72134073       0.03129536      -0.03726031      -0.00955512      -3.49193525
Na       7.95266595      35.27274604      11.47687461      -0.01876958      -0.02924746       0.02320789      -3.32216597
Na      18.19670155      10.95649102      46.05715051       0.02273388       0.01548901      -0.02632654      -3.22944975
Na       9.41120056       5.04771143      45.77546539       0.03185547       0.07004373      -0.01816304      -3.41883230
Na      47.87428278      32.01174034      56.96728140       0.04002929      -0.11179714       0.09603360      -3.17118859
Na      26.26927348       7.37028967      26.34643402       0.00163006       0.02197055      -0.05145274      -3.14315701
Na       1.75956356      51.37934011      30.26241795      -0.06684335       0.07333114       0.01891346      -3.34517956
Na      48.61062838       5.57183504      32.60415668      -0.00488646      -0.06377921      -0.05718025      -3.31457353
Na      55.57339040      47.29441529      33.80436907       0.05104272      -0.02874015      -0.00196092      -3.40151501
Na      55.24371794      53.51052852      17.82741470      -0.03862336      -0.00342126      -0.00034078      -3.36448622
Na      24.98408805      43.76196087      24.06989815       0.01291882      -0.00870437      -0.01743446      -3.29663563
Na      20.72983692      53.64656415      52.27923118      -0.05630998       0.02575901      -0.00059593      -3.26290369
Na      54.93261895      47.66934247      56.34264486       0.04035766      -0.01638709       0.02384820      -3.30690718
Na      58.67848298      11.53470012      18.00382695       0.05375979      -0.06686455       0.06670637      -3.29147339
Na      39.31588020      18.76029626      23.30978504       0.04315434       0.00848792       0.01300434      -3.34686422
Na       4.84183497      50.13083648      13.16042988      -0.06816339       0.00337321       0.03361923      -3.21867442
Na      14.81675367      47.17789119      15.65908495      -0.07088090      -0.03274798      -0.00049897      -3.25728345
Na      17.23503595      17.87641245      24.54034560       0.03963832       0.01182358       0.10226791      -3.16001248
Na      16.51783833      12.08006856      36.06110752       0.02143985      -0.02759021      -0.00455599      -3.20322824
Na      22.78343738      40.96252740      46.97125894      -0.03373428       0.00276753       0.01235550      -3.35298848
Na      55.47418152      14.56325239      57.43966829       0.03976803       0.01542673      -0.02089827      -3.34509516
Na      46.08156901      24.88739137      54.79270980      -0.09501651       0.01425207       0.08071515      -3.20653248
Na      23.15904783      30.93804440      20.43222262      -0.04925059       0.02973302      -0.02837934      -3.36724877
Na      28.91296500       1.04985708      40.34691580       0.00594527       0.02939536      -0.01051032      -3.27483845
Na      22.03056152      42.75200663      11.68390519      -0.00029160       0.00568694      -0.04272911      -3.17203212
Na       1.72294728      18.82668958      19.02040306      -0.03306097      -0.01404253      -0.08139519      -3.19239664
Na       4.79236774      45.34267376      46.96759102      -0.02801564       0.03798148       0.10845447      -3.10434365
Na      11.07840994      27.63706637      35.32945941       0.06993376      -0.03421918      -0.03567757      -3.17827487
Cl       4.11986365      47.50906571      34.65465707       0.03229173      -0.01774059      -0.19538164      -3.39880657
Cl      29.08065657      38.59174833      39.00488844      -0.02695983      -0.07449567       0.07253466      -3.47207975
Cl       0.75645907      35.58055950       5.59239894       0.03392372      -0.01838094      -0.02507463      -3.53671646
Cl      36.00273166      54.86546119      54.84218238      -0.02318829       0.02257650      -0.03148799      -3.31268716
Cl       4.11103703      37.39523380      46.21408202       0.01772662       0.06799024       0.01250629      -3.56859207
Cl      15.04639395      31.50554384      38.02168855       0.06205561       0.01185047      -0.02211522      -3.56248665
Cl       1.29631012      55.11620854      15.53528071      -0.00962112       0.00396897       0.01024541      -3.49645686
Cl      29.15117143      31.55279306       4.25808030      -0.01357475      -0.02861634       0.00774555      -3.52296948
Cl      20.04377437      36.73240962       6.66520632      -0.01947626       0.08613139       0.04854062      -3.47887659
Cl      53.94398356      35.81302268      53.76781734      -0.09895880       0.05623355      -0.02734071      -3.35641789
Cl      55.54572363      53.63865793      12.83450189       0.03717205      -0.01007992       0.03222383      -3.63277793
Cl      10.58745868      21.86335202      33.39268183      -0.01429318      -0.02857949      -0.05584406      -3.28428936
Cl      49.66789355       4.01774425      29.21707516      -0.05335128       0.01592788      -0.01417361      -3.44022036
Cl      20.58287717      25.79319280      15.62018085      -0.01260263      -0.01374869      -0.05639613      -3.61602664
Cl      39.58820422      31.38790146      29.19197299      -0.01457344      -0.02435577       0.01662878      -3.50028515
Cl      11.76337775       4.87797208       6.75429110       0.05450767       0.01124267       0.00219873      -3.37335134
Cl      47.37219730      12.30794817      12.45652348      -0.03441797       0.01195991      -0.00833147      -3.58151770
Cl      11.16262579       0.99197107      49.82246093       0.02022853      -0.01929731       0.02505904      -3.48248744
Cl      17.74415677      14.24057427      51.54047180       0.11851949       0.00571626      -0.10444215      -3.42256498
Cl      47.07025342      10.99487308      19.40526450      -0.05703413      -0.08861987      -0.03390550      -3.53279710
Cl      47.23747005      10.25220048      23.08232902      -0.09134806       0.07484898       0.05400905      -3.52646399
Cl      28.77581665      42.38613595      12.16552822       0.01718987       0.00745143      -0.01914118      -3.48180366
Cl      37.09410816      43.88064314       8.05595450      -0.02885927       0.03540433       0.05829715      -3.51605272
Cl      46.65755492       8.13279978      12.84108548      -0.04244541       0.02267702      -0.01130888      -3.58638239
Cl      41.85714171      19.23473687       2.13834387       0.06337101       0.01942328      -0.01783006      -3.51169491
Cl      51.62257791      33.24879008       7.16907842      -0.02853914      -0.01632125       0.04522035      -3.49152970
Cl      36.12204611      22.65425839      13.24645348      -0.00891774      -0.03504280      -0.03342000      -3.60686326
Cl      23.05306249      32.53499832      10.95198828       0.13573903       0.02914773       0.09229417      -3.58798361
Cl      55.63862970      16.39561551      40.06124398       0.01977822      -0.02714301      -0.00868037      -3.46430182
Cl      17.81420060      58.41151499      45.52531968       0.02087086       0.09749214      -0.02243696      -3.43896508
Cl      46.23471949      48.61732918      16.40628835       0.00286432       0.13601340      -0.01349056      -3.49981260
Cl      28.19165115      34.99199123      12.59598294      -0.04643391      -0.04320079       0.01515933      -3.54388285
Cl      51.13156540      20.95588193      17.74372671      -0.02221885      -0.00530649       0.01987749      -3.45018530
Cl      34.20086361      19.60893294      10.75319297       0.01753887      -0.02373418      -0.08903933      -3.35208845
Cl      23.73721562      46.82432841      32.74298201       0.02174245       0.03677795      -0.01380929      -3.47890687
Cl      51.07613031      29.37683277      43.41136119      -0.03825091      -0.01051681      -0.04234601      -3.56585336
Cl      19.30834268       1.41126571      40.04545037       0.01859121      -0.05842565       0.05442524      -3.57328987
Cl       1.85420506      49.64445467      38.22569573       0.01317400       0.00818916      -0.00844119      -3.50872827
Cl      40.88787163      41.32866631       8.43596433      -0.01814185      -0.03951955      -0.01241377      -3.54481101
Cl      57.16459444      28.54286496      15.70889582      -0.02425506       0.02292956       0.00567945      -3.37198615
Cl       9.84917424       5.88642912      43.05891520       0.03334979      -0.02089948       0.03171707      -3.58070183
Cl      29.01408980      27.87916540      34.72176152       0.00783609      -0.03857116       0.04166600      -3.55599928
Cl      38.52670462      24.42377558      45.30117628      -0.02252701      -0.00572028      -0.05791499      -3.38100171
Cl      57.65648416       8.36076351       1.46536595      -0.03195534       0.08063649       0.05153316      -3.50392723
Cl      42.99522834       9.62201287      48.95501649      -0.02971521      -0.02082211       0.06126258      -3.42129827
Cl      21.82620903      10.79192022      20.39879025      -0.06408692       0.06236629      -0.05088611      -3.47125506
Cl      10.02122428      13.05546727      26.54055542       0.00262984      -0.02204514      -0.02117503      -3.52582741
Cl      45.23670702      31.35425235      27.69680588      -0.03235631      -0.01762776       0.02591189      -3.46063828
Cl      25.43645624      12.35174158       3.56168583      -0.03447214       0.05332919      -0.04881779      -3.45600796
Cl       6.89900152      58.32920866      33.05258912       0.02607252       0.00162214       0.03742484      -3.58036447
Na      34.48669433       9.22100737       4.70154296       0.04212878      -0.01387981      -0.01321125      -3.22208548
Na      52.88992780      39.43551129      27.98062655      -0.00355799       0.00950562      -0.03654463      -3.34633684
Na       6.69829154      46.24765299      38.40373593      -0.05542922      -0.01902705       0.07114647      -3.33261943
Na      42.15193381      39.06230170      22.18143465      -0.02508290       0.01128609       0.01788112      -3.10017228
Na       8.82148894      30.07387395      16.48210636      -0.01845799       0.02571043      -0.00432529      -3.23844576
Na      57.45876244      10.81982696      14.39267509      -0.00441835      -0.01712634       0.05393636      -3.28085327
Na      15.43963333      21.61662715      11.12851516       0.07707602      -0.00757321      -0.00983520      -3.25330257
Na      43.50186315      48.58279580      51.54165233       0.06332693       0.02148242       0.00033547      -3.29521418
Na       6.96501846      52.20397994       1.35125350       0.03619771      -0.00838015      -0.04424494      -3.38134694
Na      19.57906539      13.46271555       0.00513777      -0.01691101      -0.01610346      -0.01673971      -3.18680215
Na      47.44461004      28.37804976      54.10672820       0.03494228      -0.02767790      -0.06609914      -3.12873411
Na      19.07744548      49.24856702      37.11012457       0.08168817      -0.01662055      -0.04156324      -3.30020022
Na      19.72401453      39.37187167      27.67803517       0.00551484      -0.01259363      -0.05055708      -3.31488395
Na       6.12380254      57.11467348      50.06801413      -0.08751813       0.07050383       0.08352459      -3.21136737
Na      42.47934085      21.42460602      18.69389457       0.02767164       0.05416610       0.02082274      -3.42169833
Na      56.17590615      11.59338616      10.95952267       0.00769079      -0.03888242       0.02121726      -3.32639861
Na      52.38951626       6.18953324      20.18173529      -0.00900552      -0.09757011      -0.03202790      -3.39683270
Na      30.10670800      44.79301029       6.46565367      -0.00486517      -0.01641316      -0.00414806      -3.29213738
Na      56.76620739       0.10350549      18.28618645      -0.01033708      -0.02491474      -0.00660427      -3.31325746
Na      51.72618611       2.66072511      13.46788102      -0.00687284      -0.01287646       0.04319642      -3.26384783
Na       2.02960324      52.26595535      36.06245420       0.03871239      -0.08044776       0.06850247      -3.26194453
Na      12.25551003      21.15475710       0.29315051       0.05124315       0.05361832      -0.00266770      -3.22338724
Na      15.74359830      28.52655874      58.35320817       0.03129470      -0.03726038      -0.00955158      -3.49193549
Na       7.95266587      35.27274608      26.10874149      -0.01876932      -0.02924745       0.02320773      -3.32216525
Na      18.19670134      10.95649108       2.16154894       0.02273120       0.01548852      -0.02632099      -3.22944975
Na       9.41120055       5.04771142       1.87986371       0.03185451       0.07004257      -0.01816034      -3.41883278
Na      47.87428276      32.01174035      13.07168042       0.04002951      -0.11179693       0.09603126      -3.17118979
Na      26.26927341       7.37028979      40.97830102       0.00162605       0.02196510      -0.05145894      -3.14315701
Na       1.75956369      51.37934006      44.89428497      -0.06684430       0.07333290       0.01891470      -3.34517980
Na      48.61062839       5.57183502      47.23602365      -0.00488640      -0.06377944      -0.05718064      -3.31457353
Na      55.57339039      47.29441529      48.43623582       0.05104207      -0.02874222      -0.00196064      -3.40151501
Na      55.24371801      53.51052860      32.45928185      -0.03862290      -0.00342131      -0.00033970      -3.36448622
Na      24.98408791      43.76196089      38.70176489       0.01292233      -0.00870293      -0.01742816      -3.29663539
Na      20.72983691      53.64656414       8.38363027      -0.05631010       0.02575863      -0.00059438      -3.26290345
Na      54.93261898      47.66934235      12.44704332       0.04035737      -0.01638756       0.02384461      -3.30690718
Na      58.67848287      11.53470018      32.63569415       0.05375859      -0.06686512       0.06670933      -3.29147267
Na      39.31588039      18.76029623      37.94165192       0.04315313       0.00848837       0.01300818      -3.34686399
Na       4.84183505      50.13083645      27.79229679      -0.06816301       0.00337311       0.03361890      -3.21867442
Na      14.81675369      47.17789122      30.29095196      -0.07088140      -0.03274774      -0.00049858      -3.25728345
Na      17.23503593      17.87641248      39.17221236       0.03964011       0.01182200       0.10227042      -3.16001201
Na      16.51783838      12.08006859      50.69297479       0.02144014      -0.02759083      -0.00455479      -3.20322800
Na      22.78343754      40.96252720       3.07565731      -0.03373393       0.00276745       0.01235767      -3.35298824
Na      55.47418180      14.56325243      13.54406663       0.03976677       0.01542588      -0.02090279      -3.34509540
Na      46.08156873      24.88739151      10.89710862      -0.09501696       0.01425300       0.08071531      -3.20653200
Na      23.15904774      30.93804454      35.06408937      -0.04924998       0.02973362      -0.02838326      -3.36724806
Na      28.91296507       1.04985710      54.97878314       0.00594524       0.02939396      -0.01050688      -3.27483821
Na      22.03056158      42.75200672      26.31577219      -0.00029174       0.00568675      -0.04273019      -3.17203212
Na       1.72294721      18.82668963      33.65226984      -0.03306165      -0.01404299      -0.08139874      -3.19239664
Na       4.79236725      45.34267346       3.07199015      -0.02801468       0.03798269       0.10845394      -3.10434318
Na      11.07841003      27.63706615      49.96132665       0.06993283      -0.03421874      -0.03567671      -3.17827535
Cl       4.11986350      47.50906557      49.28652419       0.03228857      -0.01773553      -0.19538622      -3.39880538
Cl      29.08065667      38.59174821      53.63675548      -0.02696349      -0.07449517       0.07252926      -3.47207904
Cl       0.75645921      35.58055967      20.22426611       0.03392474      -0.01838129      -0.02507446      -3.53671670
Cl      36.00273196      54.86546128      10.94658100      -0.02318763       0.02257673      -0.03148673      -3.31268716
Cl       4.11103695      37.39523378       2.31848107       0.01772686       0.06799029       0.01250449      -3.56859231
Cl      15.04639369      31.50554381      52.65355571       0.06205972       0.01185102      -0.02211331      -3.56248617
Cl       1.29631009      55.11620864      30.16714775      -0.00962121       0.00396840       0.01024229      -3.49645805
Cl      29.15117152      31.55279293      18.88994756      -0.01357512      -0.02861588       0.00774519      -3.52296948
Cl      20.04377441      36.73240965      21.29707349      -0.01947628       0.08613050       0.04854152      -3.47887635
Cl      53.94398306      35.81302258       9.87221612      -0.09895006       0.05623884      -0.02733655      -3.35641694
Cl      55.54572372      53.63865805      27.46636882       0.03717197      -0.01008167       0.03222379      -3.63277864
Cl      10.58745869      21.86335186      48.02454908      -0.01429372      -0.02857932      -0.05584257      -3.28428960
Cl      49.66789354       4.01774433      43.84894218      -0.05335083       0.01592614      -0.01417401      -3.44021988
Cl      20.58287709      25.79319277      30.25204781      -0.01259767      -0.01374855      -0.05639734      -3.61602712
Cl      39.58820421      31.38790131      43.82384032      -0.01457305      -0.02435341       0.01662586      -3.50028491
Cl      11.76337789       4.87797215      21.38615821       0.05450583       0.01124325       0.00220137      -3.37335110
Cl      47.37219735      12.30794812      27.08839061      -0.03441714       0.01195933      -0.00832961      -3.58151770
Cl      11.16262579       0.99197107       5.92685989       0.02022970      -0.01929616       0.02505790      -3.48248744
Cl      17.74415673      14.24057425       7.64487048       0.11851808       0.00571609      -0.10444561      -3.42256498
Cl      47.07025340      10.99487296      34.03713131      -0.05703210      -0.08862048      -0.03391306      -3.53279686
Cl      47.23746996      10.25220050      37.71419621      -0.09134808       0.07484898       0.05401070      -3.52646351
Cl      28.77581676      42.38613614      26.79739507       0.01718954       0.00745070      -0.01914131      -3.48180389
Cl      37.09410823      43.88064310      22.68782163      -0.02885926       0.03540414       0.05829734      -3.51605225
Cl      46.65755488       8.13279978      27.47295243      -0.04244500       0.02267682      -0.01130826      -3.58638287
Cl      41.85714183      19.23473682      16.77021131       0.06337111       0.01942537      -0.01783210      -3.51169515
Cl      51.62257782      33.24879014      21.80094559      -0.02853911      -0.01632073       0.04522162      -3.49152946
Cl      36.12204617      22.65425846      27.87832050      -0.00891788      -0.03504273      -0.03341977      -3.60686350
Cl      23.05306262      32.53499828      25.58385514       0.13573918       0.02914862       0.09229773      -3.58798409
Cl      55.63862951      16.39561547      54.69311106       0.01977841      -0.02714163      -0.00867894      -3.46430302
Cl      17.81420053      58.41151473       1.62971786       0.02087218       0.09748995      -0.02244240      -3.43896413
Cl      46.23471953      48.61732927      31.03815525       0.00286460       0.13601317      -0.01348852      -3.49981213
Cl      28.19165117      34.99199120      27.22784981      -0.04643337      -0.04320014       0.01515882      -3.54388356
Cl      51.13156543      20.95588187      32.37559371      -0.02221882      -0.00530512       0.01987397      -3.45018530
Cl      34.20086355      19.60893294      25.38505997       0.01753860      -0.02373400      -0.08903735      -3.35208917
Cl      23.73721562      46.82432848      47.37484877       0.02174190       0.03677832      -0.01380529      -3.47890711
Cl      51.07613020      29.37683275      58.04322889      -0.03825206      -0.01051782      -0.04234508      -3.56585336
Cl      19.30834253       1.41126585      54.67731712       0.01859197      -0.05842632       0.05442594      -3.57329059
Cl       1.85420504      49.64445466      52.85756269       0.01317401       0.00818953      -0.00844123      -3.50872803
Cl      40.88787163      41.32866626      23.06783141      -0.01814204      -0.03951976      -0.01241228      -3.54481149
Cl      57.16459439      28.54286499      30.34076277      -0.02425500       0.02292917       0.00567790      -3.37198639
Cl       9.84917424       5.88642909      57.69078285       0.03335096      -0.02089969       0.03171474      -3.58070016
Cl      29.01408965      27.87916544      49.35362827       0.00783348      -0.03857354       0.04165950      -3.55599904
Cl      38.52670465      24.42377559       1.40557489      -0.02252536      -0.00572043      -0.05791005      -3.38100362
Cl      57.65648390       8.36076356      16.09723341      -0.03195471       0.08063681       0.05153427      -3.50392747
Cl      42.99522828       9.62201282       5.05941569      -0.02971444      -0.02082002       0.06126298      -3.42129731
Cl      21.82620897      10.79192012      35.03065721      -0.06408629       0.06236879      -0.05088752      -3.47125363
Cl      10.02122436      13.05546727      41.17242250       0.00262843      -0.02204595      -0.02117832      -3.52582693
Cl      45.23670703      31.35425235      42.32867291      -0.03235799      -0.01762756       0.02591000      -3.46063900
Cl      25.43645630      12.35174196      18.19355325      -0.03447241       0.05332767      -0.04882196      -3.45600867
Cl       6.89900154      58.32920861      47.68445622       0.02607239       0.00162210       0.03742717      -3.58036470
Na      34.48669443      23.85287421      19.33341017       0.04212947      -0.01387906      -0.01321234      -3.22208500
Na      52.88992789      54.06737807      42.61249348      -0.00355796       0.00950550      -0.03653853      -3.34633851
Na       6.69829169       2.35205163      53.03560346      -0.05542863      -0.01902311       0.07114711      -3.33261991
Na      42.15193365      53.69416876      36.81330146      -0.02508038       0.01128449       0.01788459      -3.10017228
Na       8.82148886      44.70574088      31.11397319      -0.01845905       0.02570841      -0.00432547      -3.23844576
Na      57.45876233      25.45169393      29.02454206      -0.00441822      -0.01712757       0.05393687      -3.28085232
Na      15.43963334      36.24849407      25.76038240       0.07707609      -0.00757249      -0.00983545      -3.25330329
Na      43.50186296       4.68719456       7.64605134       0.06332737       0.02148041       0.00033650      -3.29521465
Na       6.96501884       8.30837915      15.98312123       0.03619596      -0.00838254      -0.04424382      -3.38134694
Na      19.57906518      28.09458261      14.63700537      -0.01690956      -0.01610857      -0.01674060      -3.18680239
Na      47.44460996      43.00991647      10.21112699       0.03494054      -0.02768302      -0.06609595      -3.12873459
Na      19.07744551       5.35296597      51.74199185       0.08168992      -0.01661974      -0.04156477      -3.30020070
Na      19.72401469      54.00373861      42.30990221       0.00551612      -0.01259159      -0.05055334      -3.31488466
Na       6.12380172      13.21907181       6.17241323      -0.08751784       0.07050526       0.08352198      -3.21136832
Na      42.47934081      36.05647280      33.32576143       0.02767273       0.05416651       0.02082491      -3.42169929
Na      56.17590615      26.22525321      25.59138985       0.00768906      -0.03888483       0.02121311      -3.32639813
Na      52.38951629      20.82140036      34.81360216      -0.00900419      -0.09756881      -0.03202724      -3.39683294
Na      30.10670792       0.89740829      21.09752088      -0.00486566      -0.01640948      -0.00414578      -3.29213715
Na      56.76620691      14.73537314      32.91805344      -0.01033640      -0.02491473      -0.00660125      -3.31325841
Na      51.72618639      17.29259281      28.09974832      -0.00687329      -0.01287738       0.04319602      -3.26384759
Na       2.02960312       8.37035417      50.69432120       0.03871685      -0.08044177       0.06850577      -3.26194286
Na      12.25550964      35.78662447      14.92501830       0.05124275       0.05361653      -0.00266748      -3.22338724
Na      15.74359838      43.15842557      14.45760644       0.03129564      -0.03726052      -0.00955507      -3.49193525
Na       7.95266579      49.90461317      40.74060867      -0.01876759      -0.02924697       0.02320707      -3.32216501
Na      18.19670167      25.58835796      16.79341636       0.02273272       0.01548920      -0.02632573      -3.22944951
Na       9.41120054      19.67957897      16.51173121       0.03185421       0.07004323      -0.01816116      -3.41883230
Na      47.87428254      46.64360731      27.70354702       0.04003032      -0.11179759       0.09603351      -3.17118907
Na      26.26927334      22.00215707      55.61016855       0.00163303       0.02196962      -0.05144994      -3.14315701
Na       1.75956385       7.48373893       0.99868389      -0.06684336       0.07333374       0.01891406      -3.34517932
Na      48.61062847      20.20370234       3.34042274      -0.00488657      -0.06378093      -0.05718109      -3.31457376
Na      55.57339053       3.39881364       4.54063475       0.05104128      -0.02874067      -0.00195658      -3.40151525
Na      55.24371782       9.61492725      47.09114865      -0.03862320      -0.00342149      -0.00034037      -3.36448503
Na      24.98408780      58.39382847      53.33363227       0.01292216      -0.00870603      -0.01743278      -3.29663539
Na      20.72983697       9.75096317      23.01549729      -0.05631032       0.02575837      -0.00059468      -3.26290369
Na      54.93261893       3.77374101      27.07891062       0.04035911      -0.01639069       0.02384347      -3.30690718
Na      58.67848302      26.16656726      47.26756108       0.05376040      -0.06686417       0.06670221      -3.29147267
Na      39.31588022      33.39216331      52.57351938       0.04315500       0.00849009       0.01300237      -3.34686375
Na       4.84183520       6.23523536      42.42416356      -0.06816138       0.00337404       0.03362033      -3.21867418
Na      14.81675365       3.28228983      44.92281854      -0.07088186      -0.03274528      -0.00049762      -3.25728345
Na      17.23503584      32.50827921      53.80407944       0.03964418       0.01182952       0.10226895      -3.16001177
Na      16.51783824      26.71193554       6.79737323       0.02144095      -0.02758998      -0.00455550      -3.20322800
Na      22.78343796      55.59439472      17.70752476      -0.03373441       0.00276982       0.01235779      -3.35298848
Na      55.47418189      29.19511941      28.17593380       0.03976596       0.01542443      -0.02090263      -3.34509492
Na      46.08156875      39.51925852      25.52897558      -0.09501740       0.01425036       0.08071300      -3.20653319
Na      23.15904773      45.56991156      49.69595673      -0.04924830       0.02973051      -0.02838301      -3.36724830
Na      28.91296500      15.68172480      11.08318179       0.00594522       0.02939450      -0.01050746      -3.27483940
Na      22.03056199      57.38387321      40.94763937      -0.00029046       0.00569135      -0.04272594      -3.17203164
Na       1.72294714      33.45855660      48.28413703      -0.03306080      -0.01404828      -0.08139983      -3.19239640
Na       4.79236725       1.44707221      17.70385633      -0.02801180       0.03798304       0.10845780      -3.10434246
Na      11.07841009      42.26893298       6.06572525       0.06993219      -0.03421886      -0.03567544      -3.17827559
Cl       4.11986350       3.61346447       5.39092309       0.03228855      -0.01773788      -0.19538532      -3.39880657
Cl      29.08065656      53.22361536       9.74115457      -0.02696161      -0.07449448       0.07253164      -3.47207928
Cl       0.75645916      50.21242670      34.85613297       0.03392514      -0.01837678      -0.02507100      -3.53671479
Cl      36.00273168      10.96986022      25.57844794      -0.02318903       0.02257369      -0.03148568      -3.31268644
Cl       4.11103713      52.02710111      16.95034808       0.01772704       0.06799157       0.01250501      -3.56859398
Cl      15.04639384      46.13741055       8.75795456       0.06205989       0.01185512      -0.02211102      -3.56248641
Cl       1.29631061      11.22060704      44.79901461      -0.00962073       0.00396770       0.01024719      -3.49645662
Cl      29.15117129      46.18465940      33.52181474      -0.01357255      -0.02860991       0.00774368      -3.52296972
Cl      20.04377453      51.36427713      35.92894007      -0.01947488       0.08613123       0.04854282      -3.47887754
Cl      53.94398312      50.44488974      24.50408317      -0.09895982       0.05623408      -0.02733934      -3.35641718
Cl      55.54572366       9.74305666      42.09823598       0.03717260      -0.01008467       0.03222314      -3.63277745
Cl      10.58745870      36.49521922       4.12894787      -0.01429205      -0.02857919      -0.05584478      -3.28428864
Cl      49.66789377      18.64961227      -0.04666067      -0.05335155       0.01592753      -0.01417373      -3.44021988
Cl      20.58287722      40.42506005      44.88391471      -0.01260243      -0.01375095      -0.05639575      -3.61602688
Cl      39.58820419      46.01976849      -0.07176218      -0.01457386      -0.02435106       0.01662742      -3.50028610
Cl      11.76337782      19.50983963      36.01802516       0.05450741       0.01124194       0.00219889      -3.37334991
Cl      47.37219719      26.93981531      41.72025731      -0.03441859       0.01195778      -0.00833061      -3.58151793
Cl      11.16262568      15.62383901      20.55872781       0.02023008      -0.01930255       0.02505837      -3.48248577
Cl      17.74415684      28.87244124      22.27673753       0.11851563       0.00571693      -0.10444599      -3.42256451
Cl      47.07025340      25.62674005      48.66899818      -0.05703357      -0.08862045      -0.03390818      -3.53279805
Cl      47.23747021      24.88406757      52.34606316      -0.09134734       0.07484902       0.05401003      -3.52646422
Cl      28.77581670      57.01800363      41.42926185       0.01718850       0.00745003      -0.01914037      -3.48180223
Cl      37.09410835      58.51251114      37.31968891      -0.02885912       0.03539883       0.05829500      -3.51605272
Cl      46.65755505      22.76466671      42.10481961      -0.04244763       0.02267716      -0.01131061      -3.58638453
Cl      41.85714183      33.86660392      31.40207833       0.06337060       0.01942480      -0.01783187      -3.51169491
Cl      51.62257771      47.88065712      36.43281269      -0.02853881      -0.01631975       0.04522176      -3.49153161
Cl      36.12204616      37.28612535      42.51018735      -0.00891836      -0.03503988      -0.03342167      -3.60686278
Cl      23.05306255      47.16686506      40.21572243       0.13574170       0.02915175       0.09229404      -3.58798504
Cl      55.63862964      31.02748246      10.79750985       0.01977780      -0.02714527      -0.00868066      -3.46430254
Cl      17.81420027      14.51591318      16.26158555       0.02087837       0.09749030      -0.02244155      -3.43896341
Cl      46.23471946       4.72172798      45.67002227       0.00286407       0.13601217      -0.01348906      -3.49981236
Cl      28.19165141      49.62385808      41.85971694      -0.04643733      -0.04320049       0.01515903      -3.54388404
Cl      51.13156552      35.58774861      47.00746100      -0.02222105      -0.00531003       0.01987809      -3.45018601
Cl      34.20086359      34.24080002      40.01692742       0.01753859      -0.02373402      -0.08903740      -3.35208726
Cl      23.73721555       2.92872686       3.47924715       0.02174281       0.03677939      -0.01381168      -3.47890687
Cl      51.07613001      44.00869938      14.14762710      -0.03824901      -0.01051049      -0.04234548      -3.56585288
Cl      19.30834333      16.04313237      10.78171675       0.01859032      -0.05842489       0.05442898      -3.57329035
Cl       1.85420509       5.74885357       8.96196151       0.01317421       0.00819255      -0.00844026      -3.50872874
Cl      40.88787171      55.96053394      37.69969840      -0.01814367      -0.03951705      -0.01241814      -3.54481101
Cl      57.16459432      43.17473198      44.97262994      -0.02425548       0.02293012       0.00567991      -3.37198544
Cl       9.84917429      20.51829633      13.79518119       0.03334939      -0.02090068       0.03171687      -3.58070183
Cl      29.01408979      42.51103280       5.45802704       0.00783456      -0.03857077       0.04166567      -3.55600071
Cl      38.52670470      39.05564266      16.03744244      -0.02252775      -0.00571856      -0.05791303      -3.38100338
Cl      57.65648388      22.99263064      30.72910029      -0.03195458       0.08063845       0.05153347      -3.50392842
Cl      42.99522823      24.25387964      19.69128275      -0.02971454      -0.02081917       0.06126478      -3.42129779
Cl      21.82620917      25.42378720      49.66252427      -0.06409016       0.06236516      -0.05088636      -3.47125483
Cl      10.02122423      27.68733448      55.80428989       0.00262846      -0.02204370      -0.02117680      -3.52582812
Cl      45.23670680      45.98611923      56.96054095      -0.03235538      -0.01762673       0.02590996      -3.46063948
Cl      25.43645632      26.98360868      32.82541973      -0.03447232       0.05332959      -0.04881695      -3.45600820
Cl       6.89900124      14.43360698       3.78885516       0.02607336       0.00162093       0.03742620      -3.58036447
Na      34.48669456      23.85287426      33.96527725       0.04212799      -0.01387852      -0.01321466      -3.22208500
Na      52.88992812      54.06737785      57.24436156      -0.00355781       0.00950589      -0.03654443      -3.34633803
Na       6.69829161       2.35205170       9.14000211      -0.05542940      -0.01902420       0.07114460      -3.33262014
Na      42.15193360      53.69416900      51.44516888      -0.02508049       0.01128552       0.01788595      -3.10017204
Na       8.82148884      44.70574080      45.74584021      -0.01845785       0.02570650      -0.00432801      -3.23844600
Na      57.45876210      25.45169382      43.65640879      -0.00441960      -0.01712704       0.05393531      -3.28085351
Na      15.43963339      36.24849412      40.39224922       0.07707598      -0.00757364      -0.00983531      -3.25330257
Na      43.50186311       4.68719454      22.27791829       0.06332767       0.02147936       0.00033711      -3.29521465
Na       6.96501884       8.30837910      30.61498826       0.03619644      -0.00838308      -0.04424325      -3.38134718
Na      19.57906519      28.09458271      29.26887241      -0.01690950      -0.01610843      -0.01674222      -3.18680215
Na      47.44460999      43.00991657      24.84299399       0.03493989      -0.02768189      -0.06609897      -3.12873459
Na      19.07744538       5.35296579       7.84639076       0.08168927      -0.01662155      -0.04156287      -3.30020022
Na      19.72401453      54.00373872      56.94176960       0.00551563      -0.01259202      -0.05055432      -3.31488490
Na       6.12380162      13.21907186      20.80428028      -0.08751805       0.07050475       0.08352400      -3.21136856
Na      42.47934099      36.05647270      47.95762852       0.02766967       0.05416630       0.02082071      -3.42169976
Na      56.17590622      26.22525315      40.22325680       0.00769094      -0.03888607       0.02122389      -3.32639813
Na      52.38951620      20.82140029      49.44546931      -0.00900435      -0.09756933      -0.03202762      -3.39683247
Na      30.10670789       0.89740842      35.72938802      -0.00486599      -0.01641274      -0.00415090      -3.29213738
Na      56.76620695      14.73537319      47.54992064      -0.01033618      -0.02491449      -0.00660261      -3.31325889
Na      51.72618650      17.29259288      42.73161491      -0.00687377      -0.01287906       0.04320223      -3.26384807
Na       2.02960307       8.37035425       6.79872014       0.03871565      -0.08044343       0.06850500      -3.26194334
Na      12.25550973      35.78662447      29.55688530       0.05124352       0.05361633      -0.00266504      -3.22338748
Na      15.74359840      43.15842562      29.08947338       0.03129505      -0.03726031      -0.00955546      -3.49193501
Na       7.95266596      49.90461297      55.37247603      -0.01877066      -0.02924696       0.02321114      -3.32216454
Na      18.19670161      25.58835799      31.42528354       0.02272948       0.01548822      -0.02632089      -3.22944951
Na       9.41120055      19.67957896      31.14359836       0.03185352       0.07004387      -0.01816076      -3.41883206
Na      47.87428278      46.64360720      42.33541427       0.04002873      -0.11179884       0.09603300      -3.17119002
Na      26.26927345      22.00215710      11.71456695       0.00162877       0.02196959      -0.05145431      -3.14315724
Na       1.75956382       7.48373915      15.63055086      -0.06684284       0.07333367       0.01891479      -3.34517884
Na      48.61062813      20.20370213      17.97228959      -0.00488618      -0.06378102      -0.05718099      -3.31457353
Na      55.57339053       3.39881360      19.17250212       0.05104114      -0.02874166      -0.00195774      -3.40151501
Na      55.24371781       9.61492715       3.19554714      -0.03862341      -0.00342070      -0.00034029      -3.36448574
Na      24.98408792      58.39382844       9.43803105       0.01292244      -0.00870494      -0.01743164      -3.29663563
Na      20.72983692       9.75096315      37.64736423      -0.05630991       0.02575864      -0.00059567      -3.26290393
Na      54.93261896       3.77374095      41.71077745       0.04035639      -0.01638929       0.02384689      -3.30690670
Na      58.67848293      26.16656712       3.37195972       0.05375947      -0.06686455       0.06670438      -3.29147339
Na      39.31588019      33.39216332       8.67791790       0.04315433       0.00849068       0.01300730      -3.34686399
Na       4.84183524       6.23523565      57.05603086      -0.06816135       0.00337407       0.03361918      -3.21867442
Na      14.81675384       3.28228938       1.02721741      -0.07088091      -0.03274570      -0.00049797      -3.25728345
Na      17.23503583      32.50827940       9.90847868       0.03964376       0.01182952       0.10226999      -3.16001225
Na      16.51783828      26.71193562      21.42924062       0.02144211      -0.02758985      -0.00455692      -3.20322871
Na      22.78343794      55.59439478      32.33939172      -0.03373379       0.00276896       0.01235615      -3.35298800
Na      55.47418200      29.19511935      42.80780076       0.03976582       0.01542536      -0.02090105      -3.34509587
Na      46.08156881      39.51925844      40.16084242      -0.09501661       0.01425484       0.08071285      -3.20653200
Na      23.15904780      45.56991150       5.80035543      -0.04924899       0.02972993      -0.02838031      -3.36724877
Na      28.91296503      15.68172470      25.71504895       0.00594493       0.02939554      -0.01050990      -3.27483940
Na      22.03056200      57.38387309      55.57950712      -0.00029061       0.00569098      -0.04272597      -3.17203140
Na       1.72294709      33.45855632       4.38853613      -0.03306176      -0.01404673      -0.08139665      -3.19239616
Na       4.79236716       1.44707217      32.33572335      -0.02801354       0.03798372       0.10845614      -3.10434270
Na      11.07841003      42.26893300      20.69759217       0.06993221      -0.03421808      -0.03567162      -3.17827511
Cl       4.11986352       3.61346444      20.02279011       0.03228776      -0.01773697      -0.19538628      -3.39880610
Cl      29.08065653      53.22361540      24.37302158      -0.02696220      -0.07449403       0.07253136      -3.47208023
Cl       0.75645926      50.21242681      49.48800040       0.03392733      -0.01837742      -0.02506940      -3.53671646
Cl      36.00273160      10.96986016      40.21031484      -0.02318886       0.02257342      -0.03148697      -3.31268764
Cl       4.11103712      52.02710109      31.58221506       0.01772742       0.06799283       0.01250514      -3.56859326
Cl      15.04639391      46.13741069      23.38982165       0.06205849       0.01185482      -0.02211137      -3.56248593
Cl       1.29631027      11.22060702       0.90341318      -0.00962081       0.00396760       0.01024459      -3.49645782
Cl      29.15117127      46.18465933      48.15368178      -0.01357195      -0.02861030       0.00774515      -3.52296925
Cl      20.04377461      51.36427686      50.56080707      -0.01947734       0.08612814       0.04854473      -3.47887707
Cl      53.94398330      50.44488988      39.13595013      -0.09895891       0.05623228      -0.02734326      -3.35641694
Cl      55.54572374       9.74305684      56.73010344       0.03717174      -0.01008771       0.03222539      -3.63277793
Cl      10.58745882      36.49521918      18.76081493      -0.01429296      -0.02858057      -0.05584459      -3.28428888
Cl      49.66789359      18.64961169      14.58520823      -0.05335116       0.01592613      -0.01417330      -3.44022036
Cl      20.58287712      40.42505987       0.98831322      -0.01259588      -0.01375313      -0.05639572      -3.61602783
Cl      39.58820427      46.01976847      14.56010589      -0.01457359      -0.02435068       0.01662698      -3.50028682
Cl      11.76337780      19.50983974      50.64989217       0.05450570       0.01124439       0.00220723      -3.37335157
Cl      47.37219757      26.93981556      56.35212514      -0.03441882       0.01196083      -0.00832913      -3.58151722
Cl      11.16262579      15.62383919      35.19059469       0.02022636      -0.01930313       0.02505965      -3.48248601
Cl      17.74415690      28.87244130      36.90860467       0.11851463       0.00571354      -0.10444663      -3.42256451
Cl      47.07025341      25.62674034       4.77339733      -0.05703558      -0.08861822      -0.03390661      -3.53279686
Cl      47.23747005      24.88406761       8.45046205      -0.09134870       0.07484964       0.05400687      -3.52646351
Cl      28.77581660      57.01800357      56.06112972       0.01718759       0.00745015      -0.01914435      -3.48180270
Cl      37.09410837      58.51251126      51.95155551      -0.02885938       0.03539933       0.05829746      -3.51605320
Cl      46.65755509      22.76466686      56.73668691      -0.04244616       0.02267669      -0.01130915      -3.58638167
Cl      41.85714179      33.86660408      46.03394525       0.06337117       0.01942593      -0.01783479      -3.51169348
Cl      51.62257788      47.88065725      51.06467982      -0.02853765      -0.01632009       0.04522508      -3.49153113
Cl      36.12204612      37.28612551      57.14205567      -0.00891767      -0.03503983      -0.03342105      -3.60686302
Cl      23.05306247      47.16686518      54.84758970       0.13573949       0.02915037       0.09228786      -3.58798528
Cl      55.63862952      31.02748232      25.42937670       0.01977899      -0.02714458      -0.00867859      -3.46430230
Cl      17.81420029      14.51591315      30.89345253       0.02087823       0.09749008      -0.02244055      -3.43896437
Cl      46.23471955       4.72172771       1.77442133       0.00286363       0.13601226      -0.01349108      -3.49981332
Cl      28.19165124      49.62385818      56.49158419      -0.04643385      -0.04320106       0.01515888      -3.54388285
Cl      51.13156551      35.58774868       3.11185920      -0.02221951      -0.00530902       0.01987897      -3.45018578
Cl      34.20086368      34.24080034      54.64879404       0.01753885      -0.02373442      -0.08903711      -3.35208845
Cl      23.73721535       2.92872704      18.11111463       0.02174240       0.03677932      -0.01381122      -3.47890687
Cl      51.07613003      44.00869935      28.77949406      -0.03824973      -0.01051089      -0.04234392      -3.56585288
Cl      19.30834338      16.04313251      25.41358382       0.01859069      -0.05842514       0.05442827      -3.57329082
Cl       1.85420508       5.74885350      23.59382855       0.01317394       0.00819255      -0.00843887      -3.50872850
Cl      40.88787161      55.96053414      52.33156536      -0.01814228      -0.03951774      -0.01241206      -3.54481030
Cl      57.16459433      43.17473238       1.07702832      -0.02425080       0.02292952       0.00567720      -3.37198400
Cl       9.84917429      20.51829633      28.42704818       0.03334934      -0.02090048       0.03171807      -3.58070183
Cl      29.01408975      42.51103284      20.08989444       0.00783411      -0.03857234       0.04166295      -3.55599999
Cl      38.52670448      39.05564263      30.66930945      -0.02252647      -0.00571938      -0.05791175      -3.38100338
Cl      57.65648397      22.99263064      45.36096738      -0.03195443       0.08063865       0.05153548      -3.50392699
Cl      42.99522830      24.25387976      34.32314999      -0.02971469      -0.02081835       0.06126031      -3.42129683
Cl      21.82620913      25.42378723       5.76692311      -0.06409047       0.06236489      -0.05088710      -3.47125435
Cl      10.02122433      27.68733428      11.90868836       0.00262847      -0.02204362      -0.02117519      -3.52582741
Cl      45.23670691      45.98611929      13.06493895      -0.03235655      -0.01762679       0.02591072      -3.46063876
Cl      25.43645634      26.98360897      47.45728710      -0.03447055       0.05333006      -0.04881623      -3.45600820
Cl       6.89900122      14.43360693      18.42072278       0.02607367       0.00162129       0.03742505      -3.58036447
Na      34.48669456      23.85287419      48.59714415       0.04212828      -0.01388029      -0.01321378      -3.22208452
Na      52.88992789      54.06737804      13.34875957      -0.00355779       0.00950580      -0.03654334      -3.34633780
Na       6.69829157       2.35205164      23.77186938      -0.05542944      -0.01902441       0.07114302      -3.33262014
Na      42.15193367      53.69416882       7.54956717      -0.02508061       0.01128418       0.01788314      -3.10017204
Na       8.82148863      44.70574099       1.85023843      -0.01845799       0.02570913      -0.00432540      -3.23844528
Na      57.45876245      25.45169382      58.28827691      -0.00441916      -0.01712755       0.05393673      -3.28085303
Na      15.43963325      36.24849432      55.02411679       0.07707524      -0.00757292      -0.00983475      -3.25330210
Na      43.50186285       4.68719461      36.90978530       0.06332575       0.02148091       0.00033427      -3.29521465
Na       6.96501883       8.30837920      45.24685527       0.03619649      -0.00838084      -0.04424553      -3.38134694
Na      19.57906522      28.09458250      43.90073941      -0.01691210      -0.01610274      -0.01673847      -3.18680310
Na      47.44460983      43.00991651      39.47486080       0.03494047      -0.02768260      -0.06609833      -3.12873411
Na      19.07744535       5.35296580      22.47825778       0.08168928      -0.01662168      -0.04156332      -3.30020070
Na      19.72401460      54.00373873      13.04616816       0.00551578      -0.01259147      -0.05055519      -3.31488442
Na       6.12380156      13.21907184      35.43614729      -0.08751838       0.07050361       0.08352410      -3.21136832
Na      42.47934090      36.05647291       4.06202728       0.02767164       0.05416697       0.02082371      -3.42169929
Na      56.17590623      26.22525327      54.85512427       0.00768971      -0.03888485       0.02121175      -3.32639861
Na      52.38951626      20.82140025       5.54986807      -0.00900546      -0.09756986      -0.03202797      -3.39683270
Na      30.10670800       0.89740847      50.36125527      -0.00486572      -0.01640906      -0.00414618      -3.29213762
Na      56.76620695      14.73537310       3.65431925      -0.01033728      -0.02491530      -0.00660498      -3.31325841
Na      51.72618631      17.29259287      57.36348271      -0.00687340      -0.01287776       0.04319898      -3.26384759
Na       2.02960312       8.37035430      21.43058720       0.03871541      -0.08044416       0.06850502      -3.26194334
Na      12.25550974      35.78662453      44.18875255       0.05124502       0.05361542      -0.00266038      -3.22338748
Na      15.74359839      43.15842551      43.72134060       0.03129550      -0.03726077      -0.00955347      -3.49193549
Na       7.95266590      49.90461307      11.47687462      -0.01876939      -0.02924703       0.02320759      -3.32216501
Na      18.19670157      25.58835799      46.05715051       0.02273347       0.01548958      -0.02632712      -3.22944975
Na       9.41120062      19.67957893      45.77546532       0.03185567       0.07004371      -0.01816342      -3.41883230
Na      47.87428271      46.64360725      56.96728126       0.04002951      -0.11179841       0.09603389      -3.17118859
Na      26.26927350      22.00215711      26.34643399       0.00162941       0.02197034      -0.05145340      -3.14315724
Na       1.75956375       7.48373910      30.26241795      -0.06684294       0.07333320       0.01891381      -3.34517884
Na      48.61062824      20.20370220      32.60415660      -0.00488687      -0.06378137      -0.05718095      -3.31457376
Na      55.57339049       3.39881361      33.80436904       0.05104190      -0.02874217      -0.00196145      -3.40151501
Na      55.24371784       9.61492733      17.82741458      -0.03862397      -0.00342095      -0.00034094      -3.36448574
Na      24.98408795      58.39382841      24.06989817       0.01291924      -0.00870539      -0.01743335      -3.29663563
Na      20.72983692       9.75096326      52.27923126      -0.05630950       0.02575818      -0.00059505      -3.26290345
Na      54.93261894       3.77374094      56.34264501       0.04035765      -0.01638835       0.02384793      -3.30690765
Na      58.67848298      26.16656717      18.00382710       0.05376035      -0.06686468       0.06670313      -3.29147339
Na      39.31588021      33.39216344      23.30978494       0.04315470       0.00848940       0.01300452      -3.34686446
Na       4.84183512       6.23523534      13.16042982      -0.06816165       0.00337422       0.03361945      -3.21867466
Na      14.81675369       3.28228982      15.65908454      -0.07088138      -0.03274580      -0.00049831      -3.25728345
Na      17.23503586      32.50827945      24.54034565       0.03964337       0.01182941       0.10226966      -3.16001248
Na      16.51783827      26.71193567      36.06110750       0.02144110      -0.02758651      -0.00455522      -3.20322824
Na      22.78343789      55.59439479      46.97125887      -0.03373443       0.00276910       0.01235637      -3.35298824
Na      55.47418154      29.19511933      57.43966821       0.03976756       0.01542596      -0.02089836      -3.34509516
Na      46.08156897      39.51925843      54.79270970      -0.09501579       0.01425387       0.08071423      -3.20653272
Na      23.15904778      45.56991150      20.43222271      -0.04924935       0.02972953      -0.02837947      -3.36724877
Na      28.91296501      15.68172485      40.34691578       0.00594550       0.02939601      -0.01050968      -3.27483821
Na      22.03056191      57.38387318      11.68390550      -0.00029038       0.00568993      -0.04272671      -3.17203140
Na       1.72294727      33.45855638      19.02040315      -0.03306201      -0.01404684      -0.08139630      -3.19239545
Na       4.79236724       1.44707224      46.96759037      -0.02801399       0.03798201       0.10845476      -3.10434198
Na      11.07840996      42.26893315      35.32945916       0.06993277      -0.03421930      -0.03567795      -3.17827487
Cl       4.11986365       3.61346445      34.65465725       0.03229024      -0.01773879      -0.19538330      -3.39880610
Cl      29.08065655      53.22361546      39.00488856      -0.02696212      -0.07449429       0.07252961      -3.47207928
Cl       0.75645911      50.21242667       5.59239896       0.03392605      -0.01837814      -0.02507293      -3.53671527
Cl      36.00273143      10.96986013      54.84218216      -0.02318874       0.02257363      -0.03148788      -3.31268716
Cl       4.11103709      52.02710097      46.21408203       0.01772717       0.06799167       0.01250687      -3.56859303
Cl      15.04639411      46.13741067      38.02168846       0.06205821       0.01185644      -0.02210321      -3.56248665
Cl       1.29631040      11.22060696      15.53528053      -0.00961951       0.00396720       0.01024570      -3.49645758
Cl      29.15117129      46.18465961       4.25808056      -0.01357242      -0.02861086       0.00774477      -3.52296972
Cl      20.04377457      51.36427685       6.66520606      -0.01947539       0.08613195       0.04854126      -3.47887731
Cl      53.94398357      50.44488985      53.76781729      -0.09895887       0.05623326      -0.02734090      -3.35641837
Cl      55.54572357       9.74305660      12.83450201       0.03717221      -0.01008601       0.03222269      -3.63277793
Cl      10.58745867      36.49521925      33.39268178      -0.01429311      -0.02858044      -0.05584409      -3.28428841
Cl      49.66789359      18.64961164      29.21707531      -0.05335229       0.01592632      -0.01417495      -3.44022036
Cl      20.58287725      40.42505996      15.62018081      -0.01260126      -0.01375175      -0.05639628      -3.61602783
Cl      39.58820417      46.01976846      29.19197287      -0.01457477      -0.02435139       0.01662865      -3.50028682
Cl      11.76337777      19.50983952       6.75429111       0.05450695       0.01124250       0.00219959      -3.37335110
Cl      47.37219738      26.93981525      12.45652348      -0.03441842       0.01196011      -0.00833129      -3.58151770
Cl      11.16262566      15.62383894      49.82246175       0.02022921      -0.01930296       0.02505960      -3.48248601
Cl      17.74415684      28.87244116      51.54047183       0.11851659       0.00571701      -0.10444395      -3.42256498
Cl      47.07025343      25.62674019      19.40526450      -0.05703482      -0.08861940      -0.03390517      -3.53279757
Cl      47.23747009      24.88406758      23.08232905      -0.09134817       0.07484872       0.05400863      -3.52646422
Cl      28.77581667      57.01800361      12.16552806       0.01718757       0.00744959      -0.01914306      -3.48180246
Cl      37.09410831      58.51251123       8.05595445      -0.02885911       0.03539915       0.05829829      -3.51605272
Cl      46.65755497      22.76466675      12.84108554      -0.04244543       0.02267619      -0.01130908      -3.58638215
Cl      41.85714164      33.86660389       2.13834396       0.06337085       0.01942528      -0.01783150      -3.51169515
Cl      51.62257777      47.88065721       7.16907842      -0.02853910      -0.01631963       0.04522061      -3.49153113
Cl      36.12204619      37.28612534      13.24645345      -0.00891668      -0.03503928      -0.03341928      -3.60686350
Cl      23.05306256      47.16686517      10.95198830       0.13574052       0.02914979       0.09229536      -3.58798409
Cl      55.63862961      31.02748254      40.06124404       0.01977954      -0.02714835      -0.00868277      -3.46430230
Cl      17.81420024      14.51591313      45.52531954       0.02087901       0.09748943      -0.02244170      -3.43896341
Cl      46.23471949       4.72172789      16.40628844       0.00286406       0.13601264      -0.01349038      -3.49981260
Cl      28.19165132      49.62385815      12.59598289      -0.04643413      -0.04320216       0.01515994      -3.54388404
Cl      51.13156545      35.58774872      17.74372683      -0.02221952      -0.00530939       0.01987926      -3.45018554
Cl      34.20086360      34.24080001      10.75319305       0.01753842      -0.02373444      -0.08903821      -3.35208797
Cl      23.73721538       2.92872700      32.74298209       0.02174190       0.03677804      -0.01381038      -3.47890687
Cl      51.07613014      44.00869943      43.41136108      -0.03825405      -0.01051876      -0.04234759      -3.56585288
Cl      19.30834329      16.04313256      40.04545102       0.01859040      -0.05842520       0.05442709      -3.57328987
Cl       1.85420513       5.74885353      38.22569575       0.01317308       0.00819249      -0.00844097      -3.50873017
Cl      40.88787162      55.96053399       8.43596436      -0.01814387      -0.03951740      -0.01241578      -3.54481101
Cl      57.16459427      43.17473208      15.70889583      -0.02425527       0.02292972       0.00567969      -3.37198639
Cl       9.84917417      20.51829634      43.05891526       0.03335021      -0.02090028       0.03171699      -3.58070183
Cl      29.01408971      42.51103256      34.72176141       0.00783513      -0.03857031       0.04166671      -3.55599999
Cl      38.52670469      39.05564264      45.30117638      -0.02252828      -0.00571801      -0.05791553      -3.38100123
Cl      57.65648403      22.99263049       1.46536577      -0.03195507       0.08063748       0.05153333      -3.50392771
Cl      42.99522823      24.25387970      48.95501655      -0.02971440      -0.02082018       0.06126290      -3.42129898
Cl      21.82620913      25.42378720      20.39879025      -0.06409046       0.06236468      -0.05088670      -3.47125459
Cl      10.02122421      27.68733430      26.54055542       0.00262961      -0.02204317      -0.02117556      -3.52582717
Cl      45.23670698      45.98611926      27.69680583      -0.03235648      -0.01762697       0.02591035      -3.46063852
Cl      25.43645625      26.98360852       3.56168583      -0.03447156       0.05332971      -0.04881695      -3.45600820
Cl       6.89900120      14.43360710      33.05258955       0.02607399       0.00162050       0.03742663      -3.58036447
Na      34.48669441      23.85287437       4.70154293       0.04212959      -0.01388116      -0.01321009      -3.22208500
Na      52.88992795      54.06737802      27.98062663      -0.00355783       0.00950586      -0.03654500      -3.34633756
Na       6.69829157       2.35205162      38.40373620      -0.05542997      -0.01902406       0.07114547      -3.33261967
Na      42.15193367      53.69416889      22.18143444      -0.02508039       0.01128463       0.01788025      -3.10017204
Na       8.82148896      44.70574085      16.48210613      -0.01846004       0.02570759      -0.00432302      -3.23844552
Na      57.45876256      25.45169397      14.39267515      -0.00441835      -0.01712723       0.05393662      -3.28085351
Na      15.43963331      36.24849412      11.12851525       0.07707654      -0.00757165      -0.00983587      -3.25330329
Na      43.50186313       4.68719459      51.54165226       0.06332764       0.02147962       0.00033554      -3.29521418
Na       6.96501867       8.30837898       1.35125348       0.03619558      -0.00838208      -0.04424478      -3.38134670
Na      19.57906538      28.09458264       0.00513771      -0.01691059      -0.01610720      -0.01673966      -3.18680215
Na      47.44461009      43.00991638      54.10672842       0.03494014      -0.02768306      -0.06609824      -3.12873459
Na      19.07744545       5.35296586      37.11012474       0.08169096      -0.01661828      -0.04156554      -3.30020070
Na      19.72401459      54.00373869      27.67803516       0.00551595      -0.01259098      -0.05055645      -3.31488419
Na       6.12380167      13.21907176      50.06801438      -0.08751733       0.07050467       0.08351992      -3.21136856
Na      42.47934084      36.05647283      18.69389461       0.02767086       0.05416716       0.02082298      -3.42169929
Na      56.17590618      26.22525325      10.95952269       0.00769005      -0.03888612       0.02121842      -3.32639861
Na      52.38951629      20.82140036      20.18173531      -0.00900453      -0.09756928      -0.03202884      -3.39683318
Na      30.10670777       0.89740828       6.46565401      -0.00486604      -0.01641009      -0.00414643      -3.29213715
Na      56.76620694      14.73537314      18.28618653      -0.01033681      -0.02491490      -0.00660349      -3.31325841
Na      51.72618642      17.29259282      13.46788133      -0.00687328      -0.01287798       0.04319741      -3.26384759
Na       2.02960319       8.37035424      36.06245419       0.03871522      -0.08044280       0.06850470      -3.26194406
Na      12.25551005      35.78662419       0.29315046       0.05124127       0.05361408      -0.00266754      -3.22338748
Na      15.74359837      43.15842575      58.35320806       0.03129581      -0.03726009      -0.00955174      -3.49193525
Na       7.95266583      49.90461320      26.10874149      -0.01876920      -0.02924741       0.02320743      -3.32216501
Na      18.19670131      25.58835808       2.16154895       0.02273099       0.01548892      -0.02632146      -3.22944975
Na       9.41120060      19.67957897       1.87986362       0.03185451       0.07004226      -0.01816028      -3.41883230
Na      47.87428256      46.64360728      13.07168019       0.04002967      -0.11179863       0.09603207      -3.17118907
Na      26.26927339      22.00215712      40.97830101       0.00162480       0.02196639      -0.05145914      -3.14315724
Na       1.75956376       7.48373913      44.89428499      -0.06684323       0.07333422       0.01891585      -3.34517956
Na      48.61062832      20.20370220      47.23602359      -0.00488739      -0.06378166      -0.05718037      -3.31457376
Na      55.57339043       3.39881365      48.43623575       0.05104199      -0.02874287      -0.00196140      -3.40151525
Na      55.24371794       9.61492725      32.45928177      -0.03862398      -0.00342133      -0.00033978      -3.36448574
Na      24.98408776      58.39382840      38.70176505       0.01292317      -0.00870363      -0.01742892      -3.29663587
Na      20.72983696       9.75096318       8.38363029      -0.05630971       0.02575864      -0.00059461      -3.26290369
Na      54.93261893       3.77374098      12.44704356       0.04035687      -0.01638922       0.02384539      -3.30690742
Na      58.67848293      26.16656721      32.63569413       0.05375868      -0.06686561       0.06670738      -3.29147291
Na      39.31588031      33.39216329      37.94165184       0.04315337       0.00849037       0.01300874      -3.34686399
Na       4.84183515       6.23523535      27.79229686      -0.06816214       0.00337426       0.03361916      -3.21867442
Na      14.81675363       3.28228983      30.29095161      -0.07088061      -0.03274556      -0.00049808      -3.25728297
Na      17.23503553      32.50827936      39.17221229       0.03964816       0.01183005       0.10227344      -3.16001201
Na      16.51783831      26.71193563      50.69297472       0.02144119      -0.02758890      -0.00455450      -3.20322776
Na      22.78343810      55.59439474       3.07565739      -0.03373466       0.00277013       0.01235849      -3.35298824
Na      55.47418183      29.19511932      13.54406664       0.03976667       0.01542434      -0.02090247      -3.34509540
Na      46.08156880      39.51925852      10.89710847      -0.09501825       0.01425006       0.08071625      -3.20653319
Na      23.15904773      45.56991157      35.06408940      -0.04924872       0.02973051      -0.02838260      -3.36724806
Na      28.91296501      15.68172479      54.97878315       0.00594503       0.02939378      -0.01050588      -3.27483821
Na      22.03056195      57.38387315      26.31577248      -0.00029008       0.00568994      -0.04272811      -3.17203140
Na       1.72294716      33.45855639      33.65226992      -0.03306213      -0.01404743      -0.08140007      -3.19239616
Na       4.79236690       1.44707187       3.07198936      -0.02801281       0.03798272       0.10845684      -3.10434198
Na      11.07841005      42.26893281      49.96132654       0.06993230      -0.03421846      -0.03567691      -3.17827511
Cl       4.11986352       3.61346440      49.28652417       0.03228761      -0.01773715      -0.19538678      -3.39880538
Cl      29.08065669      53.22361540      53.63675565      -0.02696205      -0.07449393       0.07252973      -3.47207904
Cl       0.75645918      50.21242674      20.22426621       0.03392757      -0.01837741      -0.02507244      -3.53671527
Cl      36.00273162      10.96986016      10.94658086      -0.02318812       0.02257375      -0.03148710      -3.31268716
Cl       4.11103697      52.02710110       2.31848112       0.01772730       0.06799215       0.01250460      -3.56859374
Cl      15.04639396      46.13741069      52.65355570       0.06205847       0.01185512      -0.02211235      -3.56248641
Cl       1.29631047      11.22060693      30.16714739      -0.00961992       0.00396710       0.01024637      -3.49645829
Cl      29.15117141      46.18465936      18.88994777      -0.01357071      -0.02860917       0.00774440      -3.52296925
Cl      20.04377451      51.36427692      21.29707305      -0.01947540       0.08613200       0.04854076      -3.47887731
Cl      53.94398309      50.44488980       9.87221616      -0.09895881       0.05623396      -0.02733821      -3.35641694
Cl      55.54572349       9.74305663      27.46636899       0.03717208      -0.01008674       0.03222270      -3.63277864
Cl      10.58745878      36.49521924      48.02454880      -0.01429427      -0.02858079      -0.05584249      -3.28428864
Cl      49.66789338      18.64961173      43.84894222      -0.05335090       0.01592746      -0.01417476      -3.44021869
Cl      20.58287713      40.42505996      30.25204780      -0.01259576      -0.01375210      -0.05639708      -3.61602902
Cl      39.58820416      46.01976859      43.82384019      -0.01457399      -0.02435037       0.01662659      -3.50028586
Cl      11.76337780      19.50983967      21.38615822       0.05450581       0.01124315       0.00220156      -3.37335110
Cl      47.37219730      26.93981524      27.08839060      -0.03441775       0.01195963      -0.00832963      -3.58151793
Cl      11.16262565      15.62383909       5.92686055       0.02023010      -0.01930243       0.02505845      -3.48248625
Cl      17.74415682      28.87244127       7.64487046       0.11851707       0.00571733      -0.10444599      -3.42256474
Cl      47.07025333      25.62674005      34.03713142      -0.05702624      -0.08862472      -0.03391723      -3.53279686
Cl      47.23746993      24.88406761      37.71419625      -0.09134740       0.07484870       0.05401130      -3.52646399
Cl      28.77581664      57.01800363      26.79739503       0.01718761       0.00744837      -0.01914307      -3.48180270
Cl      37.09410841      58.51251122      22.68782169      -0.02885961       0.03539926       0.05829714      -3.51605153
Cl      46.65755490      22.76466675      27.47295244      -0.04244662       0.02267694      -0.01130837      -3.58638334
Cl      41.85714179      33.86660406      16.77021125       0.06337067       0.01942584      -0.01783245      -3.51169467
Cl      51.62257774      47.88065698      21.80094561      -0.02853857      -0.01631977       0.04522162      -3.49153042
Cl      36.12204621      37.28612544      27.87832045      -0.00891717      -0.03503909      -0.03341920      -3.60686445
Cl      23.05306255      47.16686515      25.58385500       0.13574126       0.02914999       0.09229770      -3.58798456
Cl      55.63862955      31.02748253      54.69311108       0.01977853      -0.02714540      -0.00868095      -3.46430349
Cl      17.81420023      14.51591297       1.62971794       0.02087838       0.09748960      -0.02244272      -3.43896246
Cl      46.23471954       4.72172790      31.03815527       0.00286359       0.13601221      -0.01348899      -3.49981260
Cl      28.19165116      49.62385810      27.22784980      -0.04643317      -0.04320084       0.01515901      -3.54388380
Cl      51.13156508      35.58774881      32.37559380      -0.02222083      -0.00530857       0.01987594      -3.45018554
Cl      34.20086346      34.24080009      25.38506012       0.01753815      -0.02373427      -0.08903643      -3.35208821
Cl      23.73721541       2.92872711      47.37484870       0.02174253       0.03677736      -0.01380563      -3.47890639
Cl      51.07613020      44.00869960      58.04322882      -0.03825519      -0.01052092      -0.04234468      -3.56585240
Cl      19.30834314      16.04313275      54.67731771       0.01859025      -0.05842648       0.05442653      -3.57329035
Cl       1.85420502       5.74885363      52.85756274       0.01317317       0.00819214      -0.00844062      -3.50872874
Cl      40.88787160      55.96053404      23.06783151      -0.01814240      -0.03951797      -0.01241353      -3.54481030
Cl      57.16459429      43.17473206      30.34076275      -0.02425503       0.02292987       0.00567818      -3.37198663
Cl       9.84917424      20.51829630      57.69078289       0.03335039      -0.02090054       0.03171457      -3.58069944
Cl      29.01408963      42.51103255      49.35362809       0.00783494      -0.03856914       0.04167015      -3.55600095
Cl      38.52670455      39.05564272       1.40557500      -0.02252658      -0.00571878      -0.05791083      -3.38100290
Cl      57.65648390      22.99263063      16.09723337      -0.03195466       0.08063808       0.05153441      -3.50392699
Cl      42.99522823      24.25387982       5.05941565      -0.02971396      -0.02081864       0.06126350      -3.42129803
Cl      21.82620910      25.42378717      35.03065723      -0.06408962       0.06236535      -0.05088767      -3.47125506
Cl      10.02122428      27.68733424      41.17242242       0.00262794      -0.02204464      -0.02117831      -3.52582693
Cl      45.23670695      45.98611931      42.32867287      -0.03235674      -0.01762656       0.02590992      -3.46063924
Cl      25.43645631      26.98360897      18.19355316      -0.03447169       0.05332856      -0.04882201      -3.45600867
Cl       6.89900124      14.43360701      47.68445653       0.02607297       0.00161996       0.03742973      -3.58036351
Na      34.48669450      38.48474155      19.33341000       0.04212909      -0.01388064      -0.01321316      -3.22208548
Na      52.88992785      10.17177725      42.61249354      -0.00355838       0.00950664      -0.03654536      -3.34633827
Na       6.69829161      16.98391896      53.03560344      -0.05542901      -0.01902433       0.07114723      -3.33262014
Na      42.15193406       9.79856746      36.81330138      -0.02508587       0.01128740       0.01788414      -3.10017157
Na       8.82148867       0.81013952      31.11397334      -0.01845753       0.02570964      -0.00432608      -3.23844528
Na      57.45876232      40.08356084      29.02454194      -0.00441730      -0.01712739       0.05393717      -3.28085232
Na      15.43963341      50.88036115      25.76038236       0.07707592      -0.00757186      -0.00983521      -3.25330281
Na      43.50186301      19.31906206       7.64605141       0.06332690       0.02148080       0.00033584      -3.29521465
Na       6.96501874      22.94024610      15.98312129       0.03619547      -0.00838416      -0.04424335      -3.38134694
Na      19.57906518      42.72644959      14.63700536      -0.01691034      -0.01610029      -0.01674049      -3.18680191
Na      47.44460975      57.64178499      10.21112732       0.03494132      -0.02767880      -0.06609727      -3.12873483
Na      19.07744559      19.98483301      51.74199179       0.08168828      -0.01662185      -0.04156392      -3.30020070
Na      19.72401473      10.10813738      42.30990223       0.00551568      -0.01259082      -0.05055388      -3.31488466
Na       6.12380174      27.85093892       6.17241325      -0.08751807       0.07050419       0.08352233      -3.21136832
Na      42.47934098      50.68833972      33.32576138       0.02767285       0.05416713       0.02082476      -3.42169929
Na      56.17590619      40.85712023      25.59138971       0.00768976      -0.03888390       0.02121340      -3.32639790
Na      52.38951625      35.45326735      34.81360243      -0.00900263      -0.09756812      -0.03202794      -3.39683318
Na      30.10670812      15.52927635      21.09752070      -0.00486485      -0.01640970      -0.00414507      -3.29213834
Na      56.76620688      29.36724024      32.91805358      -0.01033647      -0.02491491      -0.00660334      -3.31325841
Na      51.72618645      31.92445955      28.09974843      -0.00687210      -0.01287443       0.04319477      -3.26384807
Na       2.02960319      23.00222115      50.69432122       0.03871535      -0.08044520       0.06850439      -3.26194286
Na      12.25550975      50.41849120      14.92501842       0.05124632       0.05362079      -0.00266551      -3.22338676
Na      15.74359816      57.79029340      14.45760661       0.03129514      -0.03726342      -0.00955441      -3.49193525
Na       7.95266593       6.00901207      40.74060895      -0.01876844      -0.02924672       0.02320738      -3.32216477
Na      18.19670165      40.22022491      16.79341651       0.02273326       0.01548683      -0.02632438      -3.22944927
Na       9.41120058      34.31144594      16.51173124       0.03185448       0.07004323      -0.01816095      -3.41883230
Na      47.87428260       2.74800612      27.70354700       0.04003030      -0.11179478       0.09603377      -3.17118907
Na      26.26927334      36.63402393      55.61016858       0.00163048       0.02196442      -0.05145464      -3.14315748
Na       1.75956378      22.11560597       0.99868391      -0.06684372       0.07333220       0.01891425      -3.34517956
Na      48.61062828      34.83556923       3.34042273      -0.00488501      -0.06377710      -0.05718201      -3.31457376
Na      55.57339049      18.03068112       4.54063480       0.05104111      -0.02874132      -0.00195652      -3.40151525
Na      55.24371784      24.24679431      47.09114866      -0.03862365      -0.00342029      -0.00034165      -3.36448503
Na      24.98408800      14.49822689      53.33363228       0.01291973      -0.00870658      -0.01743424      -3.29663539
Na      20.72983699      24.38283022      23.01549735      -0.05631002       0.02575926      -0.00059364      -3.26290393
Na      54.93261902      18.40560836      27.07891043       0.04035870      -0.01639122       0.02384338      -3.30690742
Na      58.67848288      40.79843438      47.26756111       0.05376084      -0.06686711       0.06670240      -3.29147267
Na      39.31588027      48.02403025      52.57351928       0.04315546       0.00849013       0.01300251      -3.34686327
Na       4.84183514      20.86710268      42.42416359      -0.06816168       0.00337178       0.03361943      -3.21867466
Na      14.81675365      17.91415705      44.92281885      -0.07088130      -0.03274658      -0.00049729      -3.25728416
Na      17.23503577      47.14014596      53.80407942       0.03964376       0.01182936       0.10226958      -3.16001153
Na      16.51783830      41.34380278       6.79737334       0.02144160      -0.02759623      -0.00455804      -3.20322728
Na      22.78343753      11.69879347      17.70752488      -0.03373449       0.00276991       0.01235773      -3.35298777
Na      55.47418185      43.82698647      28.17593380       0.03976711       0.01542162      -0.02090368      -3.34509492
Na      46.08156896      54.15112595      25.52897535      -0.09501740       0.01425104       0.08071591      -3.20653200
Na      23.15904784       1.67430953      49.69595705      -0.04924870       0.02973409      -0.02838184      -3.36724830
Na      28.91296512      30.31359176      11.08318175       0.00594455       0.02939560      -0.01050806      -3.27483845
Na      22.03056169      13.48827245      40.94763905      -0.00029051       0.00568809      -0.04272781      -3.17203188
Na       1.72294732      48.09042341      48.28413711      -0.03306243      -0.01405031      -0.08139995      -3.19239664
Na       4.79236769      16.07893969      17.70385695      -0.02801430       0.03798243       0.10845555      -3.10434318
Na      11.07841063      56.90080115       6.06572511       0.06993228      -0.03422913      -0.03567298      -3.17827511
Cl       4.11986350      18.24533136       5.39092307       0.03228863      -0.01773746      -0.19538502      -3.39880610
Cl      29.08065666       9.32801410       9.74115455      -0.02696176      -0.07449683       0.07253225      -3.47207975
Cl       0.75645909       6.31682570      34.85613300       0.03392540      -0.01838242      -0.02507331      -3.53671575
Cl      36.00273173      25.60172726      25.57844794      -0.02318892       0.02257487      -0.03148595      -3.31268597
Cl       4.11103715       8.13149995      16.95034812       0.01772595       0.06798742       0.01250501      -3.56859303
Cl      15.04639356       2.24180926       8.75795437       0.06205988       0.01185432      -0.02211209      -3.56248498
Cl       1.29631055      25.85247389      44.79901463      -0.00962017       0.00396685       0.01024757      -3.49645710
Cl      29.15117157       2.28905853      33.52181480      -0.01357443      -0.02861581       0.00774283      -3.52296901
Cl      20.04377466       7.46867594      35.92894037      -0.01947729       0.08612943       0.04854411      -3.47887659
Cl      53.94398299       6.54928834      24.50408307      -0.09895225       0.05623888      -0.02733760      -3.35641861
Cl      55.54572368      24.37492357      42.09823607       0.03717368      -0.01008381       0.03222225      -3.63277745
Cl      10.58745869      51.12708621       4.12894783      -0.01429253      -0.02857958      -0.05584536      -3.28428912
Cl      49.66789374      33.28147936      -0.04666072      -0.05335112       0.01592857      -0.01417246      -3.44022012
Cl      20.58287726      55.05692705      44.88391462      -0.01260407      -0.01374975      -0.05639552      -3.61602640
Cl      39.58820395       2.12416724      -0.07176215      -0.01457222      -0.02435564       0.01662780      -3.50028515
Cl      11.76337799      34.14170655      36.01802517       0.05450737       0.01124179       0.00220188      -3.37335110
Cl      47.37219721      41.57168258      41.72025741      -0.03441857       0.01195988      -0.00833125      -3.58151770
Cl      11.16262569      30.25570600      20.55872773       0.02023028      -0.01930448       0.02505813      -3.48248672
Cl      17.74415669      43.50430808      22.27673743       0.11851957       0.00572091      -0.10444438      -3.42256546
Cl      47.07025339      40.25860689      48.66899830      -0.05703474      -0.08861836      -0.03390796      -3.53279805
Cl      47.23747025      39.51593434      52.34606315      -0.09134761       0.07485092       0.05401077      -3.52646351
Cl      28.77581664      13.12240187      41.42926207       0.01719051       0.00745000      -0.01913949      -3.48180294
Cl      37.09410818      14.61690922      37.31968891      -0.02885924       0.03540169       0.05829549      -3.51605320
Cl      46.65755495      37.39653351      42.10481960      -0.04244613       0.02267774      -0.01130983      -3.58638382
Cl      41.85714176      48.49847097      31.40207836       0.06337024       0.01942454      -0.01783145      -3.51169538
Cl      51.62257785       3.98505578      36.43281274      -0.02853829      -0.01631927       0.04522057      -3.49152851
Cl      36.12204609      51.91799247      42.51018754      -0.00891802      -0.03503897      -0.03342255      -3.60686326
Cl      23.05306265       3.27126422      40.21572223       0.13574119       0.02915197       0.09229492      -3.58798409
Cl      55.63862946      45.65934919      10.79750992       0.01977807      -0.02714146      -0.00867800      -3.46430230
Cl      17.81420024      29.14778003      16.26158539       0.02087865       0.09749153      -0.02243908      -3.43896341
Cl      46.23471943      19.35359514      45.67002220       0.00286360       0.13601223      -0.01348821      -3.49981213
Cl      28.19165141       5.72825699      41.85971698      -0.04643536      -0.04319775       0.01515720      -3.54388428
Cl      51.13156538      50.21961567      47.00746101      -0.02221886      -0.00530851       0.01987754      -3.45018673
Cl      34.20086357      48.87266720      40.01692747       0.01753922      -0.02373401      -0.08903815      -3.35208893
Cl      23.73721579      17.56059406       3.47924714       0.02174251       0.03677886      -0.01381137      -3.47890687
Cl      51.07613002      58.64056751      14.14762694      -0.03825143      -0.01051733      -0.04234549      -3.56585383
Cl      19.30834347      30.67499948      10.78171663       0.01859093      -0.05842363       0.05443012      -3.57329035
Cl       1.85420507      20.38072058       8.96196153       0.01317483       0.00819327      -0.00844008      -3.50872874
Cl      40.88787157      12.06493243      37.69969863      -0.01814285      -0.03951812      -0.01241741      -3.54481173
Cl      57.16459421      57.80659952      44.97262991      -0.02425554       0.02293114       0.00567983      -3.37198544
Cl       9.84917429      35.15016350      13.79518113       0.03334863      -0.02089731       0.03171805      -3.58070111
Cl      29.01408999      57.14290023       5.45802677       0.00783481      -0.03856878       0.04166503      -3.55600095
Cl      38.52670463      53.68750972      16.03744242      -0.02252751      -0.00572439      -0.05791330      -3.38100266
Cl      57.65648399      37.62449776      30.72910028      -0.03195420       0.08063983       0.05153331      -3.50392842
Cl      42.99522835      38.88574666      19.69128284      -0.02971472      -0.02081752       0.06126396      -3.42129636
Cl      21.82620903      40.05565439      49.66252436      -0.06408759       0.06237495      -0.05088502      -3.47125435
Cl      10.02122425      42.31920153      55.80428982       0.00262833      -0.02204685      -0.02117604      -3.52582860
Cl      45.23670667       2.09051782      56.96054109      -0.03235690      -0.01762776       0.02591296      -3.46063924
Cl      25.43645631      41.61547590      32.82541993      -0.03447265       0.05333089      -0.04881739      -3.45600820
Cl       6.89900120      29.06547393       3.78885522       0.02607349       0.00162212       0.03742564      -3.58036423
Na      34.48669468      38.48474146      33.96527711       0.04212948      -0.01387932      -0.01321597      -3.22208524
Na      52.88992811      10.17177703      57.24436166      -0.00355856       0.00950655      -0.03654466      -3.34633803
Na       6.69829161      16.98391906       9.14000194      -0.05542947      -0.01902555       0.07114410      -3.33262014
Na      42.15193388       9.79856769      51.44516902      -0.02508416       0.01128899       0.01788751      -3.10017133
Na       8.82148873       0.81013969      45.74584021      -0.01845723       0.02570762      -0.00432895      -3.23844624
Na      57.45876216      40.08356086      43.65640880      -0.00441895      -0.01712663       0.05393565      -3.28085375
Na      15.43963338      50.88036116      40.39224915       0.07707655      -0.00757047      -0.00983522      -3.25330234
Na      43.50186318      19.31906204      22.27791847       0.06332791       0.02147922       0.00033762      -3.29521465
Na       6.96501881      22.94024602      30.61498835       0.03619577      -0.00838434      -0.04424348      -3.38134718
Na      19.57906519      42.72644960      29.26887237      -0.01690974      -0.01609934      -0.01674242      -3.18680167
Na      47.44460982      57.64178494      24.84299440       0.03494193      -0.02767751      -0.06609990      -3.12873483
Na      19.07744546      19.98483283       7.84639078       0.08168800      -0.01662311      -0.04156241      -3.30020022
Na      19.72401453      10.10813766      56.94176960       0.00551595      -0.01259299      -0.05055388      -3.31488442
Na       6.12380165      27.85093885      20.80428032      -0.08751781       0.07050397       0.08352201      -3.21136856
Na      42.47934078      50.68833975      47.95762832       0.02766985       0.05416672       0.02082059      -3.42169905
Na      56.17590624      40.85712018      40.22325668       0.00769199      -0.03888443       0.02122380      -3.32639813
Na      52.38951617      35.45326736      49.44546937      -0.00900296      -0.09756805      -0.03202847      -3.39683247
Na      30.10670819      15.52927645      35.72938785      -0.00486535      -0.01641493      -0.00415135      -3.29213762
Na      56.76620692      29.36724029      47.54992068      -0.01033613      -0.02491501      -0.00660299      -3.31325865
Na      51.72618647      31.92445963      42.73161520      -0.00687105      -0.01287549       0.04319140      -3.26384878
Na       2.02960314      23.00222121       6.79872021       0.03871477      -0.08044510       0.06850439      -3.26194334
Na      12.25550987      50.41849124      29.55688531       0.05124522       0.05362038      -0.00266364      -3.22338676
Na      15.74359814      57.79029336      29.08947364       0.03129449      -0.03726338      -0.00955477      -3.49193478
Na       7.95266611       6.00901188      55.37247620      -0.01877244      -0.02924670       0.02321151      -3.32216454
Na      18.19670171      40.22022489      31.42528356       0.02272925       0.01548606      -0.02631874      -3.22944903
Na       9.41120049      34.31144584      31.14359842       0.03185448       0.07004295      -0.01815973      -3.41883278
Na      47.87428262       2.74800607      42.33541397       0.04002969      -0.11179715       0.09603029      -3.17118907
Na      26.26927349      36.63402371      11.71456678       0.00162832       0.02196459      -0.05145805      -3.14315772
Na       1.75956376      22.11560612      15.63055086      -0.06684355       0.07333329       0.01891446      -3.34518003
Na      48.61062836      34.83556912      17.97228959      -0.00488447      -0.06377663      -0.05718202      -3.31457353
Na      55.57339041      18.03068115      19.17250203       0.05104145      -0.02874196      -0.00195794      -3.40151501
Na      55.24371796      24.24679433       3.19554707      -0.03862334      -0.00342041      -0.00034065      -3.36448503
Na      24.98408803      14.49822685       9.43803094       0.01292011      -0.00870534      -0.01743331      -3.29663587
Na      20.72983692      24.38283014      37.64736424      -0.05630973       0.02575906      -0.00059453      -3.26290369
Na      54.93261900      18.40560836      41.71077729       0.04035711      -0.01639160       0.02384671      -3.30690718
Na      58.67848283      40.79843426       3.37195976       0.05375978      -0.06686772       0.06670466      -3.29147267
Na      39.31588028      48.02403015       8.67791776       0.04315456       0.00849022       0.01300729      -3.34686375
Na       4.84183518      20.86710290      57.05603081      -0.06816153       0.00337263       0.03361913      -3.21867442
Na      14.81675382      17.91415650       1.02721764      -0.07088089      -0.03274571      -0.00049777      -3.25728416
Na      17.23503579      47.14014613       9.90847857       0.03964280       0.01182905       0.10226975      -3.16001201
Na      16.51783836      41.34380286      21.42924067       0.02144180      -0.02759679      -0.00456024      -3.20322800
Na      22.78343749      11.69879341      32.33939167      -0.03373383       0.00277035       0.01235959      -3.35298777
Na      55.47418179      43.82698648      42.80780068       0.03976841       0.01542229      -0.02090225      -3.34509587
Na      46.08156897      54.15112602      40.16084219      -0.09501797       0.01425146       0.08071353      -3.20653200
Na      23.15904789       1.67430964       5.80035559      -0.04924940       0.02973304      -0.02837994      -3.36724925
Na      28.91296504      30.31359173      25.71504881       0.00594436       0.02939632      -0.01050983      -3.27483845
Na      22.03056174      13.48827232      55.57950662      -0.00029097       0.00568780      -0.04272754      -3.17203259
Na       1.72294721      48.09042346       4.38853616      -0.03306126      -0.01404389      -0.08139751      -3.19239569
Na       4.79236760      16.07893954      32.33572397      -0.02801430       0.03798390       0.10845584      -3.10434341
Na      11.07841059      56.90080106      20.69759232       0.06993268      -0.03422860      -0.03567045      -3.17827511
Cl       4.11986352      18.24533130      20.02279000       0.03228791      -0.01773724      -0.19538638      -3.39880610
Cl      29.08065658       9.32801415      24.37302145      -0.02696209      -0.07449648       0.07253210      -3.47208047
Cl       0.75645904       6.31682571      49.48800038       0.03392665      -0.01838250      -0.02507188      -3.53671670
Cl      36.00273156      25.60172716      40.21031486      -0.02318757       0.02257537      -0.03148802      -3.31268740
Cl       4.11103715       8.13149999      31.58221518       0.01772711       0.06798849       0.01250541      -3.56859374
Cl      15.04639365       2.24180923      23.38982159       0.06206042       0.01185514      -0.02211387      -3.56248474
Cl       1.29631024      25.85247398       0.90341313      -0.00962047       0.00396666       0.01024549      -3.49645782
Cl      29.15117171       2.28905848      48.15368177      -0.01357827      -0.02861947       0.00774440      -3.52296925
Cl      20.04377463       7.46867576      50.56080742      -0.01947653       0.08613155       0.04854374      -3.47887707
Cl      53.94398305       6.54928837      39.13594980      -0.09894898       0.05623992      -0.02733171      -3.35641646
Cl      55.54572369      24.37492386      56.73010352       0.03717247      -0.01008431       0.03222628      -3.63277769
Cl      10.58745880      51.12708611      18.76081492      -0.01429310      -0.02858065      -0.05584522      -3.28428960
Cl      49.66789341      33.28147897      14.58520814      -0.05335021       0.01592737      -0.01417190      -3.44021988
Cl      20.58287715      55.05692678       0.98831320      -0.01259953      -0.01374956      -0.05639778      -3.61602712
Cl      39.58820412       2.12416698      14.56010590      -0.01457317      -0.02435527       0.01662835      -3.50028586
Cl      11.76337785      34.14170673      50.64989240       0.05450506       0.01124179       0.00220614      -3.37335134
Cl      47.37219760      41.57168264      56.35212510      -0.03441811       0.01196109      -0.00832952      -3.58151674
Cl      11.16262580      30.25570637      35.19059463       0.02022647      -0.01930521       0.02506086      -3.48248696
Cl      17.74415682      43.50430814      36.90860463       0.11851988       0.00572059      -0.10444404      -3.42256546
Cl      47.07025346      40.25860716       4.77339739      -0.05703429      -0.08861803      -0.03390925      -3.53279686
Cl      47.23747006      39.51593432       8.45046219      -0.09134729       0.07485196       0.05400681      -3.52646327
Cl      28.77581664      13.12240191      56.06112982       0.01718878       0.00745081      -0.01914333      -3.48180318
Cl      37.09410820      14.61690937      51.95155547      -0.02885937       0.03540209       0.05829765      -3.51605320
Cl      46.65755510      37.39653374      56.73668694      -0.04244550       0.02267691      -0.01130875      -3.58638167
Cl      41.85714181      48.49847094      46.03394535       0.06337129       0.01942596      -0.01783393      -3.51169443
Cl      51.62257790       3.98505581      51.06467991      -0.02853657      -0.01631872       0.04522406      -3.49152923
Cl      36.12204593      51.91799315      57.14205567      -0.00891759      -0.03503957      -0.03342026      -3.60686278
Cl      23.05306252       3.27126422      54.84758974       0.13573885       0.02915006       0.09228836      -3.58798456
Cl      55.63862949      45.65934903      25.42937671       0.01977827      -0.02714069      -0.00867676      -3.46430230
Cl      17.81420030      29.14778005      30.89345237       0.02087847       0.09749255      -0.02243757      -3.43896341
Cl      46.23471949      19.35359503       1.77442126       0.00286228       0.13601121      -0.01349059      -3.49981260
Cl      28.19165110       5.72825722      56.49158420      -0.04643300      -0.04319808       0.01515774      -3.54388285
Cl      51.13156536      50.21961570       3.11185925      -0.02221809      -0.00530817       0.01987798      -3.45018578
Cl      34.20086356      48.87266742      54.64879400       0.01753994      -0.02373983      -0.08903934      -3.35208941
Cl      23.73721563      17.56059436      18.11111468       0.02174269       0.03677962      -0.01381151      -3.47890735
Cl      51.07613012      58.64056760      28.77949385      -0.03825178      -0.01051768      -0.04234418      -3.56585407
Cl      19.30834344      30.67499946      25.41358367       0.01859140      -0.05842357       0.05442935      -3.57329035
Cl       1.85420518      20.38072053      23.59382859       0.01317414       0.00819301      -0.00843868      -3.50872874
Cl      40.88787152      12.06493265      52.33156540      -0.01814119      -0.03952023      -0.01241129      -3.54481030
Cl      57.16459409      57.80659977       1.07702825      -0.02425401       0.02293002       0.00567808      -3.37198544
Cl       9.84917435      35.15016353      28.42704812       0.03334858      -0.02089712       0.03171847      -3.58070111
Cl      29.01408986      57.14290041      20.08989414       0.00783664      -0.03857040       0.04166668      -3.55600119
Cl      38.52670439      53.68750972      30.66930927      -0.02252768      -0.00572516      -0.05791285      -3.38100290
Cl      57.65648407      37.62449760      45.36096743      -0.03195312       0.08064108       0.05153561      -3.50392723
Cl      42.99522827      38.88574672      34.32314998      -0.02971290      -0.02081630       0.06125971      -3.42129636
Cl      21.82620907      40.05565435       5.76692309      -0.06409018       0.06237407      -0.05088591      -3.47125340
Cl      10.02122431      42.31920136      11.90868836       0.00262916      -0.02204619      -0.02117446      -3.52582765
Cl      45.23670677       2.09051797      13.06493902      -0.03235639      -0.01762728       0.02591409      -3.46063924
Cl      25.43645637      41.61547600      47.45728706      -0.03447152       0.05333177      -0.04881535      -3.45600867
Cl       6.89900123      29.06547397      18.42072272       0.02607398       0.00162264       0.03742572      -3.58036423
Na      34.48669448      38.48474151      48.59714404       0.04212836      -0.01387992      -0.01321565      -3.22208548
Na      52.88992782      10.17177717      13.34875967      -0.00355882       0.00950702      -0.03654374      -3.34633803
Na       6.69829151      16.98391911      23.77186906      -0.05542919      -0.01902547       0.07114264      -3.33261991
Na      42.15193396       9.79856750       7.54956726      -0.02508413       0.01128773       0.01788338      -3.10017204
Na       8.82148848       0.81013985       1.85023856      -0.01845774       0.02570893      -0.00432561      -3.23844552
Na      57.45876246      40.08356078      58.28827689      -0.00441916      -0.01712697       0.05393637      -3.28085303
Na      15.43963327      50.88036129      55.02411677       0.07707578      -0.00757152      -0.00983444      -3.25330257
Na      43.50186286      19.31906198      36.90978531       0.06332465       0.02148177       0.00033411      -3.29521441
Na       6.96501869      22.94024618      45.24685542       0.03619723      -0.00838124      -0.04424601      -3.38134694
Na      19.57906524      42.72644958      43.90073940      -0.01691138      -0.01610073      -0.01673780      -3.18680263
Na      47.44460975      57.64178502      39.47486126       0.03494065      -0.02767853      -0.06610068      -3.12873459
Na      19.07744545      19.98483287      22.47825783       0.08168806      -0.01662252      -0.04156333      -3.30020022
Na      19.72401468      10.10813748      13.04616819       0.00551436      -0.01259033      -0.05055558      -3.31488442
Na       6.12380164      27.85093891      35.43614727      -0.08751902       0.07050394       0.08352476      -3.21136761
Na      42.47934104      50.68833979       4.06202715       0.02767175       0.05416724       0.02082380      -3.42169881
Na      56.17590622      40.85712024      54.85512407       0.00769018      -0.03888380       0.02121235      -3.32639837
Na      52.38951621      35.45326737       5.54986821      -0.00900461      -0.09756868      -0.03202879      -3.39683270
Na      30.10670822      15.52927654      50.36125518      -0.00486530      -0.01641217      -0.00414699      -3.29213786
Na      56.76620692      29.36724011       3.65431925      -0.01033702      -0.02491570      -0.00660538      -3.31325865
Na      51.72618621      31.92445984      57.36348273      -0.00687244      -0.01287611       0.04319791      -3.26384807
Na       2.02960324      23.00222128      21.43058724       0.03871477      -0.08044548       0.06850443      -3.26194334
Na      12.25550990      50.41849124      44.18875247       0.05124609       0.05361958      -0.00265837      -3.22338724
Na      15.74359815      57.79029334      43.72134079       0.03129407      -0.03726376      -0.00955493      -3.49193525
Na       7.95266607       6.00901209      11.47687476      -0.01877065      -0.02924741       0.02320858      -3.32216525
Na      18.19670170      40.22022493      46.05715050       0.02273544       0.01548698      -0.02632484      -3.22944975
Na       9.41120064      34.31144585      45.77546525       0.03185581       0.07004417      -0.01816208      -3.41883230
Na      47.87428258       2.74800606      56.96728114       0.04002941      -0.11179563       0.09603408      -3.17118907
Na      26.26927349      36.63402377      26.34643382       0.00163006       0.02196645      -0.05145609      -3.14315724
Na       1.75956372      22.11560607      30.26241791      -0.06684300       0.07333225       0.01891362      -3.34517956
Na      48.61062840      34.83556913      32.60415655      -0.00488468      -0.06377624      -0.05718197      -3.31457353
Na      55.57339037      18.03068112      33.80436900       0.05104231      -0.02874263      -0.00196123      -3.40151525
Na      55.24371795      24.24679438      17.82741454      -0.03862356      -0.00341971      -0.00034140      -3.36448574
Na      24.98408808      14.49822692      24.06989812       0.01291957      -0.00870538      -0.01743411      -3.29663587
Na      20.72983695      24.38283023      52.27923132      -0.05630984       0.02575861      -0.00059480      -3.26290345
Na      54.93261898      18.40560840      56.34264494       0.04035679      -0.01638929       0.02384900      -3.30690742
Na      58.67848294      40.79843421      18.00382693       0.05375980      -0.06686737       0.06670693      -3.29147291
Na      39.31588034      48.02403036      23.30978486       0.04315439       0.00849000       0.01300849      -3.34686399
Na       4.84183511      20.86710271      13.16042988      -0.06816265       0.00337229       0.03361917      -3.21867490
Na      14.81675366      17.91415710      15.65908487      -0.07088150      -0.03274757      -0.00049881      -3.25728345
Na      17.23503581      47.14014615      24.54034560       0.03964318       0.01182918       0.10226902      -3.16001201
Na      16.51783838      41.34380278      36.06110757       0.02143875      -0.02759533      -0.00455809      -3.20322776
Na      22.78343749      11.69879348      46.97125891      -0.03373432       0.00277034       0.01235586      -3.35298872
Na      55.47418145      43.82698643      57.43966834       0.03976784       0.01542298      -0.02090077      -3.34509540
Na      46.08156913      54.15112590      54.79270972      -0.09501715       0.01425048       0.08071467      -3.20653248
Na      23.15904772       1.67430956      20.43222298      -0.04924989       0.02973267      -0.02837862      -3.36724925
Na      28.91296503      30.31359179      40.34691574       0.00594469       0.02939546      -0.01050662      -3.27483821
Na      22.03056160      13.48827242      11.68390509      -0.00029086       0.00568767      -0.04272787      -3.17203212
Na       1.72294734      48.09042339      19.02040298      -0.03306023      -0.01404500      -0.08139663      -3.19239569
Na       4.79236769      16.07893963      46.96759092      -0.02801390       0.03798132       0.10845505      -3.10434318
Na      11.07841056      56.90080119      35.32945906       0.06993325      -0.03422982      -0.03567588      -3.17827511
Cl       4.11986372      18.24533131      34.65465706       0.03229054      -0.01773791      -0.19538291      -3.39880586
Cl      29.08065657       9.32801417      39.00488841      -0.02695936      -0.07449727       0.07253495      -3.47208023
Cl       0.75645892       6.31682560       5.59239893       0.03392586      -0.01838244      -0.02507553      -3.53671646
Cl      36.00273148      25.60172716      54.84218217      -0.02318856       0.02257544      -0.03148791      -3.31268620
Cl       4.11103712       8.13149991      46.21408206       0.01772716       0.06798737       0.01250687      -3.56859279
Cl      15.04639363       2.24180934      38.02168832       0.06205897       0.01185503      -0.02210477      -3.56248569
Cl       1.29631038      25.85247379      15.53528042      -0.00962072       0.00396663       0.01024758      -3.49645710
Cl      29.15117158       2.28905849       4.25808038      -0.01357431      -0.02861663       0.00774550      -3.52296972
Cl      20.04377461       7.46867570       6.66520628      -0.01947601       0.08613423       0.04854005      -3.47887754
Cl      53.94398316       6.54928831      53.76781717      -0.09895969       0.05623389      -0.02734050      -3.35641885
Cl      55.54572349      24.37492350      12.83450204       0.03717268      -0.01008477       0.03222293      -3.63277745
Cl      10.58745870      51.12708608      33.39268178      -0.01429265      -0.02858031      -0.05584464      -3.28428936
Cl      49.66789328      33.28147902      29.21707513      -0.05335141       0.01592682      -0.01417318      -3.44022036
Cl      20.58287722      55.05692698      15.62018080      -0.01260382      -0.01374923      -0.05639687      -3.61602664
Cl      39.58820422       2.12416705      29.19197296      -0.01457301      -0.02435500       0.01662928      -3.50028634
Cl      11.76337782      34.14170651       6.75429112       0.05450641       0.01124059       0.00219917      -3.37335086
Cl      47.37219732      41.57168247      12.45652353      -0.03441813       0.01196184      -0.00833204      -3.58151770
Cl      11.16262569      30.25570609      49.82246171       0.02022878      -0.01930516       0.02506000      -3.48248696
Cl      17.74415671      43.50430805      51.54047166       0.11851995       0.00572050      -0.10444327      -3.42256618
Cl      47.07025330      40.25860712      19.40526479      -0.05702940      -0.08862190      -0.03390899      -3.53279734
Cl      47.23747006      39.51593439      23.08232900      -0.09134766       0.07485141       0.05400977      -3.52646303
Cl      28.77581670      13.12240181      12.16552818       0.01718825       0.00744992      -0.01914185      -3.48180270
Cl      37.09410816      14.61690929       8.05595448      -0.02885943       0.03540155       0.05829766      -3.51605272
Cl      46.65755494      37.39653358      12.84108553      -0.04244583       0.02267740      -0.01130866      -3.58638120
Cl      41.85714182      48.49847094       2.13834384       0.06337062       0.01942442      -0.01783024      -3.51169538
Cl      51.62257795       3.98505579       7.16907847      -0.02853824      -0.01631875       0.04521960      -3.49152923
Cl      36.12204616      51.91799262      13.24645355      -0.00891744      -0.03503933      -0.03341916      -3.60686374
Cl      23.05306267       3.27126420      10.95198823       0.13574007       0.02915034       0.09229512      -3.58798409
Cl      55.63862955      45.65934933      40.06124393       0.01977721      -0.02714326      -0.00868049      -3.46430230
Cl      17.81420012      29.14778008      45.52531948       0.02088037       0.09749091      -0.02244014      -3.43896270
Cl      46.23471952      19.35359515      16.40628826       0.00286382       0.13601249      -0.01348975      -3.49981332
Cl      28.19165130       5.72825709      12.59598292      -0.04643224      -0.04319902       0.01515914      -3.54388380
Cl      51.13156529      50.21961562      17.74372682      -0.02221812      -0.00530841       0.01987889      -3.45018601
Cl      34.20086349      48.87266724      10.75319301       0.01753793      -0.02373489      -0.08903819      -3.35208821
Cl      23.73721568      17.56059423      32.74298194       0.02174222       0.03677792      -0.01381049      -3.47890687
Cl      51.07613003      58.64056769      43.41136103      -0.03825155      -0.01051541      -0.04234812      -3.56585407
Cl      19.30834335      30.67499961      40.04545104       0.01859150      -0.05842420       0.05442791      -3.57328963
Cl       1.85420512      20.38072062      38.22569573       0.01317352       0.00819304      -0.00844061      -3.50872946
Cl      40.88787152      12.06493252       8.43596432      -0.01814195      -0.03951963      -0.01241396      -3.54481030
Cl      57.16459415      57.80659946      15.70889584      -0.02425525       0.02293043       0.00567987      -3.37198639
Cl       9.84917430      35.15016356      43.05891532       0.03334921      -0.02089670       0.03171796      -3.58070111
Cl      29.01408990      57.14290008      34.72176129       0.00783601      -0.03856916       0.04166640      -3.55600071
Cl      38.52670447      53.68750976      45.30117637      -0.02252900      -0.00572441      -0.05791644      -3.38100123
Cl      57.65648403      37.62449739       1.46536576      -0.03195393       0.08064058       0.05153402      -3.50392747
Cl      42.99522845      38.88574660      48.95501631      -0.02971337      -0.02081759       0.06126313      -3.42129803
Cl      21.82620897      40.05565432      20.39879038      -0.06408738       0.06237432      -0.05088528      -3.47125363
Cl      10.02122426      42.31920137      26.54055543       0.00262971      -0.02204649      -0.02117449      -3.52582812
Cl      45.23670669       2.09051798      27.69680602      -0.03235669      -0.01762736       0.02591426      -3.46063995
Cl      25.43645635      41.61547566       3.56168588      -0.03447166       0.05333098      -0.04881765      -3.45600843
Cl       6.89900121      29.06547405      33.05258962       0.02607401       0.00162172       0.03742631      -3.58036470
Na      34.48669447      38.48474163       4.70154295       0.04212973      -0.01388132      -0.01321226      -3.22208571
Na      52.88992790      10.17177725      27.98062658      -0.00355808       0.00950661      -0.03654526      -3.34633780
Na       6.69829164      16.98391912      38.40373577      -0.05543056      -0.01902586       0.07114492      -3.33261943
Na      42.15193394       9.79856756      22.18143463      -0.02508357       0.01128821       0.01788152      -3.10017157
Na       8.82148865       0.81013969      16.48210620      -0.01845860       0.02570927      -0.00432322      -3.23844576
Na      57.45876247      40.08356092      14.39267499      -0.00441860      -0.01712715       0.05393582      -3.28085303
Na      15.43963334      50.88036115      11.12851519       0.07707615      -0.00757110      -0.00983586      -3.25330305
Na      43.50186309      19.31906196      51.54165227       0.06332762       0.02148046       0.00033548      -3.29521465
Na       6.96501857      22.94024589       1.35125355       0.03619657      -0.00838275      -0.04424429      -3.38134718
Na      19.57906543      42.72644965       0.00513775      -0.01691057      -0.01609879      -0.01673999      -3.18680263
Na      47.44460981      57.64178483      54.10672872       0.03494164      -0.02767723      -0.06609940      -3.12873483
Na      19.07744554      19.98483292      37.11012474       0.08168946      -0.01662043      -0.04156514      -3.30020022
Na      19.72401469      10.10813740      27.67803523       0.00551466      -0.01259040      -0.05055673      -3.31488395
Na       6.12380176      27.85093883      50.06801436      -0.08751817       0.07050444       0.08352056      -3.21136856
Na      42.47934085      50.68833982      18.69389440       0.02767095       0.05416750       0.02082236      -3.42169881
Na      56.17590620      40.85712022      10.95952257       0.00769012      -0.03888506       0.02121799      -3.32639861
Na      52.38951618      35.45326737      20.18173543      -0.00900383      -0.09756856      -0.03203026      -3.39683270
Na      30.10670790      15.52927637       6.46565377      -0.00486508      -0.01641014      -0.00414625      -3.29213762
Na      56.76620690      29.36724023      18.28618653      -0.01033702      -0.02491569      -0.00660371      -3.31325865
Na      51.72618640      31.92445961      13.46788142      -0.00687272      -0.01287616       0.04319653      -3.26384783
Na       2.02960330      23.00222127      36.06245424       0.03871397      -0.08044492       0.06850387      -3.26194382
Na      12.25551010      50.41849108       0.29315058       0.05124198       0.05361528      -0.00266796      -3.22338724
Na      15.74359815      57.79029333      58.35320844       0.03129556      -0.03726379      -0.00955309      -3.49193525
Na       7.95266607       6.00901206      26.10874175      -0.01877080      -0.02924696       0.02320821      -3.32216477
Na      18.19670136      40.22022501       2.16154903       0.02273173       0.01548725      -0.02632141      -3.22944975
Na       9.41120067      34.31144564       1.87986371       0.03185495       0.07004199      -0.01815945      -3.41883230
Na      47.87428258       2.74800613      13.07168021       0.04002980      -0.11179557       0.09603225      -3.17118931
Na      26.26927337      36.63402368      40.97830078       0.00162651       0.02196311      -0.05146030      -3.14315677
Na       1.75956377      22.11560599      44.89428501      -0.06684391       0.07333292       0.01891514      -3.34518003
Na      48.61062831      34.83556908      47.23602364      -0.00488531      -0.06377669      -0.05718146      -3.31457353
Na      55.57339043      18.03068121      48.43623571       0.05104197      -0.02874335      -0.00196177      -3.40151525
Na      55.24371802      24.24679437      32.45928166      -0.03862318      -0.00342014      -0.00034056      -3.36448503
Na      24.98408787      14.49822687      38.70176494       0.01292185      -0.00870380      -0.01742891      -3.29663515
Na      20.72983696      24.38283017       8.38363034      -0.05631005       0.02575897      -0.00059447      -3.26290369
Na      54.93261900      18.40560832      12.44704344       0.04035811      -0.01639035       0.02384481      -3.30690742
Na      58.67848293      40.79843436      32.63569395       0.05375869      -0.06686822       0.06670939      -3.29147339
Na      39.31588059      48.02403024      37.94165174       0.04315394       0.00848967       0.01300896      -3.34686375
Na       4.84183513      20.86710265      27.79229684      -0.06816260       0.00337251       0.03361855      -3.21867514
Na      14.81675366      17.91415702      30.29095187      -0.07088109      -0.03274751      -0.00049873      -3.25728345
Na      17.23503548      47.14014627      39.17221227       0.03964420       0.01182324       0.10227249      -3.16001153
Na      16.51783843      41.34380281      50.69297488       0.02143958      -0.02759518      -0.00455778      -3.20322680
Na      22.78343762      11.69879337       3.07565741      -0.03373382       0.00276997       0.01235783      -3.35298824
Na      55.47418180      43.82698640      13.54406671       0.03976752       0.01542130      -0.02090387      -3.34509516
Na      46.08156899      54.15112600      10.89710836      -0.09501866       0.01425117       0.08071572      -3.20653248
Na      23.15904780       1.67430963      35.06408938      -0.04924884       0.02973375      -0.02838206      -3.36724830
Na      28.91296508      30.31359174      54.97878314       0.00594493       0.02939517      -0.01050636      -3.27483773
Na      22.03056160      13.48827241      26.31577201      -0.00029090       0.00568757      -0.04272853      -3.17203212
Na       1.72294725      48.09042345      33.65226997      -0.03306101      -0.01404428      -0.08140078      -3.19239616
Na       4.79236725      16.07893934       3.07199009      -0.02801425       0.03798231       0.10845575      -3.10434294
Na      11.07841063      56.90080097      49.96132649       0.06993272      -0.03422903      -0.03567578      -3.17827535
Cl       4.11986360      18.24533131      49.28652414       0.03228700      -0.01773614      -0.19538692      -3.39880514
Cl      29.08065677       9.32801415      53.63675560      -0.02696245      -0.07449673       0.07253024      -3.47207975
Cl       0.75645894       6.31682561      20.22426610       0.03392605      -0.01838139      -0.02507490      -3.53671598
Cl      36.00273164      25.60172713      10.94658089      -0.02318849       0.02257520      -0.03148728      -3.31268620
Cl       4.11103696       8.13149991       2.31848118       0.01772673       0.06798770       0.01250507      -3.56859326
Cl      15.04639360       2.24180930      52.65355567       0.06205975       0.01185410      -0.02211343      -3.56248546
Cl       1.29631048      25.85247381      30.16714747      -0.00962025       0.00396615       0.01024631      -3.49645805
Cl      29.15117166       2.28905837      18.88994772      -0.01357376      -0.02861581       0.00774536      -3.52297020
Cl      20.04377466       7.46867583      21.29707339      -0.01947603       0.08613417       0.04854011      -3.47887731
Cl      53.94398296       6.54928835       9.87221599      -0.09895113       0.05623902      -0.02733643      -3.35641789
Cl      55.54572359      24.37492352      27.46636901       0.03717303      -0.01008596       0.03222257      -3.63277769
Cl      10.58745863      51.12708599      48.02454891      -0.01429404      -0.02858061      -0.05584285      -3.28428912
Cl      49.66789318      33.28147907      43.84894210      -0.05335009       0.01592848      -0.01417103      -3.44022036
Cl      20.58287732      55.05692691      30.25204782      -0.01260288      -0.01374906      -0.05639751      -3.61602712
Cl      39.58820422       2.12416705      43.82384028      -0.01457297      -0.02435401       0.01662555      -3.50028396
Cl      11.76337793      34.14170662      21.38615811       0.05450526       0.01124099       0.00220035      -3.37335086
Cl      47.37219733      41.57168234      27.08839062      -0.03441744       0.01196105      -0.00833019      -3.58151817
Cl      11.16262566      30.25570614       5.92686048       0.02023005      -0.01930442       0.02505912      -3.48248649
Cl      17.74415666      43.50430816       7.64487039       0.11851877       0.00572098      -0.10444719      -3.42256570
Cl      47.07025346      40.25860682      34.03713149      -0.05703363      -0.08861811      -0.03391194      -3.53279686
Cl      47.23747003      39.51593436      37.71419623      -0.09134727       0.07485074       0.05401126      -3.52646327
Cl      28.77581665      13.12240190      26.79739497       0.01718806       0.00744947      -0.01914195      -3.48180294
Cl      37.09410822      14.61690930      22.68782156      -0.02885954       0.03540163       0.05829766      -3.51605272
Cl      46.65755489      37.39653354      27.47295253      -0.04244561       0.02267733      -0.01130809      -3.58638167
Cl      41.85714189      48.49847088      16.77021123       0.06337052       0.01942553      -0.01783208      -3.51169491
Cl      51.62257777       3.98505574      21.80094563      -0.02853805      -0.01631839       0.04522084      -3.49152851
Cl      36.12204612      51.91799255      27.87832058      -0.00891786      -0.03503948      -0.03341917      -3.60686374
Cl      23.05306268       3.27126425      25.58385524       0.13574035       0.02915150       0.09229850      -3.58798409
Cl      55.63862939      45.65934922      54.69311098       0.01977761      -0.02714128      -0.00867916      -3.46430326
Cl      17.81420019      29.14777992       1.62971778       0.02087843       0.09749031      -0.02244113      -3.43896270
Cl      46.23471947      19.35359506      31.03815521       0.00286318       0.13601308      -0.01348964      -3.49981260
Cl      28.19165127       5.72825708      27.22784986      -0.04643183      -0.04319824       0.01515807      -3.54388380
Cl      51.13156526      50.21961577      32.37559389      -0.02221872      -0.00530696       0.01987558      -3.45018601
Cl      34.20086350      48.87266720      25.38506010       0.01753749      -0.02373460      -0.08903693      -3.35208845
Cl      23.73721568      17.56059449      47.37484870       0.02174215       0.03677845      -0.01380615      -3.47890639
Cl      51.07613020      58.64056760      58.04322865      -0.03825230      -0.01051749      -0.04234532      -3.56585383
Cl      19.30834309      30.67499955      54.67731761       0.01859105      -0.05842433       0.05442809      -3.57329035
Cl       1.85420514      20.38072054      52.85756262       0.01317301       0.00819337      -0.00844065      -3.50872874
Cl      40.88787153      12.06493256      23.06783132      -0.01814228      -0.03952004      -0.01241262      -3.54481053
Cl      57.16459419      57.80659948      30.34076276      -0.02425485       0.02293042       0.00567799      -3.37198639
Cl       9.84917428      35.15016350      57.69078293       0.03335026      -0.02089688       0.03171562      -3.58070016
Cl      29.01408984      57.14290011      49.35362817       0.00783309      -0.03856926       0.04166232      -3.55600142
Cl      38.52670467      53.68750985       1.40557487      -0.02252687      -0.00572419      -0.05791158      -3.38100219
Cl      57.65648405      37.62449765      16.09723338      -0.03195321       0.08064120       0.05153541      -3.50392771
Cl      42.99522828      38.88574667       5.05941563      -0.02971350      -0.02081733       0.06126256      -3.42129683
Cl      21.82620893      40.05565428      35.03065732      -0.06408732       0.06237467      -0.05088693      -3.47125340
Cl      10.02122433      42.31920140      41.17242246       0.00262862      -0.02204745      -0.02117784      -3.52582765
Cl      45.23670668       2.09051794      42.32867323      -0.03235688      -0.01762761       0.02591169      -3.46064019
Cl      25.43645633      41.61547600      18.19355316      -0.03447196       0.05333020      -0.04882159      -3.45600867
Cl       6.89900121      29.06547398      47.68445658       0.02607360       0.00162133       0.03742889      -3.58036423
Na      34.48669444      53.11660839      19.33341029       0.04213112      -0.01387820      -0.01321273      -3.22208500
Na      52.88992783      24.80364431      42.61249335      -0.00355882       0.00950608      -0.03653949      -3.34633923
Na       6.69829161      31.61578592      53.03560340      -0.05542789      -0.01902243       0.07114739      -3.33261967
Na      42.15193404      24.43043443      36.81330142      -0.02508529       0.01128671       0.01788375      -3.10017133
Na       8.82148892      15.44200692      31.11397342      -0.01845857       0.02570802      -0.00432610      -3.23844576
Na      57.45876219      54.71542788      29.02454209      -0.00441698      -0.01712723       0.05393795      -3.28085232
Na      15.43963330       6.98476018      25.76038233       0.07707529      -0.00757422      -0.00983501      -3.25330257
Na      43.50186304      33.95092878       7.64605150       0.06332704       0.02148374       0.00033572      -3.29521465
Na       6.96501870      37.57211332      15.98312128       0.03619548      -0.00838178      -0.04424407      -3.38134694
Na      19.57906539      57.35831693      14.63700562      -0.01691048      -0.01611223      -0.01674158      -3.18680167
Na      47.44461000      13.74618273      10.21112711       0.03494202      -0.02767636      -0.06609760      -3.12873530
Na      19.07744558      34.61670004      51.74199174       0.08168945      -0.01661723      -0.04156519      -3.30020118
Na      19.72401470      24.74000452      42.30990222       0.00551538      -0.01258903      -0.05055420      -3.31488419
Na       6.12380172      42.48280594       6.17241319      -0.08751600       0.07049841       0.08352205      -3.21136856
Na      42.47934088       6.79273880      33.32576151       0.02767321       0.05416621       0.02082511      -3.42169905
Na      56.17590627      55.48898766      25.59138982       0.00769063      -0.03888172       0.02121380      -3.32639813
Na      52.38951618      50.08513433      34.81360230      -0.00900304      -0.09756769      -0.03202835      -3.39683270
Na      30.10670816      30.16114342      21.09752076      -0.00486450      -0.01641130      -0.00414581      -3.29213834
Na      56.76620696      43.99910726      32.91805360      -0.01033643      -0.02491396      -0.00660289      -3.31325817
Na      51.72618640      46.55632672      28.09974831      -0.00687335      -0.01288134       0.04319592      -3.26384759
Na       2.02960327      37.63408834      50.69432130       0.03871693      -0.08044130       0.06850571      -3.26194334
Na      12.25550977       6.52289029      14.92501843       0.05124397       0.05361731      -0.00266529      -3.22338676
Na      15.74359834      13.89469158      14.45760652       0.03129484      -0.03726134      -0.00955491      -3.49193525
Na       7.95266576      20.64087924      40.74060869      -0.01876894      -0.02924544       0.02320759      -3.32216477
Na      18.19670145      54.85209196      16.79341624       0.02273318       0.01548823      -0.02632579      -3.22944975
Na       9.41120057      48.94331302      16.51173119       0.03185495       0.07004334      -0.01816089      -3.41883135
Na      47.87428262      17.37987335      27.70354702       0.04003122      -0.11179634       0.09603508      -3.17118883
Na      26.26927339      51.26589127      55.61016863       0.00163257       0.02196568      -0.05145269      -3.14315724
Na       1.75956379      36.74747307       0.99868386      -0.06684284       0.07333147       0.01891386      -3.34517980
Na      48.61062833      49.46743630       3.34042280      -0.00488710      -0.06378268      -0.05718067      -3.31457257
Na      55.57339051      32.66254808       4.54063498       0.05104152      -0.02874117      -0.00195909      -3.40151501
Na      55.24371775      38.87866124      47.09114860      -0.03862302      -0.00342248      -0.00034043      -3.36448574
Na      24.98408802      29.13009389      53.33363231       0.01291939      -0.00870697      -0.01743376      -3.29663515
Na      20.72983696      39.01469702      23.01549728      -0.05631037       0.02575723      -0.00059565      -3.26290488
Na      54.93261898      33.03747571      27.07891053       0.04035859      -0.01638942       0.02384391      -3.30690765
Na      58.67848246      55.43030196      47.26756124       0.05376020      -0.06686981       0.06669854      -3.29147267
Na      39.31588021       4.12842923      52.57351926       0.04315303       0.00848678       0.01300238      -3.34686303
Na       4.84183516      35.49896947      42.42416354      -0.06816149       0.00337275       0.03361947      -3.21867466
Na      14.81675367      32.54602383      44.92281889      -0.07088172      -0.03274541      -0.00049805      -3.25728488
Na      17.23503580       3.24454504      53.80407930       0.03964268       0.01182696       0.10226898      -3.16001201
Na      16.51783815      55.97567016       6.79737321       0.02144363      -0.02759025      -0.00455486      -3.20322776
Na      22.78343758      26.33066050      17.70752489      -0.03373453       0.00277002       0.01235753      -3.35298800
Na      55.47418197      -0.06861496      28.17593380       0.03976631       0.01542393      -0.02090334      -3.34509492
Na      46.08156882      10.25552453      25.52897565      -0.09501649       0.01425399       0.08071360      -3.20653224
Na      23.15904773      16.30617722      49.69595685      -0.04924841       0.02973129      -0.02838277      -3.36724949
Na      28.91296502      44.94545871      11.08318187       0.00594441       0.02939503      -0.01050932      -3.27483821
Na      22.03056167      28.12013942      40.94763894      -0.00028992       0.00568642      -0.04272812      -3.17203259
Na       1.72294707       4.19482216      48.28413718      -0.03306166      -0.01404582      -0.08139817      -3.19239664
Na       4.79236779      30.71080686      17.70385699      -0.02801553       0.03797981       0.10845434      -3.10434270
Na      11.07841008      13.00519916       6.06572528       0.06993274      -0.03422097      -0.03567434      -3.17827535
Cl       4.11986357      32.87719866       5.39092311       0.03228825      -0.01773749      -0.19538547      -3.39880657
Cl      29.08065665      23.95988118       9.74115449      -0.02696170      -0.07449621       0.07253133      -3.47208023
Cl       0.75645908      20.94869269      34.85613301       0.03392573      -0.01838056      -0.02507307      -3.53671527
Cl      36.00273165      40.23359410      25.57844794      -0.02318800       0.02257621      -0.03148482      -3.31268668
Cl       4.11103713      22.76336713      16.95034815       0.01772678       0.06798933       0.01250541      -3.56859374
Cl      15.04639370      16.87367652       8.75795445       0.06206053       0.01185500      -0.02211186      -3.56248498
Cl       1.29631051      40.48434066      44.79901467      -0.00962058       0.00396717       0.01024744      -3.49645710
Cl      29.15117138      16.92092585      33.52181468      -0.01357403      -0.02861259       0.00774197      -3.52296972
Cl      20.04377452      22.10054294      35.92894038      -0.01947501       0.08613423       0.04854162      -3.47887754
Cl      53.94398317      21.18115562      24.50408310      -0.09896106       0.05623259      -0.02734035      -3.35641789
Cl      55.54572366      39.00679038      42.09823600       0.03717255      -0.01008069       0.03222322      -3.63277793
Cl      10.58745871       7.23148520       4.12894810      -0.01429172      -0.02857844      -0.05584471      -3.28428936
Cl      49.66789362      47.91334657      -0.04666048      -0.05335183       0.01593033      -0.01417211      -3.44022059
Cl      20.58287721      11.16132600      44.88391464      -0.01260340      -0.01375149      -0.05639556      -3.61602616
Cl      39.58820424      16.75603461      -0.07176212      -0.01457236      -0.02435494       0.01662721      -3.50028491
Cl      11.76337784      48.77357350      36.01802509       0.05450767       0.01124192       0.00220202      -3.37335134
Cl      47.37219755      56.20354961      41.72025728      -0.03441875       0.01196270      -0.00833093      -3.58151770
Cl      11.16262575      44.88757299      20.55872776       0.02022927      -0.01930336       0.02505859      -3.48248625
Cl      17.74415614      58.13617574      22.27673785       0.11851674       0.00571231      -0.10444507      -3.42256498
Cl      47.07025332      54.89047400      48.66899811      -0.05702981      -0.08862232      -0.03390902      -3.53279662
Cl      47.23747023      54.14780140      52.34606269      -0.09134792       0.07485141       0.05401034      -3.52646375
Cl      28.77581668      27.75426888      41.42926213       0.01718999       0.00745049      -0.01913959      -3.48180270
Cl      37.09410812      29.24877617      37.31968892      -0.02885891       0.03540216       0.05829538      -3.51605368
Cl      46.65755502      52.02840075      42.10481950      -0.04244581       0.02267791      -0.01130946      -3.58638382
Cl      41.85714175       4.60286970      31.40207832       0.06337120       0.01942544      -0.01783393      -3.51169610
Cl      51.62257780      18.61692317      36.43281277      -0.02853934      -0.01631769       0.04522095      -3.49153018
Cl      36.12204610       8.02239126      42.51018748      -0.00891787      -0.03504149      -0.03342183      -3.60686326
Cl      23.05306260      17.90313121      40.21572237       0.13574137       0.02915189       0.09229412      -3.58798456
Cl      55.63862943       1.76374777      10.79751019       0.01977738      -0.02714450      -0.00867856      -3.46430182
Cl      17.81420030      43.77964701      16.26158546       0.02087902       0.09748805      -0.02244227      -3.43896317
Cl      46.23471939      33.98546241      45.67002209       0.00286464       0.13601163      -0.01348861      -3.49981213
Cl      28.19165134      20.36012409      41.85971694      -0.04643141      -0.04319951       0.01515595      -3.54388452
Cl      51.13156538       6.32401452      47.00746098      -0.02222015      -0.00530845       0.01987729      -3.45018601
Cl      34.20086364       4.97706602      40.01692736       0.01753931      -0.02373451      -0.08903688      -3.35208845
Cl      23.73721575      32.19246104       3.47924719       0.02174146       0.03677479      -0.01381118      -3.47890639
Cl      51.07613004      14.74496563      14.14762716      -0.03825044      -0.01051517      -0.04234545      -3.56585288
Cl      19.30834344      45.30686646      10.78171677       0.01859222      -0.05842046       0.05442983      -3.57329082
Cl       1.85420522      35.01258764       8.96196127       0.01317496       0.00819027      -0.00844028      -3.50872827
Cl      40.88787160      26.69679937      37.69969867      -0.01814258      -0.03951841      -0.01241700      -3.54481196
Cl      57.16459445      13.91099791      44.97262998      -0.02425480       0.02292949       0.00568022      -3.37198591
Cl       9.84917419      49.78203049      13.79518120       0.03334928      -0.02090297       0.03171770      -3.58070087
Cl      29.01408978      13.24729856       5.45802694       0.00783458      -0.03857181       0.04166527      -3.55600071
Cl      38.52670462       9.79190860      16.03744235      -0.02252697      -0.00572075      -0.05791251      -3.38100338
Cl      57.65648427      52.25636473      30.72910029      -0.03195442       0.08063944       0.05153338      -3.50392842
Cl      42.99522846      53.51761383      19.69128305      -0.02971428      -0.02081762       0.06126682      -3.42129707
Cl      21.82620894      54.68752144      49.66252440      -0.06408796       0.06236573      -0.05088675      -3.47125506
Cl      10.02122464      56.95106876      55.80428981       0.00262720      -0.02204479      -0.02117630      -3.52582836
Cl      45.23670691      16.72238536      56.96054094      -0.03235600      -0.01762813       0.02591205      -3.46063924
Cl      25.43645683      56.24734266      32.82542041      -0.03447131       0.05333250      -0.04881372      -3.45600748
Cl       6.89900126      43.69734099       3.78885514       0.02607353       0.00162073       0.03742633      -3.58036447
Na      34.48669441      53.11660819      33.96527738       0.04213053      -0.01387656      -0.01321449      -3.22208500
Na      52.88992807      24.80364403      57.24436162      -0.00355825       0.00950551      -0.03654495      -3.34633827
Na       6.69829159      31.61578597       9.14000204      -0.05542829      -0.01902354       0.07114427      -3.33261991
Na      42.15193387      24.43043476      51.44516888      -0.02508441       0.01128777       0.01788786      -3.10017085
Na       8.82148902      15.44200694      45.74584019      -0.01845864       0.02570714      -0.00432820      -3.23844695
Na      57.45876187      54.71542787      43.65640880      -0.00441912      -0.01712739       0.05393676      -3.28085399
Na      15.43963336       6.98476010      40.39224912       0.07707559      -0.00757387      -0.00983576      -3.25330138
Na      43.50186300      33.95092884      22.27791851       0.06332852       0.02148106       0.00033754      -3.29521537
Na       6.96501880      37.57211342      30.61498821       0.03619524      -0.00838343      -0.04424320      -3.38134718
Na      19.57906535      57.35831708      29.26887259      -0.01690975      -0.01611216      -0.01674253      -3.18680096
Na      47.44461000      13.74618272      24.84299402       0.03494120      -0.02767575      -0.06609994      -3.12873507
Na      19.07744548      34.61670003       7.84639065       0.08168878      -0.01661867      -0.04156333      -3.30020118
Na      19.72401451      24.74000484      56.94176961       0.00551586      -0.01259288      -0.05055385      -3.31488490
Na       6.12380162      42.48280589      20.80428031      -0.08751602       0.07049845       0.08352146      -3.21136904
Na      42.47934076       6.79273877      47.95762841       0.02767028       0.05416606       0.02082049      -3.42169833
Na      56.17590629      55.48898772      40.22325663       0.00769336      -0.03888342       0.02122385      -3.32639861
Na      52.38951615      50.08513428      49.44546915      -0.00900298      -0.09756816      -0.03202815      -3.39683270
Na      30.10670819      30.16114335      35.72938780      -0.00486564      -0.01641313      -0.00414766      -3.29213762
Na      56.76620703      43.99910725      47.54992072      -0.01033737      -0.02491521      -0.00660291      -3.31325865
Na      51.72618653      46.55632673      42.73161506      -0.00687326      -0.01287966       0.04320064      -3.26384711
Na       2.02960336      37.63408847       6.79872034       0.03871655      -0.08044125       0.06850638      -3.26194406
Na      12.25550978       6.52289029      29.55688533       0.05124519       0.05361937      -0.00266394      -3.22338676
Na      15.74359835      13.89469166      29.08947349       0.03129489      -0.03726096      -0.00955588      -3.49193478
Na       7.95266594      20.64087906      55.37247603      -0.01877179      -0.02924613       0.02321160      -3.32216477
Na      18.19670141      54.85209193      31.42528331       0.02273327       0.01548762      -0.02632044      -3.22944951
Na       9.41120047      48.94331299      31.14359838       0.03185457       0.07004339      -0.01815992      -3.41883183
Na      47.87428271      17.37987324      42.33541413       0.04002974      -0.11179680       0.09603310      -3.17119050
Na      26.26927365      51.26589121      11.71456700       0.00162834       0.02196541      -0.05145785      -3.14315772
Na       1.75956369      36.74747330      15.63055087      -0.06684245       0.07333199       0.01891398      -3.34517980
Na      48.61062845      49.46743612      17.97228961      -0.00488646      -0.06378295      -0.05718049      -3.31457233
Na      55.57339046      32.66254818      19.17250226       0.05104143      -0.02874244      -0.00195995      -3.40151501
Na      55.24371785      38.87866109       3.19554716      -0.03862269      -0.00342296      -0.00034001      -3.36448526
Na      24.98408797      29.13009375       9.43803089       0.01291983      -0.00870562      -0.01743255      -3.29663515
Na      20.72983693      39.01469705      37.64736417      -0.05631063       0.02575787      -0.00059605      -3.26290441
Na      54.93261896      33.03747559      41.71077729       0.04035828      -0.01639002       0.02384608      -3.30690813
Na      58.67848249      55.43030179       3.37195974       0.05375960      -0.06686816       0.06670446      -3.29147291
Na      39.31588025       4.12842926       8.67791783       0.04315294       0.00848648       0.01300749      -3.34686399
Na       4.84183513      35.49896973      57.05603075      -0.06816140       0.00337317       0.03361937      -3.21867418
Na      14.81675380      32.54602334       1.02721762      -0.07088166      -0.03274725      -0.00049768      -3.25728440
Na      17.23503579       3.24454517       9.90847842       0.03964271       0.01182609       0.10226950      -3.16001248
Na      16.51783823      55.97566998      21.42924055       0.02144367      -0.02759094      -0.00455799      -3.20322776
Na      22.78343761      26.33066048      32.33939172      -0.03373330       0.00276897       0.01235606      -3.35298777
Na      55.47418194      -0.06861504      42.80780085       0.03976680       0.01542495      -0.02090023      -3.34509587
Na      46.08156880      10.25552457      40.16084254      -0.09501699       0.01425412       0.08071353      -3.20653152
Na      23.15904782      16.30617737       5.80035548      -0.04924907       0.02973114      -0.02838054      -3.36724877
Na      28.91296504      44.94545856      25.71504896       0.00594417       0.02939531      -0.01050953      -3.27483821
Na      22.03056177      28.12013930      55.57950656      -0.00029135       0.00568593      -0.04272798      -3.17203259
Na       1.72294698       4.19482206       4.38853618      -0.03306215      -0.01404346      -0.08139525      -3.19239616
Na       4.79236768      30.71080679      32.33572404      -0.02801510       0.03798348       0.10845516      -3.10434270
Na      11.07841002      13.00519911      20.69759233       0.06993311      -0.03421974      -0.03567068      -3.17827559
Cl       4.11986359      32.87719864      20.02279019       0.03228786      -0.01773733      -0.19538683      -3.39880705
Cl      29.08065658      23.95988118      24.37302151      -0.02696218      -0.07449606       0.07253157      -3.47208023
Cl       0.75645914      20.94869265      49.48800025       0.03392653      -0.01837769      -0.02506924      -3.53671694
Cl      36.00273165      40.23359395      40.21031480      -0.02318776       0.02257564      -0.03148720      -3.31268764
Cl       4.11103713      22.76336710      31.58221511       0.01772668       0.06799059       0.01250634      -3.56859326
Cl      15.04639369      16.87367655      23.38982158       0.06206275       0.01185538      -0.02211030      -3.56248403
Cl       1.29631016      40.48434075       0.90341319      -0.00962078       0.00396743       0.01024526      -3.49645829
Cl      29.15117138      16.92092591      48.15368163      -0.01357337      -0.02861386       0.00774425      -3.52296901
Cl      20.04377458      22.10054286      50.56080727      -0.01947489       0.08613458       0.04854160      -3.47887754
Cl      53.94398316      21.18115561      39.13594982      -0.09895772       0.05623503      -0.02733345      -3.35641694
Cl      55.54572377      39.00679052      56.73010350       0.03717121      -0.01008074       0.03222745      -3.63277864
Cl      10.58745873       7.23148522      18.76081498      -0.01429237      -0.02857910      -0.05584387      -3.28428912
Cl      49.66789346      47.91334612      14.58520836      -0.05335175       0.01592866      -0.01417249      -3.44022012
Cl      20.58287704      11.16132580       0.98831322      -0.01259752      -0.01375125      -0.05639608      -3.61602712
Cl      39.58820429      16.75603459      14.56010589      -0.01457274      -0.02435477       0.01662683      -3.50028586
Cl      11.76337782      48.77357367      50.64989225       0.05450532       0.01124172       0.00220617      -3.37335157
Cl      47.37219792      56.20354975      56.35212507      -0.03441837       0.01196303      -0.00832955      -3.58151674
Cl      11.16262579      44.88757319      35.19059473       0.02022610      -0.01930420       0.02506093      -3.48248672
Cl      17.74415617      58.13617565      36.90860493       0.11851819       0.00571271      -0.10444447      -3.42256546
Cl      47.07025335      54.89047414       4.77339715      -0.05703134      -0.08862169      -0.03390848      -3.53279614
Cl      47.23747014      54.14780146       8.45046189      -0.09134675       0.07485153       0.05400588      -3.52646351
Cl      28.77581666      27.75426891      56.06112982       0.01718830       0.00745196      -0.01914216      -3.48180413
Cl      37.09410814      29.24877620      51.95155553      -0.02885900       0.03540296       0.05829779      -3.51605392
Cl      46.65755516      52.02840092      56.73668691      -0.04244462       0.02267782      -0.01130801      -3.58638167
Cl      41.85714168       4.60286980      46.03394534       0.06337194       0.01942623      -0.01783443      -3.51169443
Cl      51.62257779      18.61692319      51.06467990      -0.02853637      -0.01631807       0.04522495      -3.49153018
Cl      36.12204614       8.02239160      57.14205566      -0.00891762      -0.03504080      -0.03342173      -3.60686231
Cl      23.05306250      17.90313126      54.84758970       0.13573916       0.02915159       0.09228795      -3.58798504
Cl      55.63862943       1.76374775      25.42937704       0.01977792      -0.02714283      -0.00867704      -3.46430182
Cl      17.81420028      43.77964708      30.89345243       0.02087855       0.09748846      -0.02244072      -3.43896365
Cl      46.23471945      33.98546211       1.77442127       0.00286369       0.13601214      -0.01349089      -3.49981236
Cl      28.19165108      20.36012415      56.49158425      -0.04643278      -0.04319879       0.01515819      -3.54388332
Cl      51.13156565       6.32401465       3.11185918      -0.02221862      -0.00530856       0.01987730      -3.45018554
Cl      34.20086366       4.97706618      54.64879404       0.01753954      -0.02373472      -0.08903752      -3.35208893
Cl      23.73721558      32.19246114      18.11111467       0.02174182       0.03677607      -0.01381075      -3.47890711
Cl      51.07613004      14.74496561      28.77949418      -0.03825126      -0.01051604      -0.04234477      -3.56585336
Cl      19.30834344      45.30686649      25.41358384       0.01859263      -0.05842010       0.05442961      -3.57329082
Cl       1.85420519      35.01258759      23.59382827       0.01317505       0.00819046      -0.00843963      -3.50872827
Cl      40.88787152      26.69679953      52.33156538      -0.01814052      -0.03952058      -0.01241099      -3.54481053
Cl      57.16459432      13.91099822       1.07702836      -0.02425430       0.02293044       0.00567623      -3.37198448
Cl       9.84917415      49.78203048      28.42704817       0.03335022      -0.02090270       0.03171873      -3.58070111
Cl      29.01408976      13.24729855      20.08989442       0.00783406      -0.03857295       0.04166234      -3.55599999
Cl      38.52670447       9.79190859      30.66930935      -0.02252595      -0.00572147      -0.05791146      -3.38100386
Cl      57.65648419      52.25636485      45.36096736      -0.03195650       0.08063295       0.05153430      -3.50392652
Cl      42.99522846      53.51761395      34.32315007      -0.02971386      -0.02081705       0.06126338      -3.42129636
Cl      21.82620898      54.68752133       5.76692308      -0.06408857       0.06236498      -0.05088602      -3.47125554
Cl      10.02122468      56.95106860      11.90868837       0.00262808      -0.02204400      -0.02117447      -3.52582741
Cl      45.23670697      16.72238542      13.06493883      -0.03235713      -0.01762685       0.02591143      -3.46063876
Cl      25.43645691      56.24734277      47.45728760      -0.03446994       0.05333401      -0.04881298      -3.45600724
Cl       6.89900125      43.69734103      18.42072277       0.02607437       0.00162091       0.03742588      -3.58036375
Na      34.48669425      53.11660825      48.59714426       0.04213021      -0.01387714      -0.01321499      -3.22208428
Na      52.88992782      24.80364428      13.34875958      -0.00355809       0.00950594      -0.03654409      -3.34633851
Na       6.69829152      31.61578598      23.77186914      -0.05542805      -0.01902329       0.07114331      -3.33261991
Na      42.15193404      24.43043450       7.54956724      -0.02508453       0.01128685       0.01788392      -3.10017133
Na       8.82148882      15.44200733       1.85023860      -0.01845723       0.02570919      -0.00432553      -3.23844552
Na      57.45876243      54.71542787      58.28827703      -0.00441891      -0.01712795       0.05393742      -3.28085303
Na      15.43963317       6.98476034      55.02411679       0.07707530      -0.00757410      -0.00983434      -3.25330234
Na      43.50186277      33.95092881      36.90978538       0.06332591       0.02148441       0.00033520      -3.29521465
Na       6.96501873      37.57211337      45.24685537       0.03619550      -0.00838003      -0.04424679      -3.38134718
Na      19.57906541      57.35831697      43.90073976      -0.01690745      -0.01611313      -0.01674530      -3.18680096
Na      47.44460992      13.74618259      39.47486089       0.03494342      -0.02767485      -0.06609777      -3.12873530
Na      19.07744552      34.61670000      22.47825755       0.08168860      -0.01661885      -0.04156371      -3.30020118
Na      19.72401468      24.74000452      13.04616819       0.00551423      -0.01258891      -0.05055554      -3.31488419
Na       6.12380157      42.48280590      35.43614730      -0.08751653       0.07049719       0.08352359      -3.21136856
Na      42.47934079       6.79273881       4.06202730       0.02767160       0.05416663       0.02082323      -3.42169809
Na      56.17590638      55.48898772      54.85512407       0.00769116      -0.03888193       0.02121264      -3.32639861
Na      52.38951622      50.08513425       5.54986801      -0.00900358      -0.09756821      -0.03202865      -3.39683270
Na      30.10670826      30.16114344      50.36125515      -0.00486480      -0.01641178      -0.00414741      -3.29213786
Na      56.76620699      43.99910704       3.65431936      -0.01033667      -0.02491442      -0.00660515      -3.31325817
Na      51.72618628      46.55632652      57.36348279      -0.00687232      -0.01287952       0.04319774      -3.26384735
Na       2.02960334      37.63408839      21.43058729       0.03871660      -0.08044107       0.06850649      -3.26194453
Na      12.25550981       6.52289028      44.18875257       0.05124578       0.05361892      -0.00265796      -3.22338724
Na      15.74359836      13.89469155      43.72134073       0.03129491      -0.03726159      -0.00955474      -3.49193525
Na       7.95266591      20.64087918      11.47687457      -0.01877080      -0.02924637       0.02320837      -3.32216501
Na      18.19670131      54.85209200      46.05715043       0.02273374       0.01548754      -0.02632684      -3.22944975
Na       9.41120058      48.94331299      45.77546534       0.03185653       0.07004470      -0.01816252      -3.41883183
Na      47.87428262      17.37987321      56.96728128       0.04003078      -0.11179560       0.09603456      -3.17118907
Na      26.26927359      51.26589119      26.34643390       0.00162952       0.02196701      -0.05145528      -3.14315748
Na       1.75956362      36.74747319      30.26241793      -0.06684257       0.07333121       0.01891451      -3.34517956
Na      48.61062837      49.46743598      32.60415659      -0.00488749      -0.06378303      -0.05717980      -3.31457281
Na      55.57339033      32.66254801      33.80436917       0.05104244      -0.02874021      -0.00196067      -3.40151501
Na      55.24371786      38.87866116      17.82741464      -0.03862293      -0.00342215      -0.00034063      -3.36448598
Na      24.98408806      29.13009376      24.06989806       0.01291928      -0.00870592      -0.01743337      -3.29663515
Na      20.72983694      39.01469709      52.27923122      -0.05631005       0.02575714      -0.00059608      -3.26290417
Na      54.93261895      33.03747560      56.34264493       0.04035753      -0.01638776       0.02384894      -3.30690765
Na      58.67848256      55.43030185      18.00382713       0.05376007      -0.06686774       0.06670331      -3.29147267
Na      39.31588018       4.12842928      23.30978499       0.04315314       0.00848548       0.01300495      -3.34686446
Na       4.84183513      35.49896952      13.16042983      -0.06816214       0.00337400       0.03361955      -3.21867442
Na      14.81675370      32.54602385      15.65908489      -0.07088122      -0.03274677      -0.00049894      -3.25728393
Na      17.23503580       3.24454519      24.54034546       0.03964253       0.01182614       0.10226887      -3.16001248
Na      16.51783815      55.97567025      36.06110758       0.02144186      -0.02759019      -0.00455662      -3.20322776
Na      22.78343750      26.33066055      46.97125903      -0.03373405       0.00277052       0.01235605      -3.35298824
Na      55.47418155      -0.06861507      57.43966836       0.03976656       0.01542578      -0.02090055      -3.34509540
Na      46.08156903      10.25552445      54.79270981      -0.09501661       0.01425244       0.08071491      -3.20653224
Na      23.15904777      16.30617721      20.43222270      -0.04924975       0.02973080      -0.02837871      -3.36724925
Na      28.91296499      44.94545886      40.34691568       0.00594532       0.02939334      -0.01050493      -3.27483821
Na      22.03056163      28.12013942      11.68390505      -0.00029157       0.00568546      -0.04272839      -3.17203259
Na       1.72294715       4.19482212      19.02040317      -0.03306207      -0.01404456      -0.08139496      -3.19239616
Na       4.79236772      30.71080671      46.96759102      -0.02801510       0.03798153       0.10845451      -3.10434270
Na      11.07840997      13.00519925      35.32945922       0.06993398      -0.03422086      -0.03567638      -3.17827487
Cl       4.11986372      32.87719862      34.65465725       0.03228980      -0.01773836      -0.19538327      -3.39880633
Cl      29.08065653      23.95988124      39.00488837      -0.02695972      -0.07449701       0.07253431      -3.47207999
Cl       0.75645891      20.94869259       5.59239887       0.03392625      -0.01838079      -0.02507372      -3.53671551
Cl      36.00273137      40.23359407      54.84218208      -0.02318725       0.02257603      -0.03148774      -3.31268716
Cl       4.11103709      22.76336711      46.21408202       0.01772695       0.06798964       0.01250742      -3.56859326
Cl      15.04639375      16.87367652      38.02168822       0.06206170       0.01185626      -0.02210282      -3.56248569
Cl       1.29631039      40.48434065      15.53528050      -0.00962004       0.00396715       0.01024633      -3.49645829
Cl      29.15117141      16.92092594       4.25808039      -0.01357371      -0.02861409       0.00774454      -3.52296972
Cl      20.04377457      22.10054293       6.66520615      -0.01947430       0.08613731       0.04853846      -3.47887754
Cl      53.94398348      21.18115563      53.76781738      -0.09896028       0.05623132      -0.02734193      -3.35641885
Cl      55.54572360      39.00679024      12.83450199       0.03717132      -0.01008055       0.03222396      -3.63277793
Cl      10.58745866       7.23148508      33.39268197      -0.01429196      -0.02857923      -0.05584466      -3.28428912
Cl      49.66789354      47.91334607      29.21707539      -0.05335187       0.01592826      -0.01417339      -3.44022036
Cl      20.58287714      11.16132593      15.62018076      -0.01259720      -0.01375165      -0.05639669      -3.61602712
Cl      39.58820425      16.75603464      29.19197291      -0.01457331      -0.02435507       0.01662879      -3.50028610
Cl      11.76337776      48.77357339       6.75429111       0.05450649       0.01123998       0.00219847      -3.37335086
Cl      47.37219769      56.20354977      12.45652343      -0.03441817       0.01196287      -0.00833216      -3.58151698
Cl      11.16262576      44.88757295      49.82246171       0.02022817      -0.01930431       0.02506021      -3.48248601
Cl      17.74415601      58.13617558      51.54047186       0.11851740       0.00571246      -0.10444453      -3.42256546
Cl      47.07025342      54.89047405      19.40526427      -0.05703736      -0.08861688      -0.03390206      -3.53279686
Cl      47.23747014      54.14780147      23.08232891      -0.09134822       0.07485154       0.05400681      -3.52646399
Cl      28.77581667      27.75426881      12.16552820       0.01718855       0.00745053      -0.01914237      -3.48180294
Cl      37.09410813      29.24877623       8.05595447      -0.02885875       0.03540256       0.05829798      -3.51605320
Cl      46.65755494      52.02840072      12.84108549      -0.04244615       0.02267760      -0.01130831      -3.58638334
Cl      41.85714159       4.60286968       2.13834391       0.06337108       0.01942509      -0.01783057      -3.51169515
Cl      51.62257777      18.61692319       7.16907849      -0.02853834      -0.01631778       0.04522039      -3.49152970
Cl      36.12204616       8.02239124      13.24645351      -0.00891744      -0.03504078      -0.03341983      -3.60686374
Cl      23.05306255      17.90313120      10.95198829       0.13574038       0.02915104       0.09229475      -3.58798409
Cl      55.63862954       1.76374801      40.06124421       0.01978020      -0.02714442      -0.00867993      -3.46430302
Cl      17.81420016      43.77964701      45.52531945       0.02088027       0.09748818      -0.02244238      -3.43896246
Cl      46.23471945      33.98546240      16.40628822       0.00286448       0.13601211      -0.01348969      -3.49981260
Cl      28.19165124      20.36012414      12.59598293      -0.04643304      -0.04319976       0.01515890      -3.54388404
Cl      51.13156553       6.32401455      17.74372682      -0.02221933      -0.00530802       0.01987730      -3.45018578
Cl      34.20086362       4.97706599      10.75319304       0.01753835      -0.02373560      -0.08903870      -3.35208821
Cl      23.73721565      32.19246124      32.74298199       0.02174125       0.03677527      -0.01380881      -3.47890639
Cl      51.07612998      14.74496562      43.41136121      -0.03825020      -0.01051388      -0.04234685      -3.56585288
Cl      19.30834348      45.30686673      40.04545094       0.01859267      -0.05841959       0.05442699      -3.57328939
Cl       1.85420514      35.01258761      38.22569563       0.01317437       0.00819047      -0.00844139      -3.50872874
Cl      40.88787151      26.69679941       8.43596428      -0.01814139      -0.03952003      -0.01241347      -3.54481077
Cl      57.16459446      13.91099790      15.70889584      -0.02425479       0.02292932       0.00567996      -3.37198615
Cl       9.84917414      49.78203038      43.05891528       0.03335072      -0.02090275       0.03171799      -3.58070111
Cl      29.01408973      13.24729845      34.72176139       0.00783588      -0.03857080       0.04166638      -3.55599928
Cl      38.52670449       9.79190857      45.30117629      -0.02252762      -0.00572105      -0.05791558      -3.38100147
Cl      57.65648422      52.25636445       1.46536574      -0.03195395       0.08064073       0.05153419      -3.50392771
Cl      42.99522861      53.51761399      48.95501668      -0.02971452      -0.02081859       0.06126439      -3.42129803
Cl      21.82620896      54.68752150      20.39879028      -0.06408858       0.06236449      -0.05088627      -3.47125554
Cl      10.02122462      56.95106855      26.54055542       0.00262842      -0.02204438      -0.02117488      -3.52582741
Cl      45.23670697      16.72238544      27.69680583      -0.03235669      -0.01762732       0.02591204      -3.46063828
Cl      25.43645663      56.24734236       3.56168637      -0.03447039       0.05333227      -0.04881565      -3.45600748
Cl       6.89900129      43.69734107      33.05258954       0.02607394       0.00162086       0.03742603      -3.58036470
Na      34.48669428      53.11660844       4.70154318       0.04212983      -0.01387790      -0.01321279      -3.22208500
Na      52.88992785      24.80364430      27.98062657      -0.00355847       0.00950561      -0.03654564      -3.34633803
Na       6.69829164      31.61578602      38.40373587      -0.05542918      -0.01902386       0.07114552      -3.33261967
Na      42.15193400      24.43043451      22.18143465      -0.02508358       0.01128727       0.01788178      -3.10017133
Na       8.82148900      15.44200698      16.48210629      -0.01845822       0.02570876      -0.00432597      -3.23844552
Na      57.45876227      54.71542793      14.39267507      -0.00441813      -0.01712705       0.05393731      -3.28085303
Na      15.43963334       6.98476016      11.12851522       0.07707544      -0.00757356      -0.00983506      -3.25330257
Na      43.50186313      33.95092874      51.54165247       0.06332749       0.02148288       0.00033551      -3.29521489
Na       6.96501856      37.57211338       1.35125339       0.03619516      -0.00838261      -0.04424454      -3.38134670
Na      19.57906549      57.35831707       0.00513798      -0.01690847      -0.01610989      -0.01674243      -3.18680191
Na      47.44461008      13.74618257      54.10672849       0.03494270      -0.02767611      -0.06609891      -3.12873483
Na      19.07744556      34.61670002      37.11012446       0.08168793      -0.01662036      -0.04156141      -3.30020118
Na      19.72401466      24.74000448      27.67803517       0.00551433      -0.01258891      -0.05055682      -3.31488442
Na       6.12380175      42.48280590      50.06801431      -0.08751628       0.07049938       0.08351982      -3.21136880
Na      42.47934077       6.79273882      18.69389460       0.02767143       0.05416653       0.02082253      -3.42169809
Na      56.17590632      55.48898769      10.95952270       0.00769152      -0.03888257       0.02121837      -3.32639837
Na      52.38951620      50.08513437      20.18173534      -0.00900331      -0.09756799      -0.03202967      -3.39683270
Na      30.10670795      30.16114337       6.46565376      -0.00486506      -0.01641183      -0.00414715      -3.29213762
Na      56.76620700      43.99910717      18.28618659      -0.01033653      -0.02491443      -0.00660242      -3.31325841
Na      51.72618639      46.55632668      13.46788129      -0.00687371      -0.01288162       0.04319701      -3.26384759
Na       2.02960345      37.63408850      36.06245440       0.03871582      -0.08044069       0.06850591      -3.26194477
Na      12.25551004       6.52288993       0.29315057       0.05124280       0.05361664      -0.00266688      -3.22338700
Na      15.74359826      13.89469168      58.35320828       0.03129522      -0.03726142      -0.00955199      -3.49193549
Na       7.95266584      20.64087919      26.10874155      -0.01877075      -0.02924606       0.02320784      -3.32216501
Na      18.19670114      54.85209208       2.16154883       0.02273168       0.01548770      -0.02632112      -3.22944975
Na       9.41120063      48.94331293       1.87986374       0.03185508       0.07004315      -0.01815983      -3.41883206
Na      47.87428265      17.37987334      13.07168026       0.04003079      -0.11179632       0.09603277      -3.17118931
Na      26.26927338      51.26589138      40.97830111       0.00162866       0.02196230      -0.05145933      -3.14315772
Na       1.75956363      36.74747323      44.89428504      -0.06684277       0.07333198       0.01891557      -3.34518003
Na      48.61062839      49.46743613      47.23602366      -0.00488774      -0.06378362      -0.05717989      -3.31457257
Na      55.57339040      32.66254812      48.43623592       0.05104212      -0.02874124      -0.00196119      -3.40151525
Na      55.24371788      38.87866131      32.45928169      -0.03862283      -0.00342286      -0.00033973      -3.36448574
Na      24.98408795      29.13009379      38.70176489       0.01292015      -0.00870506      -0.01742849      -3.29663515
Na      20.72983697      39.01469704       8.38363027      -0.05631006       0.02575708      -0.00059496      -3.26290488
Na      54.93261900      33.03747563      12.44704342       0.04035812      -0.01638981       0.02384530      -3.30690765
Na      58.67848247      55.43030192      32.63569410       0.05375779      -0.06686819       0.06670879      -3.29147339
Na      39.31588025       4.12842919      37.94165189       0.04315250       0.00848675       0.01300809      -3.34686399
Na       4.84183513      35.49896950      27.79229674      -0.06816185       0.00337293       0.03361894      -3.21867466
Na      14.81675368      32.54602391      30.29095192      -0.07088156      -0.03274669      -0.00049889      -3.25728393
Na      17.23503562       3.24454520      39.17221231       0.03964351       0.01182471       0.10227112      -3.16001177
Na      16.51783821      55.97567026      50.69297494       0.02144243      -0.02759013      -0.00455562      -3.20322728
Na      22.78343773      26.33066044       3.07565735      -0.03373437       0.00277115       0.01235853      -3.35298753
Na      55.47418180      -0.06861500      13.54406671       0.03976608       0.01542433      -0.02090304      -3.34509540
Na      46.08156880      10.25552454      10.89710855      -0.09501737       0.01425389       0.08071683      -3.20653200
Na      23.15904773      16.30617740      35.06408941      -0.04924922       0.02973131      -0.02838234      -3.36724925
Na      28.91296509      44.94545881      54.97878321       0.00594565       0.02939340      -0.01050531      -3.27483773
Na      22.03056162      28.12013944      26.31577201      -0.00029121       0.00568511      -0.04272885      -3.17203283
Na       1.72294707       4.19482207      33.65226998      -0.03306317      -0.01404373      -0.08139899      -3.19239640
Na       4.79236728      30.71080626       3.07199005      -0.02801478       0.03798210       0.10845580      -3.10434270
Na      11.07841002      13.00519908      49.96132672       0.06993297      -0.03422055      -0.03567543      -3.17827535
Cl       4.11986365      32.87719858      49.28652426       0.03228761      -0.01773675      -0.19538629      -3.39880586
Cl      29.08065671      23.95988127      53.63675554      -0.02696219      -0.07449579       0.07252942      -3.47207975
Cl       0.75645896      20.94869264      20.22426602       0.03392692      -0.01838131      -0.02507448      -3.53671551
Cl      36.00273164      40.23359402      10.94658087      -0.02318816       0.02257653      -0.03148577      -3.31268668
Cl       4.11103698      22.76336718       2.31848114       0.01772716       0.06798992       0.01250500      -3.56859326
Cl      15.04639368      16.87367652      52.65355569       0.06205995       0.01185464      -0.02211291      -3.56248569
Cl       1.29631048      40.48434070      30.16714765      -0.00962169       0.00396676       0.01024240      -3.49645901
Cl      29.15117147      16.92092571      18.88994768      -0.01357408      -0.02861332       0.00774446      -3.52296972
Cl      20.04377450      22.10054284      21.29707324      -0.01947440       0.08613713       0.04853808      -3.47887802
Cl      53.94398310      21.18115561       9.87221599      -0.09896025       0.05623282      -0.02733937      -3.35641766
Cl      55.54572372      39.00679040      27.46636908       0.03717136      -0.01008250       0.03222392      -3.63277888
Cl      10.58745870       7.23148505      48.02454912      -0.01429265      -0.02857944      -0.05584263      -3.28428912
Cl      49.66789323      47.91334615      43.84894222      -0.05335042       0.01593004      -0.01417352      -3.44021988
Cl      20.58287708      11.16132598      30.25204780      -0.01259659      -0.01375229      -0.05639704      -3.61602831
Cl      39.58820421      16.75603457      43.82384033      -0.01457291      -0.02435405       0.01662581      -3.50028467
Cl      11.76337782      48.77357356      21.38615817       0.05450657       0.01124173       0.00219895      -3.37335205
Cl      47.37219764      56.20354975      27.08839041      -0.03441832       0.01196178      -0.00833004      -3.58151770
Cl      11.16262579      44.88757312       5.92686052       0.02022756      -0.01930370       0.02505880      -3.48248625
Cl      17.74415600      58.13617566       7.64487073       0.11851612       0.00571243      -0.10444850      -3.42256522
Cl      47.07025320      54.89047401      34.03713127      -0.05702898      -0.08862297      -0.03391278      -3.53279567
Cl      47.23746992      54.14780152      37.71419614      -0.09134772       0.07485114       0.05401085      -3.52646375
Cl      28.77581665      27.75426888      26.79739505       0.01718833       0.00745014      -0.01914219      -3.48180294
Cl      37.09410819      29.24877625      22.68782158      -0.02885933       0.03540276       0.05829853      -3.51605296
Cl      46.65755497      52.02840071      27.47295249      -0.04244620       0.02267810      -0.01130801      -3.58638334
Cl      41.85714178       4.60286971      16.77021140       0.06337085       0.01942629      -0.01783242      -3.51169515
Cl      51.62257772      18.61692310      21.80094569      -0.02853839      -0.01631812       0.04522153      -3.49152970
Cl      36.12204613       8.02239133      27.87832053      -0.00891742      -0.03504090      -0.03341976      -3.60686374
Cl      23.05306265      17.90313124      25.58385511       0.13574025       0.02915140       0.09229741      -3.58798432
Cl      55.63862935       1.76374800      54.69311137       0.01977800      -0.02714457      -0.00867945      -3.46430254
Cl      17.81420029      43.77964693       1.62971776       0.02087854       0.09748803      -0.02244351      -3.43896174
Cl      46.23471951      33.98546234      31.03815513       0.00286461       0.13601196      -0.01348824      -3.49981236
Cl      28.19165116      20.36012413      27.22784985      -0.04643234      -0.04319847       0.01515863      -3.54388404
Cl      51.13156526       6.32401461      32.37559382      -0.02221943      -0.00530716       0.01987366      -3.45018554
Cl      34.20086353       4.97706606      25.38506010       0.01753840      -0.02373503      -0.08903686      -3.35208893
Cl      23.73721564      32.19246137      47.37484864       0.02174104       0.03677473      -0.01380528      -3.47890592
Cl      51.07613003      14.74496559      58.04322899      -0.03825169      -0.01051595      -0.04234533      -3.56585312
Cl      19.30834330      45.30686677      54.67731766       0.01859308      -0.05842081       0.05442711      -3.57329082
Cl       1.85420515      35.01258755      52.85756260       0.01317354       0.00818999      -0.00844112      -3.50872946
Cl      40.88787150      26.69679945      23.06783122      -0.01814201      -0.03952040      -0.01241224      -3.54481053
Cl      57.16459440      13.91099792      30.34076277      -0.02425474       0.02292945       0.00567882      -3.37198663
Cl       9.84917411      49.78203048      57.69078293       0.03335095      -0.02090301       0.03171536      -3.58069992
Cl      29.01408966      13.24729842      49.35362828       0.00783302      -0.03857262       0.04165949      -3.55599904
Cl      38.52670460       9.79190867       1.40557486      -0.02252541      -0.00572106      -0.05791051      -3.38100338
Cl      57.65648412      52.25636479      16.09723334      -0.03195317       0.08064041       0.05153512      -3.50392747
Cl      42.99522846      53.51761386       5.05941583      -0.02971384      -0.02081547       0.06126454      -3.42129707
Cl      21.82620899      54.68752144      35.03065727      -0.06408769       0.06236497      -0.05088658      -3.47125554
Cl      10.02122462      56.95106861      41.17242252       0.00262736      -0.02204490      -0.02117806      -3.52582693
Cl      45.23670698      16.72238539      42.32867286      -0.03235833      -0.01762725       0.02591038      -3.46063876
Cl      25.43645671      56.24734267      18.19355347      -0.03447121       0.05333140      -0.04881807      -3.45600748
Cl       6.89900129      43.69734102      47.68445652       0.02607372       0.00161953       0.03742948      -3.58036470
Na      49.11856144       9.22100726      19.33341013       0.04213224      -0.01387982      -0.01321201      -3.22208500
Na       8.99432654      39.43551136      42.61249326      -0.00356069       0.00950553      -0.03653855      -3.34633803
Na      21.33015867      46.24765290      53.03560332      -0.05542746      -0.01902580       0.07114810      -3.33262014
Na      56.78380197      39.06230192      36.81330126      -0.02508541       0.01128534       0.01788327      -3.10017204
Na      23.45335601      30.07387384      31.11397327      -0.01845750       0.02571042      -0.00432519      -3.23844576
Na      13.56316114      10.81982684      29.02454195      -0.00441655      -0.01712610       0.05393684      -3.28085303
Na      30.07150038      21.61662715      25.76038238       0.07707413      -0.00757418      -0.00983474      -3.25330162
Na      58.13373076      48.58279564       7.64605124       0.06332603       0.02148210       0.00033711      -3.29521465
Na      21.59688587      52.20398004      15.98312124       0.03619867      -0.00837938      -0.04424525      -3.38134670
Na      34.21093229      13.46271566      14.63700538      -0.01691494      -0.01610794      -0.01674011      -3.18680215
Na       3.54900892      28.37804956      10.21112663       0.03494323      -0.02767888      -0.06609522      -3.12873459
Na      33.70931246      49.24856678      51.74199192       0.08168793      -0.01661617      -0.04156614      -3.30020046
Na      34.35588149      39.37187162      42.30990209       0.00551742      -0.01259353      -0.05055308      -3.31488442
Na      20.75566956      57.11467347       6.17241302      -0.08751708       0.07050475       0.08352289      -3.21136761
Na      57.11120790      21.42460596      33.32576166       0.02767314       0.05416523       0.02082550      -3.42169905
Na      12.28030480      11.59338589      25.59138957       0.00769358      -0.03888237       0.02121996      -3.32639861
Na       8.49391532       6.18953318      34.81360261      -0.00900557      -0.09757045      -0.03202727      -3.39683294
Na      44.73857541      44.79301037      21.09752069      -0.00486367      -0.01641255      -0.00414654      -3.29213786
Na      12.87060567       0.10350566      32.91805296      -0.01033417      -0.02491484      -0.00660342      -3.31325841
Na       7.83058511       2.66072505      28.09974805      -0.00687273      -0.01287571       0.04319431      -3.26384759
Na      16.66147032      52.26595560      50.69432059       0.03871330      -0.08044665       0.06850287      -3.26194429
Na      26.88737685      21.15475747      14.92501839       0.05124167       0.05361828      -0.00266794      -3.22338629
Na      30.37546530      28.52655862      14.45760647       0.03129565      -0.03725974      -0.00955513      -3.49193525
Na      22.58453280      35.27274601      40.74060868      -0.01876853      -0.02924705       0.02320730      -3.32216501
Na      32.82856842      10.95649100      16.79341648       0.02273570       0.01548937      -0.02632471      -3.22944951
Na      24.04306748       5.04771151      16.51173132       0.03185423       0.07004274      -0.01816086      -3.41883230
Na       3.97868164      32.01174045      27.70354717       0.04003355      -0.11179547       0.09603418      -3.17118979
Na      40.90114028       7.37028980      55.61016854       0.00162489       0.02197025      -0.05145437      -3.14315724
Na      16.39143138      51.37933985       0.99868352      -0.06684284       0.07333199       0.01891391      -3.34517932
Na       4.71502716       5.57183525       3.34042290      -0.00488116      -0.06377766      -0.05718126      -3.31457376
Na      11.67778944      47.29441529       4.54063482       0.05104197      -0.02873986      -0.00195603      -3.40151525
Na      11.34811661      53.51052869      47.09114860      -0.03862355      -0.00342108      -0.00034103      -3.36448646
Na      39.61595490      43.76196068      53.33363227       0.01292079      -0.00870424      -0.01743341      -3.29663491
Na      35.36170384      53.64656417      23.01549730      -0.05630747       0.02575815      -0.00059464      -3.26290393
Na      11.03701778      47.66934251      27.07891056       0.04035683      -0.01638748       0.02384387      -3.30690742
Na      14.78288177      11.53470014      47.26756104       0.05376008      -0.06686442       0.06670237      -3.29147339
Na      53.94774784      18.76029655      52.57351908       0.04315747       0.00848973       0.01299960      -3.34686303
Na      19.47370235      50.13083645      42.42416348      -0.06816068       0.00337295       0.03361962      -3.21867442
Na      29.44862072      47.17789118      44.92281896      -0.07088042      -0.03274741      -0.00049814      -3.25728440
Na      31.86690300      17.87641228      53.80407938       0.03964004       0.01182659       0.10226873      -3.16001248
Na      31.14970523      12.08006850       6.79737322       0.02143849      -0.02759057      -0.00455500      -3.20322800
Na      37.41530449      40.96252721      17.70752484      -0.03373654       0.00276789       0.01235773      -3.35298800
Na      11.57858043      14.56325273      28.17593337       0.03976761       0.01542420      -0.02090272      -3.34509516
Na       2.18596778      24.88739123      25.52897551      -0.09501480       0.01425175       0.08071394      -3.20653248
Na      37.79091492      30.93804437      49.69595673      -0.04924965       0.02973437      -0.02838353      -3.36724782
Na      43.54483253       1.04985715      11.08318166       0.00594316       0.02939332      -0.01050757      -3.27483869
Na      36.66242841      42.75200664      40.94763921      -0.00029407       0.00568656      -0.04272831      -3.17203140
Na      16.35481489      18.82668961      48.28413699      -0.03305929      -0.01404592      -0.08139805      -3.19239664
Na      19.42423493      45.34267408      17.70385722      -0.02801388       0.03798176       0.10845518      -3.10434365
Na      25.71027705      27.63706624       6.06572527       0.06993271      -0.03421929      -0.03567568      -3.17827559
Cl      18.75173099      47.50906546       5.39092321       0.03228663      -0.01773651      -0.19538595      -3.39880610
Cl      43.71252354      38.59174819       9.74115444      -0.02696419      -0.07449480       0.07253082      -3.47207904
Cl      15.38832686      35.58055943      34.85613295       0.03392619      -0.01837896      -0.02507048      -3.53671575
Cl      50.63459900      54.86546146      25.57844814      -0.02319033       0.02256931      -0.03148529      -3.31268716
Cl      18.74290428      37.39523381      16.95034806       0.01772709       0.06799016       0.01250474      -3.56859255
Cl      29.67826096      31.50554390       8.75795451       0.06205937       0.01185210      -0.02211162      -3.56248498
Cl      15.92817785      55.11620854      44.79901466      -0.00961779       0.00397014       0.01024546      -3.49645615
Cl      43.78303862      31.55279324      33.52181451      -0.01357640      -0.02861617       0.00774479      -3.52296925
Cl      34.67564124      36.73240988      35.92894052      -0.01947689       0.08613043       0.04854303      -3.47887731
Cl      10.04838201      35.81302262      24.50408321      -0.09895512       0.05623683      -0.02734075      -3.35641694
Cl      11.65012200      53.63865796      42.09823579       0.03717321      -0.01008099       0.03222366      -3.63277864
Cl      25.21932566      21.86335213       4.12894791      -0.01429401      -0.02857823      -0.05584421      -3.28429008
Cl       5.77229244       4.01774465      -0.04666076      -0.05335404       0.01592676      -0.01417384      -3.44021869
Cl      35.21474437      25.79319286      44.88391477      -0.01260495      -0.01374723      -0.05639644      -3.61602545
Cl      54.22007105      31.38790146      -0.07176194      -0.01457326      -0.02435568       0.01662723      -3.50028443
Cl      26.39524476       4.87797212      36.01802492       0.05450810       0.01124201       0.00219766      -3.37335038
Cl       3.47659581      12.30794823      41.72025730      -0.03442014       0.01195918      -0.00833096      -3.58151817
Cl      25.79449283       0.99197117      20.55872705       0.02023000      -0.01929637       0.02505756      -3.48248672
Cl      32.37602390      14.24057440      22.27673763       0.11852075       0.00571547      -0.10444359      -3.42256498
Cl       3.17465196      10.99487261      48.66899828      -0.05703102      -0.08862264      -0.03391010      -3.53279614
Cl       3.34186891      10.25220057      52.34606309      -0.09135211       0.07485014       0.05401066      -3.52646399
Cl      43.40768374      42.38613612      41.42926220       0.01718505       0.00744950      -0.01914598      -3.48180270
Cl      51.72597547      43.88064309      37.31968894      -0.02885931       0.03540400       0.05829511      -3.51605272
Cl       2.76195356       8.13279964      42.10481942      -0.04244810       0.02267656      -0.01131069      -3.58638287
Cl      56.48900967      19.23473651      31.40207834       0.06337305       0.01942257      -0.01783183      -3.51169467
Cl       7.72697644      33.24879007      36.43281276      -0.02853892      -0.01632223       0.04522145      -3.49152970
Cl      50.75391289      22.65425831      42.51018741      -0.00891688      -0.03504204      -0.03342207      -3.60686374
Cl      37.68492943      32.53499849      40.21572240       0.13573974       0.02914664       0.09229986      -3.58798337
Cl      11.74302796      16.39561522      10.79751019       0.01977931      -0.02714163      -0.00867933      -3.46430230
Cl      32.44606752      58.41151494      16.26158559       0.02087551       0.09748980      -0.02244174      -3.43896461
Cl       2.33911763      48.61732937      45.67002214       0.00286263       0.13601238      -0.01348804      -3.49981260
Cl      42.82351853      34.99199105      41.85971689      -0.04642906      -0.04320148       0.01515585      -3.54388523
Cl       7.23596410      20.95588149      47.00746084      -0.02222083      -0.00530752       0.01987751      -3.45018530
Cl      48.83273059      19.60893287      40.01692728       0.01753913      -0.02373244      -0.08903822      -3.35208821
Cl      38.36908267      46.82432821       3.47924721       0.02174227       0.03677738      -0.01381105      -3.47890782
Cl       7.18052921      29.37683268      14.14762714      -0.03825226      -0.01051809      -0.04234494      -3.56585336
Cl      33.94020964       1.41126539      10.78171605       0.01859364      -0.05842296       0.05442812      -3.57329082
Cl      16.48607238      49.64445494       8.96196153       0.01317498       0.00818858      -0.00844073      -3.50872779
Cl      55.51973864      41.32866626      37.69969847      -0.01814188      -0.03951877      -0.01241611      -3.54481196
Cl      13.26899273      28.54286528      44.97262965      -0.02425689       0.02292950       0.00567845      -3.37198520
Cl      24.48104126       5.88642904      13.79518110       0.03335077      -0.02089924       0.03171808      -3.58070111
Cl      43.64595697      27.87916566       5.45802695       0.00783172      -0.03857221       0.04166280      -3.55600071
Cl      53.15857165      24.42377558      16.03744269      -0.02253560      -0.00572189      -0.05791428      -3.38100266
Cl      13.76088196       8.36076380      30.72910063      -0.03195776       0.08063502       0.05153254      -3.50392795
Cl      57.62709515       9.62201275      19.69128231      -0.02971506      -0.02082014       0.06126497      -3.42129779
Cl      36.45807634      10.79192015      49.66252430      -0.06409029       0.06236977      -0.05088601      -3.47125411
Cl      24.65309128      13.05546744      55.80428987       0.00262710      -0.02204509      -0.02117668      -3.52582765
Cl       1.34110529      31.35425230      56.96054084      -0.03235853      -0.01762896       0.02591082      -3.46063900
Cl      40.06832325      12.35174199      32.82541987      -0.03447374       0.05332880      -0.04881904      -3.45600867
Cl      21.53086856      58.32920855       3.78885494       0.02607286       0.00162120       0.03742601      -3.58036423
Na      49.11856144       9.22100708      33.96527723       0.04213144      -0.01387934      -0.01321387      -3.22208500
Na       8.99432677      39.43551108      57.24436159      -0.00355981       0.00950517      -0.03654446      -3.34633732
Na      21.33015875      46.24765298       9.14000187      -0.05542742      -0.01902699       0.07114520      -3.33261967
Na      56.78380195      39.06230195      51.44516851      -0.02508432       0.01128744       0.01788719      -3.10017204
Na      23.45335615      30.07387394      45.74584022      -0.01845792       0.02570951      -0.00432769      -3.23844695
Na      13.56316084      10.81982683      43.65640863      -0.00441740      -0.01712612       0.05393687      -3.28085303
Na      30.07150033      21.61662711      40.39224920       0.07707423      -0.00757392      -0.00983507      -3.25330162
Na      58.13373076      48.58279568      22.27791818       0.06332614       0.02148102       0.00033721      -3.29521489
Na      21.59688590      52.20398010      30.61498821       0.03619876      -0.00837980      -0.04424446      -3.38134670
Na      34.21093244      13.46271562      29.26887242      -0.01691396      -0.01610607      -0.01674132      -3.18680167
Na       3.54900899      28.37804960      24.84299365       0.03494330      -0.02767918      -0.06609415      -3.12873483
Na      33.70931248      49.24856661       7.84639083       0.08168707      -0.01661845      -0.04156410      -3.30019975
Na      34.35588151      39.37187175      56.94176957       0.00551699      -0.01259336      -0.05055413      -3.31488442
Na      20.75566940      57.11467341      20.80428015      -0.08751713       0.07050506       0.08352408      -3.21136832
Na      57.11120792      21.42460583      47.95762873       0.02766967       0.05416480       0.02082090      -3.42169905
Na      12.28030472      11.59338581      40.22325661       0.00769350      -0.03888331       0.02122269      -3.32639813
Na       8.49391528       6.18953312      49.44546945      -0.00900594      -0.09757065      -0.03202751      -3.39683270
Na      44.73857525      44.79301064      35.72938780      -0.00486451      -0.01641397      -0.00414858      -3.29213786
Na      12.87060573       0.10350567      47.54992000      -0.01033486      -0.02491415      -0.00660508      -3.31325841
Na       7.83058515       2.66072511      42.73161501      -0.00687380      -0.01287780       0.04320074      -3.26384807
Na      16.66147032      52.26595559       6.79871958       0.03871446      -0.08044587       0.06850430      -3.26194453
Na      26.88737693      21.15475752      29.55688541       0.05124102       0.05361558      -0.00266612      -3.22338629
Na      30.37546531      28.52655867      29.08947345       0.03129517      -0.03725969      -0.00955606      -3.49193525
Na      22.58453297      35.27274583      55.37247607      -0.01877271      -0.02924719       0.02321250      -3.32216501
Na      32.82856854      10.95649101      31.42528354       0.02273356       0.01548819      -0.02632015      -3.22944927
Na      24.04306740       5.04771150      31.14359838       0.03185369       0.07004334      -0.01816010      -3.41883230
Na       3.97868176      32.01174029      42.33541414       0.04003074      -0.11179657       0.09603226      -3.17119002
Na      40.90114059       7.37028972      11.71456692       0.00162438       0.02196889      -0.05145741      -3.14315724
Na      16.39143118      51.37933996      15.63055064      -0.06684373       0.07333338       0.01891348      -3.34517932
Na       4.71502716       5.57183502      17.97228971      -0.00488046      -0.06377743      -0.05718102      -3.31457376
Na      11.67778934      47.29441538      19.17250190       0.05104147      -0.02874137      -0.00195789      -3.40151429
Na      11.34811669      53.51052865       3.19554703      -0.03862483      -0.00342216      -0.00034004      -3.36448598
Na      39.61595497      43.76196079       9.43803095       0.01292035      -0.00870359      -0.01743342      -3.29663515
Na      35.36170382      53.64656412      37.64736418      -0.05630754       0.02575908      -0.00059570      -3.26290369
Na      11.03701777      47.66934252      41.71077742       0.04035560      -0.01638778       0.02384668      -3.30690718
Na      14.78288170      11.53470014       3.37195971       0.05375971      -0.06686416       0.06670453      -3.29147339
Na      53.94774789      18.76029647       8.67791783       0.04315693       0.00848930       0.01300529      -3.34686422
Na      19.47370224      50.13083684      57.05603070      -0.06816021       0.00337302       0.03361907      -3.21867442
Na      29.44862086      47.17789054       1.02721767      -0.07088344      -0.03274853      -0.00049897      -3.25728393
Na      31.86690272      17.87641242       9.90847841       0.03963881       0.01182369       0.10226989      -3.16001272
Na      31.14970528      12.08006855      21.42924065       0.02143846      -0.02759109      -0.00455697      -3.20322824
Na      37.41530470      40.96252711      32.33939154      -0.03373646       0.00276802       0.01235947      -3.35298753
Na      11.57858036      14.56325255      42.80780025       0.03976887       0.01542599      -0.02090050      -3.34509540
Na       2.18596787      24.88739128      40.16084232      -0.09501610       0.01425159       0.08071348      -3.20653176
Na      37.79091504      30.93804449       5.80035537      -0.04925046       0.02973378      -0.02838135      -3.36724830
Na      43.54483248       1.04985717      25.71504879       0.00594315       0.02939491      -0.01051005      -3.27483821
Na      36.66242848      42.75200645      55.57950669      -0.00029535       0.00568584      -0.04272755      -3.17203164
Na      16.35481476      18.82668948       4.38853602      -0.03306078      -0.01404478      -0.08139539      -3.19239640
Na      19.42423492      45.34267406      32.33572421      -0.02801440       0.03798191       0.10845461      -3.10434318
Na      25.71027703      27.63706628      20.69759238       0.06993303      -0.03421820      -0.03567149      -3.17827535
Cl      18.75173109      47.50906539      20.02279020       0.03228565      -0.01773581      -0.19538730      -3.39880610
Cl      43.71252363      38.59174819      24.37302146      -0.02696482      -0.07449435       0.07253148      -3.47207928
Cl      15.38832707      35.58055936      49.48800034       0.03392768      -0.01837894      -0.02506763      -3.53671646
Cl      50.63459892      54.86546143      40.21031519      -0.02318908       0.02256863      -0.03148755      -3.31268859
Cl      18.74290431      37.39523379      31.58221507       0.01772717       0.06799120       0.01250481      -3.56859159
Cl      29.67826087      31.50554378      23.38982165       0.06205944       0.01185248      -0.02211138      -3.56248403
Cl      15.92817762      55.11620881       0.90341322      -0.00962005       0.00396843       0.01024471      -3.49645662
Cl      43.78303879      31.55279320      48.15368160      -0.01357618      -0.02861671       0.00774577      -3.52296877
Cl      34.67564128      36.73240979      50.56080744      -0.01947647       0.08612785       0.04854523      -3.47887588
Cl      10.04838213      35.81302265      39.13594998      -0.09895220       0.05623993      -0.02733274      -3.35641599
Cl      11.65012207      53.63865817      56.73010330       0.03717180      -0.01008130       0.03222711      -3.63277912
Cl      25.21932572      21.86335210      18.76081496      -0.01429405      -0.02857955      -0.05584396      -3.28428960
Cl       5.77229240       4.01774424      14.58520810      -0.05335428       0.01592650      -0.01417372      -3.44021916
Cl      35.21474420      25.79319269       0.98831331      -0.01260357      -0.01374831      -0.05639657      -3.61602616
Cl      54.22007093      31.38790125      14.56010601      -0.01457413      -0.02435523       0.01662778      -3.50028443
Cl      26.39524483       4.87797230      50.64989216       0.05450571       0.01124415       0.00220636      -3.37335205
Cl       3.47659608      12.30794838      56.35212507      -0.03442010       0.01196086      -0.00832892      -3.58151770
Cl      25.79449286       0.99197122      35.19059399       0.02022811      -0.01929672       0.02505902      -3.48248696
Cl      32.37602394      14.24057435      36.90860472       0.11852106       0.00571769      -0.10444282      -3.42256546
Cl       3.17465188      10.99487287       4.77339732      -0.05703075      -0.08862190      -0.03391050      -3.53279614
Cl       3.34186873      10.25220054       8.45046192      -0.09135120       0.07485067       0.05400771      -3.52646399
Cl      43.40768368      42.38613630      56.06113004       0.01718558       0.00745092      -0.01914411      -3.48180318
Cl      51.72597552      43.88064319      51.95155554      -0.02885933       0.03540438       0.05829752      -3.51605272
Cl       2.76195366       8.13279983      56.73668679      -0.04244673       0.02267667      -0.01130880      -3.58638167
Cl      56.48900974      19.23473654      46.03394523       0.06337424       0.01942469      -0.01783478      -3.51169348
Cl       7.72697652      33.24879015      51.06467978      -0.02853673      -0.01632158       0.04522532      -3.49152970
Cl      50.75391320      22.65425871      57.14205557      -0.00891389      -0.03503860      -0.03342137      -3.60686398
Cl      37.68492924      32.53499852      54.84758976       0.13573766       0.02914658       0.09228764      -3.58798456
Cl      11.74302789      16.39561516      25.42937704       0.01978014      -0.02714123      -0.00867747      -3.46430182
Cl      32.44606750      58.41151495      30.89345263       0.02087621       0.09749109      -0.02243993      -3.43896484
Cl       2.33911790      48.61732921       1.77442123       0.00286219       0.13601205      -0.01349069      -3.49981284
Cl      42.82351842      34.99199112      56.49158410      -0.04643361      -0.04320233       0.01515949      -3.54388404
Cl       7.23596413      20.95588167       3.11185905      -0.02221946      -0.00530731       0.01987839      -3.45018482
Cl      48.83273058      19.60893305      54.64879392       0.01754077      -0.02373362      -0.08903773      -3.35208893
Cl      38.36908249      46.82432847      18.11111470       0.02174197       0.03677749      -0.01381177      -3.47890735
Cl       7.18052921      29.37683267      28.77949415      -0.03825310      -0.01051828      -0.04234409      -3.56585312
Cl      33.94020968       1.41126542      25.41358301       0.01859331      -0.05842365       0.05442800      -3.57329130
Cl      16.48607240      49.64445487      23.59382867       0.01317431       0.00818893      -0.00843979      -3.50872755
Cl      55.51973863      41.32866638      52.33156568      -0.01814046      -0.03952076      -0.01241001      -3.54481053
Cl      13.26899266      28.54286541       1.07702836      -0.02425638       0.02293025       0.00567542      -3.37198329
Cl      24.48104134       5.88642903      28.42704804       0.03335053      -0.02089905       0.03171845      -3.58070159
Cl      43.64595694      27.87916547      20.08989442       0.00783285      -0.03857452       0.04166044      -3.55599952
Cl      53.15857170      24.42377556      30.66930975      -0.02253561      -0.00572186      -0.05791321      -3.38100314
Cl      13.76088193       8.36076365      45.36096768      -0.03195858       0.08063354       0.05152956      -3.50392652
Cl      57.62709511       9.62201278      34.32314943      -0.02971323      -0.02081853       0.06125963      -3.42129731
Cl      36.45807638      10.79192017       5.76692303      -0.06408968       0.06237018      -0.05088589      -3.47125435
Cl      24.65309127      13.05546728      11.90868833       0.00262759      -0.02204521      -0.02117484      -3.52582741
Cl       1.34110528      31.35425236      13.06493884      -0.03235770      -0.01762756       0.02591118      -3.46063900
Cl      40.06832322      12.35174206      47.45728693      -0.03447264       0.05332944      -0.04881706      -3.45600867
Cl      21.53086856      58.32920861      18.42072240       0.02607277       0.00162193       0.03742484      -3.58036423
Na      49.11856150       9.22100711      48.59714412       0.04212835      -0.01387841      -0.01321369      -3.22208428
Na       8.99432651      39.43551134      13.34875950      -0.00356020       0.00950584      -0.03654364      -3.34633756
Na      21.33015866      46.24765302      23.77186914      -0.05542825      -0.01902749       0.07114358      -3.33261991
Na      56.78380200      39.06230187       7.54956701      -0.02508439       0.01128660       0.01788094      -3.10017204
Na      23.45335581      30.07387439       1.85023861      -0.01845701       0.02571159      -0.00432492      -3.23844600
Na      13.56316116      10.81982668      58.28827668      -0.00441637      -0.01712575       0.05393728      -3.28085303
Na      30.07150024      21.61662726      55.02411684       0.07707366      -0.00757396      -0.00983413      -3.25330210
Na      58.13373060      48.58279555      36.90978528       0.06332508       0.02148344       0.00033510      -3.29521465
Na      21.59688590      52.20398016      45.24685530       0.03619869      -0.00837805      -0.04424735      -3.38134694
Na      34.21093235      13.46271559      43.90073948      -0.01691568      -0.01610631      -0.01673748      -3.18680215
Na       3.54900891      28.37804943      39.47486065       0.03494307      -0.02767717      -0.06609965      -3.12873387
Na      33.70931243      49.24856672      22.47825778       0.08168763      -0.01661846      -0.04156443      -3.30020022
Na      34.35588155      39.37187168      13.04616814       0.00551681      -0.01259361      -0.05055523      -3.31488442
Na      20.75566949      57.11467343      35.43614719      -0.08751826       0.07050459       0.08352478      -3.21136713
Na      57.11120795      21.42460592       4.06202737       0.02767223       0.05416538       0.02082408      -3.42169833
Na      12.28030484      11.59338586      54.85512406       0.00769236      -0.03888120       0.02121110      -3.32639861
Na       8.49391528       6.18953309       5.54986832      -0.00900667      -0.09757119      -0.03202826      -3.39683247
Na      44.73857536      44.79301063      50.36125510      -0.00486396      -0.01641212      -0.00414794      -3.29213786
Na      12.87060570       0.10350553       3.65431874      -0.01033466      -0.02491521      -0.00660525      -3.31325817
Na       7.83058524       2.66072515      57.36348268      -0.00687407      -0.01287647       0.04319735      -3.26384807
Na      16.66147036      52.26595564      21.43058659       0.03871508      -0.08044519       0.06850409      -3.26194429
Na      26.88737694      21.15475744      44.18875255       0.05124132       0.05361643      -0.00266163      -3.22338676
Na      30.37546533      28.52655862      43.72134067       0.03129518      -0.03725954      -0.00955566      -3.49193525
Na      22.58453288      35.27274607      11.47687457      -0.01877087      -0.02924747       0.02320877      -3.32216525
Na      32.82856838      10.95649105      46.05715051       0.02273687       0.01548938      -0.02632540      -3.22944951
Na      24.04306760       5.04771142      45.77546536       0.03185494       0.07004412      -0.01816315      -3.41883278
Na       3.97868167      32.01174040      56.96728147       0.04003261      -0.11179670       0.09603366      -3.17118883
Na      40.90114054       7.37028968      26.34643389       0.00162586       0.02196988      -0.05145600      -3.14315724
Na      16.39143110      51.37933994      30.26241766      -0.06684402       0.07333350       0.01891422      -3.34517884
Na       4.71502716       5.57183505      32.60415668      -0.00488079      -0.06377786      -0.05718142      -3.31457424
Na      11.67778922      47.29441528      33.80436902       0.05104177      -0.02874141      -0.00196078      -3.40151477
Na      11.34811671      53.51052884      17.82741451      -0.03862359      -0.00342146      -0.00033927      -3.36448598
Na      39.61595495      43.76196082      24.06989812       0.01291992      -0.00870357      -0.01743409      -3.29663515
Na      35.36170386      53.64656418      52.27923124      -0.05630785       0.02575774      -0.00059474      -3.26290369
Na      11.03701784      47.66934241      56.34264487       0.04035559      -0.01638506       0.02384961      -3.30690742
Na      14.78288170      11.53470014      18.00382699       0.05375937      -0.06686427       0.06670612      -3.29147387
Na      53.94774782      18.76029652      23.30978498       0.04315792       0.00848889       0.01300190      -3.34686422
Na      19.47370229      50.13083660      13.16042979      -0.06816116       0.00337322       0.03361854      -3.21867442
Na      29.44862073      47.17789121      15.65908489      -0.07088071      -0.03274817      -0.00049835      -3.25728345
Na      31.86690287      17.87641242      24.54034548       0.03963830       0.01182347       0.10226883      -3.16001320
Na      31.14970530      12.08006856      36.06110734       0.02143516      -0.02759081      -0.00455618      -3.20322800
Na      37.41530463      40.96252729      46.97125896      -0.03373671       0.00276757       0.01235582      -3.35298800
Na      11.57858017      14.56325267      57.43966791       0.03976925       0.01542640      -0.02089901      -3.34509516
Na       2.18596806      24.88739123      54.79270970      -0.09501559       0.01425151       0.08071478      -3.20653224
Na      37.79091491      30.93804437      20.43222272      -0.04925063       0.02973340      -0.02838000      -3.36724830
Na      43.54483247       1.04985720      40.34691578       0.00594354       0.02939537      -0.01051025      -3.27483797
Na      36.66242843      42.75200651      11.68390515      -0.00029570       0.00568612      -0.04272975      -3.17203164
Na      16.35481478      18.82668955      19.02040295      -0.03306036      -0.01404460      -0.08139461      -3.19239640
Na      19.42423500      45.34267412      46.96759120      -0.02801408       0.03798110       0.10845430      -3.10434365
Na      25.71027692      27.63706640      35.32945950       0.06993324      -0.03421979      -0.03567719      -3.17827487
Cl      18.75173113      47.50906546      34.65465738       0.03228600      -0.01773526      -0.19538714      -3.39880633
Cl      43.71252355      38.59174836      39.00488842      -0.02696131      -0.07449579       0.07253439      -3.47207880
Cl      15.38832679      35.58055935       5.59239888       0.03392608      -0.01837943      -0.02507167      -3.53671575
Cl      50.63459881      54.86546140      54.84218247      -0.02318893       0.02256857      -0.03148765      -3.31268764
Cl      18.74290425      37.39523382      46.21408208       0.01772789       0.06798998       0.01250689      -3.56859207
Cl      29.67826106      31.50554388      38.02168858       0.06205782       0.01185207      -0.02211519      -3.56248569
Cl      15.92817771      55.11620857      15.53528061      -0.00961706       0.00397001       0.01024486      -3.49645638
Cl      43.78303873      31.55279322       4.25808041      -0.01357705      -0.02861711       0.00774545      -3.52296925
Cl      34.67564127      36.73240972       6.66520631      -0.01947651       0.08613127       0.04854117      -3.47887659
Cl      10.04838219      35.81302254      53.76781751      -0.09895441       0.05623554      -0.02734160      -3.35641861
Cl      11.65012202      53.63865791      12.83450181       0.03717094      -0.01008108       0.03222364      -3.63277864
Cl      25.21932559      21.86335202      33.39268190      -0.01429424      -0.02857934      -0.05584425      -3.28428960
Cl       5.77229239       4.01774421      29.21707514      -0.05335390       0.01592670      -0.01417461      -3.44021869
Cl      35.21474431      25.79319278      15.62018081      -0.01260334      -0.01374913      -0.05639652      -3.61602640
Cl      54.22007099      31.38790122      29.19197287      -0.01457400      -0.02435536       0.01662868      -3.50028515
Cl      26.39524467       4.87797204       6.75429106       0.05450748       0.01124237       0.00219872      -3.37335086
Cl       3.47659591      12.30794821      12.45652350      -0.03441950       0.01196061      -0.00833273      -3.58151722
Cl      25.79449282       0.99197109      49.82246084       0.02022934      -0.01929665       0.02505803      -3.48248768
Cl      32.37602389      14.24057433      51.54047183       0.11852217       0.00571768      -0.10444210      -3.42256522
Cl       3.17465194      10.99487265      19.40526448      -0.05703199      -0.08862127      -0.03390688      -3.53279591
Cl       3.34186881      10.25220055      23.08232892      -0.09135258       0.07485060       0.05400979      -3.52646399
Cl      43.40768368      42.38613622      12.16552832       0.01718520       0.00745012      -0.01914311      -3.48180270
Cl      51.72597548      43.88064321       8.05595449      -0.02885913       0.03540435       0.05829687      -3.51605225
Cl       2.76195352       8.13279970      12.84108543      -0.04244776       0.02267672      -0.01130923      -3.58638215
Cl      56.48900955      19.23473639       2.13834401       0.06337304       0.01942661      -0.01783279      -3.51169443
Cl       7.72697643      33.24878998       7.16907843      -0.02853836      -0.01632125       0.04522105      -3.49152923
Cl      50.75391307      22.65425830      13.24645344      -0.00891513      -0.03503979      -0.03341958      -3.60686445
Cl      37.68492942      32.53499853      10.95198827       0.13573958       0.02914669       0.09229408      -3.58798409
Cl      11.74302790      16.39561535      40.06124415       0.01977891      -0.02714347      -0.00868066      -3.46430230
Cl      32.44606746      58.41151508      45.52531964       0.02087442       0.09749216      -0.02243818      -3.43896461
Cl       2.33911768      48.61732941      16.40628828       0.00286276       0.13601241      -0.01349005      -3.49981332
Cl      42.82351842      34.99199122      12.59598289      -0.04643364      -0.04320297       0.01515991      -3.54388452
Cl       7.23596413      20.95588160      17.74372676      -0.02221914      -0.00530697       0.01987875      -3.45018411
Cl      48.83273057      19.60893285      10.75319298       0.01753875      -0.02373358      -0.08903944      -3.35208821
Cl      38.36908255      46.82432822      32.74298201       0.02174181       0.03677701      -0.01380890      -3.47890735
Cl       7.18052928      29.37683265      43.41136112      -0.03825260      -0.01051737      -0.04234577      -3.56585383
Cl      33.94020962       1.41126552      40.04545019       0.01859127      -0.05842078       0.05443213      -3.57329082
Cl      16.48607238      49.64445478      38.22569580       0.01317322       0.00819162      -0.00844281      -3.50872922
Cl      55.51973865      41.32866629       8.43596442      -0.01814085      -0.03952018      -0.01241268      -3.54481077
Cl      13.26899268      28.54286525      15.70889550      -0.02425760       0.02292978       0.00568062      -3.37198496
Cl      24.48104134       5.88642903      43.05891521       0.03335200      -0.02089914       0.03171748      -3.58070111
Cl      43.64595685      27.87916538      34.72176135       0.00783422      -0.03857139       0.04166537      -3.55599904
Cl      53.15857174      24.42377552      45.30117680      -0.02253657      -0.00572180      -0.05791787      -3.38100123
Cl      13.76088194       8.36076362       1.46536616      -0.03195743       0.08063580       0.05153298      -3.50392771
Cl      57.62709502       9.62201282      48.95501604      -0.02971412      -0.02082104       0.06126159      -3.42129850
Cl      36.45807637      10.79192016      20.39879033      -0.06408975       0.06236962      -0.05088527      -3.47125459
Cl      24.65309124      13.05546727      26.54055542       0.00262797      -0.02204544      -0.02117523      -3.52582717
Cl       1.34110529      31.35425237      27.69680574      -0.03235887      -0.01762856       0.02591137      -3.46063900
Cl      40.06832331      12.35174179       3.56168589      -0.03447263       0.05332973      -0.04881807      -3.45600939
Cl      21.53086849      58.32920871      33.05258905       0.02607274       0.00162171       0.03742636      -3.58036470
Na      49.11856127       9.22100726       4.70154300       0.04213180      -0.01388128      -0.01321106      -3.22208500
Na       8.99432645      39.43551138      27.98062652      -0.00355957       0.00950532      -0.03654530      -3.34633732
Na      21.33015875      46.24765301      38.40373579      -0.05543048      -0.01902714       0.07114599      -3.33261991
Na      56.78380189      39.06230198      22.18143424      -0.02508437       0.01128643       0.01788006      -3.10017228
Na      23.45335609      30.07387407      16.48210633      -0.01845774       0.02571055      -0.00432565      -3.23844600
Na      13.56316109      10.81982679      14.39267490      -0.00441558      -0.01712591       0.05393735      -3.28085351
Na      30.07150039      21.61662713      11.12851521       0.07707477      -0.00757389      -0.00983502      -3.25330210
Na      58.13373064      48.58279564      51.54165195       0.06332561       0.02148176       0.00033639      -3.29521441
Na      21.59688571      52.20397990       1.35125343       0.03619783      -0.00838030      -0.04424563      -3.38134670
Na      34.21093228      13.46271566       0.00513770      -0.01691468      -0.01610835      -0.01673971      -3.18680215
Na       3.54900909      28.37804947      54.10672809       0.03494244      -0.02767745      -0.06609993      -3.12873483
Na      33.70931247      49.24856672      37.11012468       0.08168899      -0.01661590      -0.04156596      -3.30020022
Na      34.35588141      39.37187172      27.67803519       0.00551715      -0.01259393      -0.05055634      -3.31488395
Na      20.75566955      57.11467347      50.06801414      -0.08751796       0.07050439       0.08352457      -3.21136737
Na      57.11120789      21.42460596      18.69389469       0.02767179       0.05416581       0.02082306      -3.42169905
Na      12.28030476      11.59338589      10.95952252       0.00769369      -0.03888269       0.02121856      -3.32639885
Na       8.49391522       6.18953316      20.18173554      -0.00900640      -0.09757094      -0.03202929      -3.39683270
Na      44.73857505      44.79301061       6.46565373      -0.00486421      -0.01641291      -0.00414795      -3.29213786
Na      12.87060574       0.10350561      18.28618598      -0.01033507      -0.02491511      -0.00660528      -3.31325817
Na       7.83058514       2.66072513      13.46788110      -0.00687350      -0.01287580       0.04319530      -3.26384807
Na      16.66147048      52.26595568      36.06245374       0.03871344      -0.08044596       0.06850248      -3.26194453
Na      26.88737727      21.15475715       0.29315056       0.05124287       0.05361691      -0.00266813      -3.22338676
Na      30.37546540      28.52655869      58.35320822       0.03129475      -0.03725978      -0.00955205      -3.49193549
Na      22.58453285      35.27274607      26.10874161      -0.01877113      -0.02924775       0.02320815      -3.32216454
Na      32.82856818      10.95649108       2.16154904       0.02273544       0.01548895      -0.02632266      -3.22944951
Na      24.04306753       5.04771136       1.87986376       0.03185397       0.07004221      -0.01815984      -3.41883230
Na       3.97868164      32.01174037      13.07168035       0.04003225      -0.11179642       0.09603225      -3.17118979
Na      40.90114038       7.37028971      40.97830093       0.00162091       0.02196635      -0.05146204      -3.14315724
Na      16.39143114      51.37933997      44.89428465      -0.06684426       0.07333335       0.01891529      -3.34517956
Na       4.71502714       5.57183504      47.23602367      -0.00488154      -0.06377766      -0.05718086      -3.31457400
Na      11.67778926      47.29441531      48.43623576       0.05104186      -0.02874199      -0.00196055      -3.40151477
Na      11.34811672      53.51052886      32.45928166      -0.03862405      -0.00342106      -0.00034071      -3.36448574
Na      39.61595482      43.76196073      38.70176489       0.01292132      -0.00870205      -0.01742849      -3.29663515
Na      35.36170388      53.64656414       8.38363026      -0.05631213       0.02575837      -0.00059443      -3.26290321
Na      11.03701775      47.66934252      12.44704357       0.04035700      -0.01638622       0.02384501      -3.30690718
Na      14.78288170      11.53470015      32.63569410       0.05375841      -0.06686531       0.06670813      -3.29147339
Na      53.94774795      18.76029654      37.94165198       0.04315655       0.00848921       0.01300605      -3.34686399
Na      19.47370233      50.13083647      27.79229681      -0.06816121       0.00337327       0.03361810      -3.21867442
Na      29.44862073      47.17789120      30.29095195      -0.07088080      -0.03274790      -0.00049845      -3.25728345
Na      31.86690272      17.87641236      39.17221231       0.03964041       0.01182491       0.10227093      -3.16001225
Na      31.14970529      12.08006857      50.69297481       0.02143601      -0.02759083      -0.00455543      -3.20322776
Na      37.41530475      40.96252704       3.07565726      -0.03373630       0.00276785       0.01235801      -3.35298824
Na      11.57858037      14.56325273      13.54406633       0.03976955       0.01542484      -0.02090196      -3.34509587
Na       2.18596779      24.88739125      10.89710844      -0.09501605       0.01425180       0.08071671      -3.20653200
Na      37.79091500      30.93804450      35.06408923      -0.04925002       0.02973435      -0.02838345      -3.36724782
Na      43.54483245       1.04985707      54.97878327       0.00594373       0.02939372      -0.01050657      -3.27483773
Na      36.66242850      42.75200662      26.31577225      -0.00029549       0.00568595      -0.04273070      -3.17203188
Na      16.35481493      18.82668952      33.65226972      -0.03305941      -0.01404573      -0.08139656      -3.19239664
Na      19.42423456      45.34267374       3.07199028      -0.02801486       0.03798143       0.10845411      -3.10434365
Na      25.71027702      27.63706614      49.96132664       0.06993327      -0.03421906      -0.03567629      -3.17827535
Cl      18.75173105      47.50906542      49.28652434       0.03228576      -0.01773499      -0.19538711      -3.39880514
Cl      43.71252381      38.59174825      53.63675554      -0.02696561      -0.07449578       0.07252933      -3.47207904
Cl      15.38832690      35.58055970      20.22426598       0.03392625      -0.01838034      -0.02507247      -3.53671646
Cl      50.63459896      54.86546138      10.94658108      -0.02318981       0.02256945      -0.03148731      -3.31268716
Cl      18.74290409      37.39523385       2.31848105       0.01772619       0.06798993       0.01250460      -3.56859255
Cl      29.67826078      31.50554380      52.65355576       0.06206001       0.01185271      -0.02211276      -3.56248546
Cl      15.92817781      55.11620858      30.16714768      -0.00961866       0.00396983       0.01024098      -3.49645686
Cl      43.78303886      31.55279321      18.88994764      -0.01357672      -0.02861662       0.00774478      -3.52296972
Cl      34.67564129      36.73240974      21.29707347      -0.01947572       0.08613098       0.04854129      -3.47887588
Cl      10.04838193      35.81302260       9.87221618      -0.09895466       0.05623682      -0.02733904      -3.35641646
Cl      11.65012196      53.63865798      27.46636882       0.03717163      -0.01008194       0.03222195      -3.63277864
Cl      25.21932572      21.86335179      48.02454911      -0.01429485      -0.02857924      -0.05584227      -3.28428960
Cl       5.77229227       4.01774424      43.84894200      -0.05335158       0.01592730      -0.01417425      -3.44021893
Cl      35.21474416      25.79319272      30.25204783      -0.01260279      -0.01374825      -0.05639716      -3.61602664
Cl      54.22007093      31.38790126      43.82384024      -0.01457343      -0.02435489       0.01662631      -3.50028443
Cl      26.39524470       4.87797214      21.38615818       0.05450627       0.01124346       0.00220088      -3.37335110
Cl       3.47659596      12.30794811      27.08839059      -0.03441953       0.01196037      -0.00833160      -3.58151770
Cl      25.79449280       0.99197110       5.92685984       0.02022989      -0.01929600       0.02505764      -3.48248696
Cl      32.37602386      14.24057437       7.64487062       0.11851948       0.00571557      -0.10444691      -3.42256498
Cl       3.17465189      10.99487257      34.03713138      -0.05703064      -0.08862111      -0.03391338      -3.53279614
Cl       3.34186878      10.25220059      37.71419613      -0.09135167       0.07485051       0.05401145      -3.52646351
Cl      43.40768374      42.38613624      26.79739521       0.01718476       0.00744938      -0.01914280      -3.48180318
Cl      51.72597552      43.88064311      22.68782168      -0.02885920       0.03540401       0.05829729      -3.51605225
Cl       2.76195345       8.13279972      27.47295237      -0.04244744       0.02267711      -0.01130898      -3.58638120
Cl      56.48900968      19.23473651      16.77021137       0.06337338       0.01942337      -0.01783210      -3.51169443
Cl       7.72697638      33.24879001      21.80094559      -0.02853798      -0.01632124       0.04522157      -3.49152875
Cl      50.75391304      22.65425837      27.87832045      -0.00891851      -0.03504156      -0.03341957      -3.60686326
Cl      37.68492953      32.53499849      25.58385510       0.13573977       0.02914691       0.09229715      -3.58798432
Cl      11.74302793      16.39561543      54.69311138       0.01977911      -0.02714201      -0.00868006      -3.46430302
Cl      32.44606748      58.41151482       1.62971791       0.02087584       0.09748961      -0.02244300      -3.43896341
Cl       2.33911767      48.61732931      31.03815520       0.00286145       0.13601236      -0.01348882      -3.49981236
Cl      42.82351843      34.99199121      27.22784976      -0.04643321      -0.04320215       0.01515958      -3.54388523
Cl       7.23596398      20.95588171      32.37559347      -0.02221829      -0.00530619       0.01987622      -3.45018411
Cl      48.83273044      19.60893279      25.38505991       0.01753805      -0.02373369      -0.08903761      -3.35208964
Cl      38.36908256      46.82432835      47.37484866       0.02174139       0.03677757      -0.01380545      -3.47890735
Cl       7.18052928      29.37683249      58.04322895      -0.03825296      -0.01051800      -0.04234440      -3.56585312
Cl      33.94020955       1.41126562      54.67731693       0.01859365      -0.05842423       0.05442584      -3.57329106
Cl      16.48607238      49.64445486      52.85756268       0.01317309       0.00818920      -0.00844119      -3.50872827
Cl      55.51973857      41.32866630      23.06783152      -0.01813994      -0.03952158      -0.01240556      -3.54481053
Cl      13.26899262      28.54286528      30.34076263      -0.02425707       0.02292955       0.00567938      -3.37198544
Cl      24.48104126       5.88642906      57.69078284       0.03335129      -0.02089913       0.03171518      -3.58070016
Cl      43.64595682      27.87916528      49.35362814       0.00783451      -0.03857128       0.04166783      -3.55599999
Cl      53.15857179      24.42377560       1.40557505      -0.02253523      -0.00572184      -0.05791302      -3.38100290
Cl      13.76088188       8.36076369      16.09723367      -0.03195542       0.08063579       0.05153403      -3.50392771
Cl      57.62709520       9.62201278       5.05941510      -0.02971463      -0.02082010       0.06126545      -3.42129731
Cl      36.45807636      10.79192007      35.03065732      -0.06408991       0.06236960      -0.05088729      -3.47125316
Cl      24.65309133      13.05546722      41.17242244       0.00262709      -0.02204596      -0.02117842      -3.52582693
Cl       1.34110530      31.35425243      42.32867283      -0.03235901      -0.01762906       0.02590929      -3.46063900
Cl      40.06832319      12.35174204      18.19355309      -0.03447304       0.05332776      -0.04882263      -3.45600891
Cl      21.53086847      58.32920866      47.68445642       0.02607241       0.00162124       0.03742726      -3.58036470
Na      49.11856136      23.85287414      19.33341020       0.04213298      -0.01388213      -0.01321089      -3.22208452
Na       8.99432657      54.06737811      42.61249339      -0.00355993       0.00950633      -0.03653891      -3.34633803
Na      21.33015878       2.35205159      53.03560331      -0.05542792      -0.01902283       0.07114719      -3.33262014
Na      56.78380162      53.69416906      36.81330116      -0.02508651       0.01128667       0.01788311      -3.10017252
Na      23.45335596      44.70574086      31.11397320      -0.01845884       0.02570871      -0.00432563      -3.23844552
Na      13.56316108      25.45169378      29.02454186      -0.00441672      -0.01712596       0.05393668      -3.28085303
Na      30.07150031      36.24849420      25.76038247       0.07707502      -0.00757289      -0.00983563      -3.25330257
Na      58.13373075       4.68719430       7.64605113       0.06332614       0.02148088       0.00033728      -3.29521465
Na      21.59688602       8.30837911      15.98312121       0.03619695      -0.00838224      -0.04424390      -3.38134670
Na      34.21093218      28.09458270      14.63700540      -0.01691377      -0.01610974      -0.01673982      -3.18680263
Na       3.54900895      43.00991655      10.21112659       0.03494186      -0.02768493      -0.06609269      -3.12873459
Na      33.70931248       5.35296584      51.74199189       0.08168866      -0.01661988      -0.04156463      -3.30020022
Na      34.35588163      54.00373861      42.30990218       0.00551728      -0.01259220      -0.05055299      -3.31488490
Na      20.75566860      13.21907192       6.17241330      -0.08751678       0.07050291       0.08352250      -3.21136856
Na      57.11120790      36.05647287      33.32576154       0.02767168       0.05416586       0.02082545      -3.42169929
Na      12.28030479      26.22525298      25.59138964       0.00769325      -0.03888202       0.02121993      -3.32639861
Na       8.49391530      20.82140031      34.81360260      -0.00900554      -0.09757032      -0.03202792      -3.39683270
Na      44.73857497       0.89740837      21.09752103      -0.00486445      -0.01640869      -0.00414542      -3.29213786
Na      12.87060536      14.73537314      32.91805313      -0.01033493      -0.02491581      -0.00660292      -3.31325889
Na       7.83058522      17.29259277      28.09974826      -0.00687423      -0.01287716       0.04319573      -3.26384807
Na      16.66147035       8.37035448      50.69432071       0.03871523      -0.08044325       0.06850445      -3.26194334
Na      26.88737687      35.78662457      14.92501837       0.05124036       0.05361484      -0.00266848      -3.22338724
Na      30.37546539      43.15842556      14.45760643       0.03129594      -0.03726009      -0.00955446      -3.49193525
Na      22.58453270      49.90461321      40.74060869      -0.01876552      -0.02924603       0.02320582      -3.32216501
Na      32.82856844      25.58835803      16.79341648       0.02273495       0.01548964      -0.02632556      -3.22944951
Na      24.04306754      19.67957900      16.51173122       0.03185452       0.07004253      -0.01816172      -3.41883230
Na       3.97868154      46.64360740      27.70354700       0.04003397      -0.11179648       0.09603502      -3.17119002
Na      40.90114030      22.00215704      55.61016855       0.00162547       0.02196907      -0.05145459      -3.14315724
Na      16.39143146       7.48373876       0.99868354      -0.06684195       0.07333370       0.01891438      -3.34517884
Na       4.71502713      20.20370240       3.34042277      -0.00488219      -0.06377939      -0.05718089      -3.31457400
Na      11.67778952       3.39881353       4.54063470       0.05104110      -0.02874081      -0.00195691      -3.40151477
Na      11.34811661       9.61492734      47.09114846      -0.03862419      -0.00342042      -0.00034075      -3.36448598
Na      39.61595489      58.39382828      53.33363234       0.01292144      -0.00870558      -0.01743208      -3.29663515
Na      35.36170388       9.75096316      23.01549733      -0.05631208       0.02575898      -0.00059481      -3.26290393
Na      11.03701770       3.77374115      27.07891074       0.04035774      -0.01638927       0.02384436      -3.30690742
Na      14.78288172      26.16656707      47.26756115       0.05375995      -0.06686382       0.06670290      -3.29147339
Na      53.94774787      33.39216354      52.57351898       0.04315843       0.00849101       0.01299971      -3.34686399
Na      19.47370257       6.23523537      42.42416345      -0.06816235       0.00337321       0.03361968      -3.21867466
Na      29.44862075       3.28228986      44.92281849      -0.07088138      -0.03274599      -0.00049789      -3.25728345
Na      31.86690298      32.50827922      53.80407942       0.03964035       0.01182970       0.10226867      -3.16001248
Na      31.14970521      26.71193558       6.79737319       0.02143876      -0.02758759      -0.00455519      -3.20322824
Na      37.41530503      55.59439470      17.70752476      -0.03373694       0.00276984       0.01235861      -3.35298777
Na      11.57858041      29.19511967      28.17593338       0.03976780       0.01542310      -0.02090280      -3.34509540
Na       2.18596774      39.51925824      25.52897549      -0.09501339       0.01425410       0.08071205      -3.20653248
Na      37.79091481      45.56991146      49.69595679      -0.04924913       0.02973060      -0.02838275      -3.36724806
Na      43.54483219      15.68172488      11.08318176       0.00595355       0.02939247      -0.01050689      -3.27483821
Na      36.66242895      57.38387322      40.94763929      -0.00029217       0.00569024      -0.04272619      -3.17203140
Na      16.35481489      33.45855631      48.28413678      -0.03305927      -0.01404798      -0.08139917      -3.19239664
Na      19.42423446       1.44707238      17.70385641      -0.02801140       0.03798401       0.10845796      -3.10434294
Na      25.71027704      42.26893297       6.06572529       0.06993204      -0.03421889      -0.03567502      -3.17827582
Cl      18.75173105       3.61346421       5.39092331       0.03228644      -0.01773688      -0.19538657      -3.39880633
Cl      43.71252345      53.22361535       9.74115463      -0.02696435      -0.07449421       0.07252973      -3.47207761
Cl      15.38832692      50.21242657      34.85613302       0.03392645      -0.01837938      -0.02507033      -3.53671575
Cl      50.63459867      10.96986026      25.57844795      -0.02318930       0.02257245      -0.03148600      -3.31268668
Cl      18.74290436      52.02710096      16.95034810       0.01772687       0.06799111       0.01250479      -3.56859398
Cl      29.67826105      46.13741073       8.75795455       0.06206103       0.01185563      -0.02210986      -3.56248498
Cl      15.92817820      11.22060699      44.79901460      -0.00962009       0.00396734       0.01024504      -3.49645662
Cl      43.78303865      46.18465965      33.52181478      -0.01357466      -0.02861102       0.00774386      -3.52296925
Cl      34.67564149      51.36427715      35.92894009      -0.01947684       0.08612873       0.04854449      -3.47887731
Cl      10.04838198      50.44488971      24.50408322      -0.09895523       0.05623589      -0.02734190      -3.35641694
Cl      11.65012205       9.74305665      42.09823608       0.03717354      -0.01008575       0.03222329      -3.63277888
Cl      25.21932573      36.49521926       4.12894800      -0.01429392      -0.02857931      -0.05584454      -3.28428864
Cl       5.77229241      18.64961216      -0.04666075      -0.05335369       0.01592671      -0.01417494      -3.44021869
Cl      35.21474436      40.42506004      44.88391473      -0.01260361      -0.01375244      -0.05639502      -3.61602592
Cl      54.22007119      46.01976854      -0.07176210      -0.01457356      -0.02435023       0.01662735      -3.50028515
Cl      26.39524483      19.50983971      36.01802511       0.05450765       0.01124161       0.00219865      -3.37335038
Cl       3.47659589      26.93981532      41.72025736      -0.03442020       0.01195944      -0.00833104      -3.58151841
Cl      25.79449260      15.62383902      20.55872776       0.02022956      -0.01930207       0.02505831      -3.48248601
Cl      32.37602386      28.87244132      22.27673755       0.11851988       0.00571512      -0.10444415      -3.42256474
Cl       3.17465181      25.62673967      48.66899825      -0.05703104      -0.08862248      -0.03390992      -3.53279734
Cl       3.34186891      24.88406757      52.34606309      -0.09135190       0.07485013       0.05401056      -3.52646399
Cl      43.40768361      57.01800368      41.42926202       0.01718809       0.00744937      -0.01914080      -3.48180270
Cl      51.72597571      58.51251115      37.31968892      -0.02885813       0.03539889       0.05829641      -3.51605320
Cl       2.76195352      22.76466661      42.10481942      -0.04244841       0.02267727      -0.01131113      -3.58638287
Cl      56.48900974      33.86660352      31.40207821       0.06337299       0.01942445      -0.01783262      -3.51169419
Cl       7.72697639      47.88065708      36.43281262      -0.02853864      -0.01632031       0.04522125      -3.49153090
Cl      50.75391304      37.28612538      42.51018732      -0.00891259      -0.03503884      -0.03342108      -3.60686493
Cl      37.68492930      47.16686520      40.21572247       0.13574037       0.02914841       0.09230001      -3.58798409
Cl      11.74302795      31.02748234      10.79751011       0.01978021      -0.02714589      -0.00868100      -3.46430302
Cl      32.44606748      14.51591328      16.26158570       0.02087673       0.09748989      -0.02244128      -3.43896294
Cl       2.33911771       4.72172813      45.67002220       0.00286195       0.13601139      -0.01348828      -3.49981380
Cl      42.82351859      49.62385800      41.85971687      -0.04642925      -0.04320270       0.01515549      -3.54388452
Cl       7.23596401      35.58774848      47.00746096      -0.02222030      -0.00531130       0.01987925      -3.45018506
Cl      48.83273048      34.24079996      40.01692737       0.01753929      -0.02373263      -0.08903711      -3.35208654
Cl      38.36908258       2.92872684       3.47924719       0.02174221       0.03677840      -0.01381108      -3.47890735
Cl       7.18052910      44.00869938      14.14762713      -0.03824994      -0.01051074      -0.04234507      -3.56585288
Cl      33.94021016      16.04313257      10.78171663       0.01859583      -0.05842020       0.05442845      -3.57329130
Cl      16.48607242       5.74885357       8.96196172       0.01317389       0.00819283      -0.00844071      -3.50872874
Cl      55.51973878      55.96053386      37.69969864      -0.01814277      -0.03951684      -0.01241702      -3.54481006
Cl      13.26899262      43.17473239      44.97262954      -0.02425748       0.02293034       0.00567936      -3.37198472
Cl      24.48104134      20.51829624      13.79518115       0.03334949      -0.02089751       0.03171783      -3.58070111
Cl      43.64595700      42.51103262       5.45802705       0.00783325      -0.03857194       0.04166406      -3.55599976
Cl      53.15857166      39.05564253      16.03744281      -0.02253668      -0.00571995      -0.05791504      -3.38100219
Cl      13.76088195      22.99263087      30.72910057      -0.03195734       0.08063606       0.05153250      -3.50392771
Cl      57.62709504      24.25387971      19.69128232      -0.02971468      -0.02081927       0.06126581      -3.42129779
Cl      36.45807631      25.42378706      49.66252425      -0.06408972       0.06237063      -0.05088579      -3.47125483
Cl      24.65309124      27.68733451      55.80428990       0.00262713      -0.02204414      -0.02117677      -3.52582765
Cl       1.34110527      45.98611930      56.96054088      -0.03235837      -0.01762806       0.02591073      -3.46063900
Cl      40.06832327      26.98360896      32.82541984      -0.03447372       0.05332917      -0.04881852      -3.45600939
Cl      21.53086818      14.43360701       3.78885519       0.02607278       0.00162108       0.03742602      -3.58036351
Na      49.11856143      23.85287410      33.96527720       0.04212868      -0.01387836      -0.01321426      -3.22208452
Na       8.99432682      54.06737796      57.24436140      -0.00355945       0.00950568      -0.03654437      -3.34633756
Na      21.33015871       2.35205167       9.14000204      -0.05542877      -0.01902449       0.07114486      -3.33262014
Na      56.78380168      53.69416909      51.44516846      -0.02508562       0.01128773       0.01788668      -3.10017228
Na      23.45335599      44.70574089      45.74584013      -0.01845890       0.02570689      -0.00432866      -3.23844695
Na      13.56316087      25.45169384      43.65640869      -0.00441771      -0.01712618       0.05393657      -3.28085303
Na      30.07150034      36.24849397      40.39224931       0.07707408      -0.00757406      -0.00983560      -3.25330162
Na      58.13373080       4.68719432      22.27791810       0.06332593       0.02148040       0.00033737      -3.29521465
Na      21.59688604       8.30837905      30.61498818       0.03619701      -0.00838331      -0.04424286      -3.38134670
Na      34.21093222      28.09458270      29.26887240      -0.01691257      -0.01610964      -0.01674168      -3.18680215
Na       3.54900892      43.00991649      24.84299357       0.03494245      -0.02768441      -0.06609234      -3.12873459
Na      33.70931232       5.35296561       7.84639082       0.08168808      -0.01662088      -0.04156320      -3.30019975
Na      34.35588180      54.00373857      56.94176961       0.00551708      -0.01259340      -0.05055358      -3.31488514
Na      20.75566862      13.21907183      20.80428035      -0.08751814       0.07050561       0.08352198      -3.21136856
Na      57.11120781      36.05647274      47.95762849       0.02766849       0.05416553       0.02082087      -3.42169952
Na      12.28030475      26.22525296      40.22325663       0.00769338      -0.03888268       0.02122252      -3.32639837
Na       8.49391526      20.82140035      49.44546949      -0.00900523      -0.09757075      -0.03202765      -3.39683199
Na      44.73857485       0.89740854      35.72938808      -0.00486435      -0.01641175      -0.00415049      -3.29213786
Na      12.87060539      14.73537326      47.54992008      -0.01033460      -0.02491602      -0.00660273      -3.31325889
Na       7.83058531      17.29259277      42.73161505      -0.00687517      -0.01287929       0.04320245      -3.26384878
Na      16.66147036       8.37035442       6.79871957       0.03871571      -0.08044195       0.06850551      -3.26194334
Na      26.88737685      35.78662455      29.55688536       0.05124226       0.05361615      -0.00266530      -3.22338700
Na      30.37546532      43.15842555      29.08947341       0.03129537      -0.03726014      -0.00955509      -3.49193525
Na      22.58453297      49.90461298      55.37247606      -0.01877118      -0.02924650       0.02321160      -3.32216430
Na      32.82856855      25.58835809      31.42528350       0.02273350       0.01548896      -0.02632104      -3.22944951
Na      24.04306751      19.67957894      31.14359834       0.03185401       0.07004333      -0.01816097      -3.41883206
Na       3.97868164      46.64360732      42.33541403       0.04003113      -0.11179756       0.09603323      -3.17119026
Na      40.90114052      22.00215709      11.71456694       0.00162511       0.02196918      -0.05145740      -3.14315724
Na      16.39143127       7.48373903      15.63055060      -0.06684373       0.07333416       0.01891420      -3.34517932
Na       4.71502720      20.20370228      17.97228954      -0.00488209      -0.06377957      -0.05718093      -3.31457400
Na      11.67778945       3.39881351      19.17250177       0.05104083      -0.02874202      -0.00195820      -3.40151501
Na      11.34811659       9.61492728       3.19554698      -0.03862523      -0.00342066      -0.00034024      -3.36448526
Na      39.61595495      58.39382832       9.43803113       0.01292154      -0.00870361      -0.01743223      -3.29663539
Na      35.36170383       9.75096315      37.64736423      -0.05630758       0.02575806      -0.00059572      -3.26290369
Na      11.03701772       3.77374116      41.71077771       0.04035622      -0.01638946       0.02384737      -3.30690718
Na      14.78288164      26.16656710       3.37195968       0.05375905      -0.06686372       0.06670511      -3.29147387
Na      53.94774792      33.39216364       8.67791772       0.04315589       0.00849031       0.01300622      -3.34686470
Na      19.47370248       6.23523569      57.05603073      -0.06816274       0.00337308       0.03361899      -3.21867394
Na      29.44862077       3.28228942       1.02721747      -0.07088041      -0.03274700      -0.00049872      -3.25728369
Na      31.86690262      32.50827931       9.90847844       0.03963985       0.01182881       0.10226942      -3.16001320
Na      31.14970525      26.71193570      21.42924063       0.02143887      -0.02758867      -0.00455660      -3.20322847
Na      37.41530502      55.59439468      32.33939160      -0.03373665       0.00277023       0.01236084      -3.35298777
Na      11.57858034      29.19511954      42.80780022       0.03976890       0.01542476      -0.02090089      -3.34509516
Na       2.18596778      39.51925825      40.16084228      -0.09501404       0.01425424       0.08071206      -3.20653200
Na      37.79091492      45.56991157       5.80035543      -0.04924981       0.02973026      -0.02838029      -3.36724830
Na      43.54483218      15.68172483      25.71504889       0.00595403       0.02939444      -0.01050991      -3.27483845
Na      36.66242908      57.38387314      55.57950710      -0.00029399       0.00568604      -0.04272686      -3.17203069
Na      16.35481467      33.45855617       4.38853596      -0.03305978      -0.01404731      -0.08139606      -3.19239616
Na      19.42423446       1.44707236      32.33572348      -0.02801332       0.03798351       0.10845607      -3.10434198
Na      25.71027697      42.26893292      20.69759225       0.06993289      -0.03421771      -0.03567141      -3.17827535
Cl      18.75173109       3.61346418      20.02279030       0.03228581      -0.01773614      -0.19538687      -3.39880538
Cl      43.71252337      53.22361536      24.37302159      -0.02696534      -0.07449356       0.07252958      -3.47207904
Cl      15.38832712      50.21242645      49.48800044       0.03392803      -0.01837923      -0.02506795      -3.53671646
Cl      50.63459869      10.96986022      40.21031486      -0.02318933       0.02257245      -0.03148737      -3.31268644
Cl      18.74290430      52.02710102      31.58221513       0.01772765       0.06799099       0.01250514      -3.56859374
Cl      29.67826111      46.13741070      23.38982163       0.06206131       0.01185576      -0.02211024      -3.56248474
Cl      15.92817796      11.22060709       0.90341311      -0.00962067       0.00396664       0.01024494      -3.49645662
Cl      43.78303854      46.18465964      48.15368167      -0.01357441      -0.02861224       0.00774501      -3.52296877
Cl      34.67564149      51.36427711      50.56080694      -0.01947648       0.08612891       0.04854416      -3.47887754
Cl      10.04838211      50.44488982      39.13595001      -0.09895240       0.05623877      -0.02733324      -3.35641599
Cl      11.65012208       9.74305682      56.73010356       0.03717163      -0.01008967       0.03222574      -3.63277912
Cl      25.21932585      36.49521912      18.76081491      -0.01429385      -0.02858040      -0.05584402      -3.28428888
Cl       5.77229235      18.64961171      14.58520815      -0.05335241       0.01592571      -0.01417474      -3.44021845
Cl      35.21474453      40.42505987       0.98831324      -0.01260230      -0.01375361      -0.05639540      -3.61602712
Cl      54.22007111      46.01976834      14.56010593      -0.01457419      -0.02435011       0.01662664      -3.50028658
Cl      26.39524460      19.50983974      50.64989216       0.05450873       0.01124403       0.00220831      -3.37335038
Cl       3.47659611      26.93981554      56.35212505      -0.03442031       0.01196037      -0.00832898      -3.58151793
Cl      25.79449272      15.62383925      35.19059465       0.02022772      -0.01930252       0.02505982      -3.48248601
Cl      32.37602400      28.87244137      36.90860490       0.11851968       0.00571576      -0.10444400      -3.42256498
Cl       3.17465183      25.62673996       4.77339729      -0.05703133      -0.08862148      -0.03391050      -3.53279662
Cl       3.34186875      24.88406763       8.45046195      -0.09135094       0.07485081       0.05400734      -3.52646399
Cl      43.40768366      57.01800376      56.06112985       0.01718634       0.00744991      -0.01914461      -3.48180389
Cl      51.72597571      58.51251130      51.95155549      -0.02885844       0.03539956       0.05829679      -3.51605368
Cl       2.76195361      22.76466681      56.73668680      -0.04244736       0.02267697      -0.01130928      -3.58638191
Cl      56.48900987      33.86660350      46.03394525       0.06337423       0.01942576      -0.01783441      -3.51169276
Cl       7.72697645      47.88065706      51.06467972      -0.02853629      -0.01631944       0.04522499      -3.49153042
Cl      50.75391323      37.28612551      57.14205563      -0.00891245      -0.03503893      -0.03342046      -3.60686493
Cl      37.68492916      47.16686523      54.84758964       0.13573878       0.02914801       0.09228829      -3.58798575
Cl      11.74302793      31.02748222      25.42937696       0.01978090      -0.02714508      -0.00867982      -3.46430230
Cl      32.44606740      14.51591327      30.89345264       0.02087735       0.09748951      -0.02244081      -3.43896413
Cl       2.33911791       4.72172795       1.77442130       0.00286175       0.13601136      -0.01349038      -3.49981403
Cl      42.82351840      49.62385816      56.49158416      -0.04643089      -0.04320170       0.01515766      -3.54388356
Cl       7.23596414      35.58774866       3.11185917      -0.02222143      -0.00531022       0.01987982      -3.45018411
Cl      48.83273059      34.24080024      54.64879398       0.01753964      -0.02373412      -0.08903728      -3.35208893
Cl      38.36908223       2.92872697      18.11111466       0.02174242       0.03677865      -0.01381098      -3.47890735
Cl       7.18052919      44.00869952      28.77949416      -0.03825630      -0.01052066      -0.04234301      -3.56585288
Cl      33.94021026      16.04313247      25.41358362       0.01859546      -0.05842163       0.05442810      -3.57329082
Cl      16.48607247       5.74885352      23.59382871       0.01317381       0.00819256      -0.00843915      -3.50872874
Cl      55.51973870      55.96053402      52.33156573      -0.01814080      -0.03951879      -0.01241195      -3.54480934
Cl      13.26899267      43.17473249       1.07702828      -0.02425595       0.02292985       0.00567748      -3.37198448
Cl      24.48104135      20.51829627      28.42704816       0.03335031      -0.02090015       0.03171866      -3.58070159
Cl      43.64595694      42.51103270      20.08989433       0.00783153      -0.03857236       0.04166167      -3.55599952
Cl      53.15857176      39.05564256      30.66930995      -0.02253674      -0.00572046      -0.05791460      -3.38100314
Cl      13.76088192      22.99263075      45.36096765      -0.03195760       0.08063593       0.05153020      -3.50392723
Cl      57.62709501      24.25387977      34.32314950      -0.02971319      -0.02081777       0.06126085      -3.42129731
Cl      36.45807640      25.42378714       5.76692304      -0.06408952       0.06236561      -0.05088681      -3.47125435
Cl      24.65309133      27.68733428      11.90868838       0.00262841      -0.02204327      -0.02117545      -3.52582693
Cl       1.34110527      45.98611935      13.06493885      -0.03235831      -0.01762795       0.02591150      -3.46063900
Cl      40.06832323      26.98360909      47.45728708      -0.03447232       0.05332963      -0.04881658      -3.45600891
Cl      21.53086820      14.43360695      18.42072283       0.02607302       0.00162060       0.03742611      -3.58036423
Na      49.11856140      23.85287409      48.59714415       0.04213192      -0.01388132      -0.01321284      -3.22208381
Na       8.99432652      54.06737813      13.34875949      -0.00355887       0.00950598      -0.03654396      -3.34633732
Na      21.33015874       2.35205168      23.77186918      -0.05542886      -0.01902517       0.07114326      -3.33262014
Na      56.78380167      53.69416902       7.54956700      -0.02508591       0.01128696       0.01788187      -3.10017228
Na      23.45335570      44.70574098       1.85023840      -0.01845882       0.02570892      -0.00432565      -3.23844576
Na      13.56316105      25.45169375      58.28827665      -0.00441710      -0.01712655       0.05393683      -3.28085256
Na      30.07150020      36.24849424      55.02411697       0.07707407      -0.00757362      -0.00983459      -3.25330234
Na      58.13373068       4.68719419      36.90978522       0.06332451       0.02148190       0.00033432      -3.29521441
Na      21.59688608       8.30837918      45.24685529       0.03619755      -0.00838041      -0.04424611      -3.38134694
Na      34.21093225      28.09458268      43.90073937      -0.01691517      -0.01611030      -0.01673737      -3.18680215
Na       3.54900894      43.00991645      39.47486044       0.03494112      -0.02768248      -0.06609733      -3.12873411
Na      33.70931228       5.35296563      22.47825794       0.08168842      -0.01662076      -0.04156382      -3.30020022
Na      34.35588158      54.00373871      13.04616814       0.00551645      -0.01259293      -0.05055483      -3.31488466
Na      20.75566851      13.21907186      35.43614733      -0.08751905       0.07050357       0.08352443      -3.21136928
Na      57.11120776      36.05647287       4.06202720       0.02767132       0.05416652       0.02082381      -3.42169905
Na      12.28030491      26.22525299      54.85512397       0.00769261      -0.03888140       0.02121167      -3.32639861
Na       8.49391526      20.82140024       5.54986823      -0.00900634      -0.09757106      -0.03202853      -3.39683247
Na      44.73857494       0.89740861      50.36125541      -0.00486484      -0.01640931      -0.00414674      -3.29213762
Na      12.87060532      14.73537316       3.65431893      -0.01033539      -0.02491648      -0.00660493      -3.31325865
Na       7.83058530      17.29259272      57.36348282      -0.00687432      -0.01287733       0.04319856      -3.26384807
Na      16.66147040       8.37035449      21.43058660       0.03871600      -0.08044194       0.06850539      -3.26194334
Na      26.88737688      35.78662448      44.18875248       0.05124151       0.05361509      -0.00266049      -3.22338724
Na      30.37546536      43.15842556      43.72134067       0.03129578      -0.03725987      -0.00955386      -3.49193645
Na      22.58453284      49.90461307      11.47687468      -0.01877090      -0.02924701       0.02320873      -3.32216501
Na      32.82856839      25.58835804      46.05715054       0.02273637       0.01548986      -0.02632660      -3.22944975
Na      24.04306763      19.67957894      45.77546526       0.03185539       0.07004327      -0.01816350      -3.41883302
Na       3.97868162      46.64360739      56.96728131       0.04003238      -0.11179796       0.09603354      -3.17118979
Na      40.90114062      22.00215708      26.34643403       0.00162641       0.02197029      -0.05145599      -3.14315701
Na      16.39143120       7.48373896      30.26241770      -0.06684299       0.07333339       0.01891483      -3.34517932
Na       4.71502722      20.20370229      32.60415647      -0.00488306      -0.06377981      -0.05718113      -3.31457472
Na      11.67778933       3.39881349      33.80436892       0.05104181      -0.02874018      -0.00195381      -3.40151548
Na      11.34811669       9.61492738      17.82741440      -0.03862396      -0.00342046      -0.00033984      -3.36448574
Na      39.61595493      58.39382835      24.06989819       0.01292078      -0.00870435      -0.01743224      -3.29663563
Na      35.36170387       9.75096322      52.27923138      -0.05630802       0.02575809      -0.00059529      -3.26290369
Na      11.03701773       3.77374109      56.34264512       0.04035550      -0.01638618       0.02384981      -3.30690742
Na      14.78288167      26.16656712      18.00382696       0.05375898      -0.06686324       0.06670792      -3.29147339
Na      53.94774790      33.39216372      23.30978489       0.04315746       0.00848931       0.01300303      -3.34686518
Na      19.47370255       6.23523536      13.16042978      -0.06816338       0.00337352       0.03361947      -3.21867418
Na      29.44862079       3.28228976      15.65908446      -0.07088099      -0.03274684      -0.00049869      -3.25728345
Na      31.86690279      32.50827933      24.54034557       0.03963961       0.01182897       0.10226826      -3.16001320
Na      31.14970526      26.71193563      36.06110738       0.02143688      -0.02758805      -0.00455505      -3.20322824
Na      37.41530496      55.59439469      46.97125874      -0.03373659       0.00277019       0.01235771      -3.35298848
Na      11.57858007      29.19511953      57.43966782       0.03977005       0.01542495      -0.02089726      -3.34509516
Na       2.18596802      39.51925814      54.79270963      -0.09501468       0.01425264       0.08071379      -3.20653200
Na      37.79091479      45.56991144      20.43222269      -0.04925009       0.02972962      -0.02837957      -3.36724854
Na      43.54483222      15.68172500      40.34691560       0.00595309       0.02939232      -0.01050450      -3.27483773
Na      36.66242896      57.38387320      11.68390553      -0.00029398       0.00568594      -0.04272787      -3.17203021
Na      16.35481478      33.45855614      19.02040296      -0.03305886      -0.01404657      -0.08139559      -3.19239616
Na      19.42423436       1.44707218      46.96759041      -0.02801325       0.03798364       0.10845584      -3.10434270
Na      25.71027693      42.26893316      35.32945919       0.06993294      -0.03421939      -0.03567725      -3.17827487
Cl      18.75173116       3.61346419      34.65465750       0.03228603      -0.01773718      -0.19538748      -3.39880538
Cl      43.71252345      53.22361551      39.00488859      -0.02696538      -0.07449382       0.07252807      -3.47207880
Cl      15.38832683      50.21242642       5.59239890       0.03392633      -0.01838017      -0.02507266      -3.53671646
Cl      50.63459851      10.96986017      54.84218217      -0.02318856       0.02257279      -0.03148800      -3.31268716
Cl      18.74290429      52.02710087      46.21408204       0.01772783       0.06799131       0.01250709      -3.56859398
Cl      29.67826117      46.13741066      38.02168851       0.06205902       0.01185561      -0.02211463      -3.56248617
Cl      15.92817805      11.22060698      15.53528047      -0.00961878       0.00396657       0.01024459      -3.49645710
Cl      43.78303857      46.18465985       4.25808056      -0.01357500      -0.02861176       0.00774451      -3.52296925
Cl      34.67564153      51.36427696       6.66520599      -0.01947507       0.08613162       0.04854142      -3.47887754
Cl      10.04838219      50.44488973      53.76781760      -0.09895466       0.05623516      -0.02734208      -3.35641837
Cl      11.65012198       9.74305663      12.83450210       0.03717122      -0.01008642       0.03222212      -3.63277864
Cl      25.21932566      36.49521909      33.39268186      -0.01429572      -0.02858083      -0.05584456      -3.28428888
Cl       5.77229237      18.64961168      29.21707525      -0.05335253       0.01592517      -0.01417516      -3.44021845
Cl      35.21474434      40.42506000      15.62018079      -0.01260208      -0.01375330      -0.05639550      -3.61602688
Cl      54.22007109      46.01976840      29.19197281      -0.01457522      -0.02435104       0.01662851      -3.50028658
Cl      26.39524477      19.50983957       6.75429106       0.05450641       0.01124274       0.00219938      -3.37335110
Cl       3.47659593      26.93981518      12.45652350      -0.03441954       0.01196143      -0.00833290      -3.58151770
Cl      25.79449266      15.62383905      49.82246167       0.02022853      -0.01930279       0.02505930      -3.48248601
Cl      32.37602386      28.87244126      51.54047180       0.11852116       0.00571874      -0.10444242      -3.42256498
Cl       3.17465192      25.62673970      19.40526446      -0.05703261      -0.08862075      -0.03390625      -3.53279662
Cl       3.34186878      24.88406761      23.08232896      -0.09135257       0.07485088       0.05400985      -3.52646422
Cl      43.40768360      57.01800362      12.16552823       0.01718400       0.00744781      -0.01914431      -3.48180223
Cl      51.72597574      58.51251124       8.05595443      -0.02885820       0.03539936       0.05829810      -3.51605320
Cl       2.76195343      22.76466661      12.84108537      -0.04244732       0.02267736      -0.01130953      -3.58638167
Cl      56.48900950      33.86660358       2.13834403       0.06337381       0.01942451      -0.01783088      -3.51169372
Cl       7.72697639      47.88065699       7.16907842      -0.02853803      -0.01631924       0.04522052      -3.49153018
Cl      50.75391302      37.28612534      13.24645346      -0.00891221      -0.03503828      -0.03341840      -3.60686541
Cl      37.68492937      47.16686520      10.95198827       0.13574161       0.02914851       0.09229555      -3.58798504
Cl      11.74302807      31.02748234      40.06124414       0.01977983      -0.02714757      -0.00868271      -3.46430230
Cl      32.44606738      14.51591331      45.52531966       0.02087771       0.09748891      -0.02244252      -3.43896294
Cl       2.33911781       4.72172813      16.40628837       0.00286195       0.13601159      -0.01349065      -3.49981403
Cl      42.82351834      49.62385823      12.59598284      -0.04643095      -0.04320252       0.01515874      -3.54388404
Cl       7.23596397      35.58774864      17.74372682      -0.02221937      -0.00531057       0.01988045      -3.45018411
Cl      48.83273046      34.24079997      10.75319291       0.01753882      -0.02373430      -0.08903827      -3.35208750
Cl      38.36908221       2.92872697      32.74298207       0.02174170       0.03677698      -0.01381024      -3.47890735
Cl       7.18052918      44.00869945      43.41136112      -0.03825523      -0.01051987      -0.04234575      -3.56585264
Cl      33.94021015      16.04313256      40.04545092       0.01859452      -0.05842320       0.05442517      -3.57329106
Cl      16.48607241       5.74885355      38.22569588       0.01317230       0.00819345      -0.00844017      -3.50872970
Cl      55.51973866      55.96053403       8.43596439      -0.01814189      -0.03951821      -0.01241426      -3.54480934
Cl      13.26899255      43.17473244      15.70889548      -0.02425771       0.02293071       0.00567950      -3.37198472
Cl      24.48104135      20.51829624      43.05891525       0.03334972      -0.02089773       0.03171759      -3.58070111
Cl      43.64595686      42.51103254      34.72176151       0.00783412      -0.03857142       0.04166539      -3.55599928
Cl      53.15857192      39.05564254      45.30117682      -0.02253845      -0.00571963      -0.05791932      -3.38100147
Cl      13.76088196      22.99263064       1.46536612      -0.03195704       0.08063713       0.05153294      -3.50392771
Cl      57.62709498      24.25387982      48.95501611      -0.02971334      -0.02081988       0.06126271      -3.42129898
Cl      36.45807645      25.42378712      20.39879026      -0.06408933       0.06236603      -0.05088638      -3.47125483
Cl      24.65309121      27.68733428      26.54055542       0.00262831      -0.02204335      -0.02117586      -3.52582693
Cl       1.34110529      45.98611938      27.69680579      -0.03235919      -0.01762824       0.02591085      -3.46063948
Cl      40.06832340      26.98360867       3.56168588      -0.03447284       0.05332910      -0.04881746      -3.45600891
Cl      21.53086816      14.43360706      33.05258956       0.02607330       0.00162097       0.03742459      -3.58036423
Na      49.11856131      23.85287430       4.70154299       0.04213238      -0.01388240      -0.01321025      -3.22208500
Na       8.99432653      54.06737812      27.98062651      -0.00355878       0.00950592      -0.03654496      -3.34633732
Na      21.33015873       2.35205164      38.40373599      -0.05543025      -0.01902424       0.07114477      -3.33261991
Na      56.78380162      53.69416907      22.18143418      -0.02508546       0.01128702       0.01788163      -3.10017252
Na      23.45335600      44.70574092      16.48210611      -0.01845976       0.02570853      -0.00432317      -3.23844552
Na      13.56316108      25.45169375      14.39267494      -0.00441661      -0.01712624       0.05393593      -3.28085303
Na      30.07150031      36.24849417      11.12851525       0.07707500      -0.00757264      -0.00983544      -3.25330305
Na      58.13373083       4.68719429      51.54165194       0.06332462       0.02148074       0.00033610      -3.29521418
Na      21.59688581       8.30837886       1.35125341       0.03619655      -0.00838202      -0.04424442      -3.38134694
Na      34.21093228      28.09458264       0.00513769      -0.01691408      -0.01610918      -0.01673975      -3.18680191
Na       3.54900906      43.00991614      54.10672804       0.03494431      -0.02767316      -0.06610064      -3.12873483
Na      33.70931241       5.35296574      37.11012479       0.08168975      -0.01661882      -0.04156524      -3.30020022
Na      34.35588153      54.00373874      27.67803517       0.00551692      -0.01259284      -0.05055552      -3.31488466
Na      20.75566856      13.21907181      50.06801448      -0.08751714       0.07050544       0.08351997      -3.21136856
Na      57.11120770      36.05647286      18.69389448       0.02766990       0.05416640       0.02082274      -3.42169881
Na      12.28030480      26.22525298      10.95952248       0.00769385      -0.03888177       0.02121852      -3.32639861
Na       8.49391524      20.82140031      20.18173542      -0.00900633      -0.09757049      -0.03202890      -3.39683294
Na      44.73857466       0.89740831       6.46565409      -0.00486318      -0.01640600      -0.00414493      -3.29213762
Na      12.87060538      14.73537323      18.28618628      -0.01033536      -0.02491619      -0.00660481      -3.31325889
Na       7.83058523      17.29259278      13.46788125      -0.00687434      -0.01287751       0.04319800      -3.26384807
Na      16.66147050       8.37035465      36.06245368       0.03871466      -0.08044268       0.06850465      -3.26194453
Na      26.88737729      35.78662431       0.29315056       0.05124065       0.05361371      -0.00266823      -3.22338724
Na      30.37546544      43.15842579      58.35320819       0.03129658      -0.03725962      -0.00955296      -3.49193525
Na      22.58453278      49.90461310      26.10874157      -0.01877137      -0.02924684       0.02320871      -3.32216477
Na      32.82856831      25.58835811       2.16154905       0.02273559       0.01548938      -0.02632316      -3.22944975
Na      24.04306765      19.67957888       1.87986371       0.03185475       0.07004158      -0.01816024      -3.41883278
Na       3.97868161      46.64360738      13.07168021       0.04003138      -0.11179711       0.09603225      -3.17118979
Na      40.90114034      22.00215717      40.97830098       0.00162112       0.02196658      -0.05146161      -3.14315772
Na      16.39143121       7.48373904      44.89428470      -0.06684344       0.07333420       0.01891578      -3.34517956
Na       4.71502716      20.20370235      47.23602348      -0.00488217      -0.06378028      -0.05718054      -3.31457376
Na      11.67778943       3.39881361      48.43623575       0.05104151      -0.02874334      -0.00196210      -3.40151501
Na      11.34811673       9.61492739      32.45928156      -0.03862468      -0.00342024      -0.00034054      -3.36448526
Na      39.61595480      58.39382831      38.70176501       0.01292206      -0.00870342      -0.01742756      -3.29663539
Na      35.36170394       9.75096317       8.38363031      -0.05631223       0.02575859      -0.00059477      -3.26290369
Na      11.03701778       3.77374106      12.44704371       0.04035624      -0.01638774       0.02384582      -3.30690765
Na      14.78288165      26.16656713      32.63569413       0.05375840      -0.06686467       0.06670799      -3.29147339
Na      53.94774797      33.39216363      37.94165192       0.04315684       0.00849082       0.01300585      -3.34686446
Na      19.47370252       6.23523536      27.79229678      -0.06816360       0.00337318       0.03361867      -3.21867418
Na      29.44862080       3.28228979      30.29095153      -0.07088316      -0.03274650      -0.00049844      -3.25728273
Na      31.86690265      32.50827925      39.17221251       0.03964370       0.01182918       0.10227235      -3.16001248
Na      31.14970535      26.71193577      50.69297478       0.02143595      -0.02758958      -0.00455564      -3.20322824
Na      37.41530528      55.59439462       3.07565726      -0.03373658       0.00276991       0.01235833      -3.35298824
Na      11.57858036      29.19511964      13.54406634       0.03976917       0.01542401      -0.02090224      -3.34509516
Na       2.18596767      39.51925825      10.89710842      -0.09501381       0.01425390       0.08071540      -3.20653200
Na      37.79091482      45.56991157      35.06408931      -0.04924975       0.02973066      -0.02838217      -3.36724782
Na      43.54483245      15.68172481      54.97878331       0.00594398       0.02939331      -0.01050624      -3.27483797
Na      36.66242901      57.38387337      26.31577261      -0.00029348       0.00568530      -0.04272963      -3.17203045
Na      16.35481475      33.45855618      33.65226962      -0.03305965      -0.01404752      -0.08139822      -3.19239616
Na      19.42423394       1.44707194       3.07198949      -0.02801296       0.03798318       0.10845658      -3.10434246
Na      25.71027710      42.26893291      49.96132676       0.06993271      -0.03421862      -0.03567667      -3.17827535
Cl      18.75173104       3.61346420      49.28652433       0.03228566      -0.01773676      -0.19538739      -3.39880538
Cl      43.71252361      53.22361529      53.63675569      -0.02696547      -0.07449372       0.07252807      -3.47207856
Cl      15.38832691      50.21242656      20.22426612       0.03392641      -0.01838087      -0.02507258      -3.53671694
Cl      50.63459862      10.96986023      10.94658091      -0.02318922       0.02257270      -0.03148698      -3.31268668
Cl      18.74290410      52.02710095       2.31848112       0.01772653       0.06799184       0.01250457      -3.56859374
Cl      29.67826094      46.13741069      52.65355570       0.06206101       0.01185627      -0.02211232      -3.56248569
Cl      15.92817805      11.22060695      30.16714753      -0.00961827       0.00396655       0.01024485      -3.49645782
Cl      43.78303879      46.18465977      18.88994779      -0.01357494      -0.02861157       0.00774415      -3.52296948
Cl      34.67564146      51.36427698      21.29707309      -0.01947604       0.08613206       0.04854077      -3.47887731
Cl      10.04838192      50.44488982       9.87221613      -0.09895495       0.05623631      -0.02733906      -3.35641694
Cl      11.65012197       9.74305668      27.46636911       0.03717175      -0.01008672       0.03222136      -3.63277864
Cl      25.21932587      36.49521916      48.02454883      -0.01429495      -0.02858070      -0.05584177      -3.28428841
Cl       5.77229223      18.64961170      43.84894215      -0.05335075       0.01592615      -0.01417537      -3.44021845
Cl      35.21474442      40.42505986      30.25204775      -0.01260132      -0.01375275      -0.05639624      -3.61602783
Cl      54.22007111      46.01976826      43.82384023      -0.01457333      -0.02434879       0.01662328      -3.50028586
Cl      26.39524479      19.50983962      21.38615816       0.05450546       0.01124343       0.00220143      -3.37335110
Cl       3.47659600      26.93981518      27.08839064      -0.03441964       0.01196094      -0.00833214      -3.58151698
Cl      25.79449263      15.62383906       5.92686055       0.02022952      -0.01930213       0.02505839      -3.48248601
Cl      32.37602388      28.87244139       7.64487061       0.11851836       0.00571385      -0.10444673      -3.42256474
Cl       3.17465179      25.62673964      34.03713138      -0.05703007      -0.08862185      -0.03391369      -3.53279614
Cl       3.34186870      24.88406766      37.71419618      -0.09135125       0.07485047       0.05401146      -3.52646399
Cl      43.40768357      57.01800362      26.79739507       0.01718634       0.00744839      -0.01914286      -3.48180318
Cl      51.72597570      58.51251125      22.68782170      -0.02885941       0.03539965       0.05829696      -3.51605225
Cl       2.76195345      22.76466668      27.47295243      -0.04244784       0.02267781      -0.01130921      -3.58638120
Cl      56.48900982      33.86660353      16.77021122       0.06337409       0.01942533      -0.01783248      -3.51169324
Cl       7.72697636      47.88065686      21.80094563      -0.02853807      -0.01631875       0.04522073      -3.49153018
Cl      50.75391302      37.28612533      27.87832044      -0.00891375      -0.03503747      -0.03341908      -3.60686541
Cl      37.68492938      47.16686521      25.58385512       0.13574167       0.02914878       0.09229767      -3.58798456
Cl      11.74302791      31.02748240      54.69311128       0.01978032      -0.02714571      -0.00868165      -3.46430349
Cl      32.44606749      14.51591320       1.62971796       0.02087677       0.09748918      -0.02244338      -3.43896270
Cl       2.33911774       4.72172813      31.03815526       0.00286103       0.13601157      -0.01348855      -3.49981356
Cl      42.82351842      49.62385815      27.22784968      -0.04643002      -0.04320145       0.01515753      -3.54388380
Cl       7.23596399      35.58774849      32.37559388      -0.02221990      -0.00530931       0.01987713      -3.45018411
Cl      48.83273050      34.24080000      25.38506003       0.01753906      -0.02373411      -0.08903648      -3.35208893
Cl      38.36908223       2.92872703      47.37484874       0.02174182       0.03677735      -0.01380521      -3.47890687
Cl       7.18052927      44.00869954      58.04322891      -0.03825552      -0.01052102      -0.04234414      -3.56585240
Cl      33.94021002      16.04313275      54.67731758       0.01859543      -0.05842308       0.05442591      -3.57329130
Cl      16.48607244       5.74885351      52.85756270       0.01317224       0.00819319      -0.00844040      -3.50872874
Cl      55.51973866      55.96053405      23.06783148      -0.01814072      -0.03951901      -0.01241074      -3.54480886
Cl      13.26899259      43.17473244      30.34076268      -0.02425714       0.02293028       0.00567888      -3.37198496
Cl      24.48104117      20.51829623      57.69078295       0.03335010      -0.02089730       0.03171521      -3.58070064
Cl      43.64595687      42.51103243      49.35362821       0.00783109      -0.03857212       0.04166164      -3.55600023
Cl      53.15857186      39.05564266       1.40557516      -0.02253669      -0.00571979      -0.05791411      -3.38100290
Cl      13.76088191      22.99263073      16.09723363      -0.03195722       0.08063705       0.05153386      -3.50392771
Cl      57.62709515      24.25387969       5.05941510      -0.02971439      -0.02081895       0.06126518      -3.42129731
Cl      36.45807622      25.42378699      35.03065724      -0.06408869       0.06237076      -0.05088708      -3.47125363
Cl      24.65309121      27.68733424      41.17242246       0.00262735      -0.02204424      -0.02117868      -3.52582645
Cl       1.34110529      45.98611931      42.32867284      -0.03235961      -0.01762817       0.02590991      -3.46063900
Cl      40.06832321      26.98360901      18.19355316      -0.03447303       0.05332832      -0.04882248      -3.45600939
Cl      21.53086819      14.43360701      47.68445663       0.02607210       0.00162021       0.03742957      -3.58036327
Na      49.11856156      38.48474151      19.33341007       0.04212910      -0.01388032      -0.01321343      -3.22208524
Na       8.99432657      10.17177743      42.61249334      -0.00356044       0.00950662      -0.03653951      -3.34633803
Na      21.33015875      16.98391891      53.03560321      -0.05542714      -0.01902439       0.07114699      -3.33262014
Na      56.78380208       9.79856775      36.81330119      -0.02508663       0.01128804       0.01788390      -3.10017157
Na      23.45335567       0.81013946      31.11397340      -0.01845869       0.02570838      -0.00432582      -3.23844528
Na      13.56316103      40.08356069      29.02454178      -0.00441670      -0.01712637       0.05393627      -3.28085303
Na      30.07150035      50.88036112      25.76038237       0.07707505      -0.00757257      -0.00983462      -3.25330257
Na      58.13373076      19.31906172       7.64605125       0.06332558       0.02148073       0.00033669      -3.29521489
Na      21.59688588      22.94024603      15.98312129       0.03619651      -0.00838299      -0.04424384      -3.38134670
Na      34.21093234      42.72644968      14.63700533      -0.01691673      -0.01610350      -0.01673920      -3.18680191
Na       3.54900867      57.64178465      10.21112704       0.03494423      -0.02767570      -0.06609614      -3.12873483
Na      33.70931266      19.98483305      51.74199197       0.08168793      -0.01662112      -0.04156458      -3.30020022
Na      34.35588170      10.10813733      42.30990218       0.00551713      -0.01259135      -0.05055316      -3.31488442
Na      20.75566868      27.85093896       6.17241327      -0.08751805       0.07050373       0.08352284      -3.21136856
Na      57.11120786      50.68833978      33.32576150       0.02767277       0.05416592       0.02082578      -3.42169952
Na      12.28030485      40.85711995      25.59138959       0.00769297      -0.03888504       0.02122054      -3.32639813
Na       8.49391527      35.45326736      34.81360247      -0.00900460      -0.09756856      -0.03202890      -3.39683318
Na      44.73857523      15.52927643      21.09752074      -0.00486433      -0.01641154      -0.00414519      -3.29213834
Na      12.87060533      29.36724027      32.91805319      -0.01033452      -0.02491522      -0.00660382      -3.31325912
Na       7.83058518      31.92445958      28.09974835      -0.00687269      -0.01287492       0.04319486      -3.26384854
Na      16.66147045      23.00222147      50.69432082       0.03871526      -0.08044484       0.06850391      -3.26194334
Na      26.88737687      50.41849137      14.92501837       0.05124536       0.05361978      -0.00266413      -3.22338724
Na      30.37546523      57.79029340      14.45760670       0.03129408      -0.03726331      -0.00955471      -3.49193525
Na      22.58453284       6.00901206      40.74060903      -0.01877023      -0.02924697       0.02320810      -3.32216454
Na      32.82856861      40.22022488      16.79341649       0.02273560       0.01548736      -0.02632370      -3.22944927
Na      24.04306754      34.31144590      16.51173122       0.03185485       0.07004247      -0.01816154      -3.41883278
Na       3.97868149       2.74800620      27.70354702       0.04003370      -0.11179429       0.09603500      -3.17118907
Na      40.90114028      36.63402407      55.61016840       0.00162536       0.02196513      -0.05145761      -3.14315724
Na      16.39143140      22.11560580       0.99868354      -0.06684276       0.07333237       0.01891437      -3.34517956
Na       4.71502711      34.83556938       3.34042282      -0.00487976      -0.06377559      -0.05718235      -3.31457400
Na      11.67778945      18.03068105       4.54063470       0.05104071      -0.02874168      -0.00195736      -3.40151477
Na      11.34811671      24.24679455      47.09114841      -0.03862425      -0.00341989      -0.00034127      -3.36448574
Na      39.61595489      14.49822673      53.33363224       0.01292088      -0.00870561      -0.01743378      -3.29663491
Na      35.36170390      24.38283014      23.01549731      -0.05631161       0.02575912      -0.00059410      -3.26290393
Na      11.03701775      18.40560845      27.07891068       0.04035757      -0.01639014       0.02384363      -3.30690718
Na      14.78288160      40.79843432      47.26756123       0.05376047      -0.06686836       0.06669993      -3.29147363
Na      53.94774789      48.02403031      52.57351901       0.04315893       0.00849082       0.01299949      -3.34686375
Na      19.47370256      20.86710271      42.42416344      -0.06816292       0.00337083       0.03361981      -3.21867394
Na      29.44862072      17.91415710      44.92281884      -0.07088108      -0.03274687      -0.00049803      -3.25728440
Na      31.86690300      47.14014598      53.80407950       0.03963876       0.01182919       0.10226827      -3.16001201
Na      31.14970530      41.34380266       6.79737326       0.02143686      -0.02759510      -0.00455676      -3.20322728
Na      37.41530462      11.69879336      17.70752483      -0.03373638       0.00277031       0.01235823      -3.35298824
Na      11.57858027      43.82698680      28.17593335       0.03976958       0.01542060      -0.02090315      -3.34509516
Na       2.18596800      54.15112572      25.52897531      -0.09501591       0.01424934       0.08071707      -3.20653224
Na      37.79091492       1.67430952      49.69595697      -0.04924986       0.02973367      -0.02838217      -3.36724830
Na      43.54483216      30.31359184      11.08318175       0.00595292       0.02939433      -0.01050761      -3.27483773
Na      36.66242848      13.48827245      40.94763910      -0.00029301       0.00568800      -0.04272750      -3.17203140
Na      16.35481490      48.09042349      48.28413704      -0.03306011      -0.01405053      -0.08139931      -3.19239688
Na      19.42423485      16.07893984      17.70385711      -0.02801390       0.03798173       0.10845549      -3.10434341
Na      25.71027764      56.90080112       6.06572511       0.06993271      -0.03422916      -0.03567272      -3.17827535
Cl      18.75173103      18.24533119       5.39092328       0.03228624      -0.01773703      -0.19538632      -3.39880657
Cl      43.71252371       9.32801417       9.74115449      -0.02696307      -0.07449704       0.07253107      -3.47207975
Cl      15.38832684       6.31682541      34.85613307       0.03392598      -0.01838215      -0.02507253      -3.53671575
Cl      50.63459870      25.60172728      25.57844796      -0.02318930       0.02257514      -0.03148535      -3.31268620
Cl      18.74290440       8.13149980      16.95034816       0.01772650       0.06798685       0.01250529      -3.56859374
Cl      29.67826087       2.24180929       8.75795452       0.06206092       0.01185500      -0.02211288      -3.56248450
Cl      15.92817822      25.85247388      44.79901450      -0.00961978       0.00396597       0.01024579      -3.49645686
Cl      43.78303883       2.28905870      33.52181473      -0.01357758      -0.02861749       0.00774258      -3.52296901
Cl      34.67564160       7.46867597      35.92894045      -0.01947673       0.08613100       0.04854337      -3.47887731
Cl      10.04838189       6.54928845      24.50408308      -0.09895626       0.05623756      -0.02734128      -3.35641861
Cl      11.65012201      24.37492348      42.09823609       0.03717362      -0.01008618       0.03222354      -3.63277841
Cl      25.21932586      51.12708628       4.12894784      -0.01429410      -0.02857922      -0.05584487      -3.28428888
Cl       5.77229235      33.28147943      -0.04666073      -0.05335299       0.01592734      -0.01417361      -3.44021869
Cl      35.21474447      55.05692682      44.88391466      -0.01260552      -0.01375008      -0.05639570      -3.61602545
Cl      54.22007105       2.12416701      -0.07176213      -0.01457318      -0.02435482       0.01662742      -3.50028515
Cl      26.39524489      34.14170659      36.01802513       0.05450729       0.01124161       0.00220109      -3.37335110
Cl       3.47659597      41.57168228      41.72025742      -0.03441986       0.01195994      -0.00833120      -3.58151817
Cl      25.79449262      30.25570607      20.55872770       0.02022906      -0.01930435       0.02505876      -3.48248696
Cl      32.37602379      43.50430821      22.27673751       0.11852231       0.00572265      -0.10444273      -3.42256570
Cl       3.17465198      40.25860648      48.66899823      -0.05703214      -0.08862117      -0.03390957      -3.53279614
Cl       3.34186897      39.51593441      52.34606307      -0.09135289       0.07485054       0.05401167      -3.52646351
Cl      43.40768364      13.12240198      41.42926218       0.01718306       0.00744788      -0.01914683      -3.48180246
Cl      51.72597542      14.61690922      37.31968899      -0.02885807       0.03540185       0.05829524      -3.51605272
Cl       2.76195348      37.39653349      42.10481947      -0.04244849       0.02267752      -0.01131080      -3.58638310
Cl      56.48900976      48.49847060      31.40207835       0.06337193       0.01942436      -0.01783327      -3.51169372
Cl       7.72697647       3.98505575      36.43281256      -0.02853861      -0.01631792       0.04522101      -3.49152970
Cl      50.75391304      51.91799233      42.51018753      -0.00891661      -0.03503962      -0.03342210      -3.60686469
Cl      37.68492943       3.27126431      40.21572231       0.13574146       0.02915120       0.09229454      -3.58798432
Cl      11.74302794      45.65934907      10.79751013       0.01977927      -0.02714174      -0.00867891      -3.46430302
Cl      32.44606743      29.14778018      16.26158552       0.02087760       0.09749120      -0.02243925      -3.43896246
Cl       2.33911767      19.35359532      45.67002222       0.00286195       0.13601188      -0.01348803      -3.49981332
Cl      42.82351847       5.72825706      41.85971698      -0.04642808      -0.04319972       0.01515488      -3.54388523
Cl       7.23596422      50.21961560      47.00746092      -0.02222065      -0.00531012       0.01987889      -3.45018554
Cl      48.83273040      48.87266714      40.01692730       0.01753903      -0.02373359      -0.08903784      -3.35208845
Cl      38.36908272      17.56059411       3.47924719       0.02174247       0.03677779      -0.01381116      -3.47890687
Cl       7.18052894      58.64056745      14.14762697      -0.03825256      -0.01051819      -0.04234549      -3.56585407
Cl      33.94021028      30.67499943      10.78171655       0.01859630      -0.05842066       0.05442890      -3.57329130
Cl      16.48607240      20.38072073       8.96196165       0.01317420       0.00819429      -0.00844058      -3.50872946
Cl      55.51973861      12.06493236      37.69969858      -0.01814208      -0.03951892      -0.01241650      -3.54481077
Cl      13.26899248      57.80659977      44.97262952      -0.02425665       0.02293117       0.00567866      -3.37198544
Cl      24.48104144      35.15016350      13.79518110       0.03334981      -0.02089708       0.03171821      -3.58070064
Cl      43.64595687      57.14290053       5.45802682       0.00783205      -0.03858000       0.04166130      -3.55600166
Cl      53.15857173      53.68750976      16.03744261      -0.02253711      -0.00572537      -0.05791618      -3.38100171
Cl      13.76088209      37.62449794      30.72910064      -0.03195629       0.08063853       0.05153299      -3.50392771
Cl      57.62709512      38.88574654      19.69128227      -0.02971439      -0.02081743       0.06126425      -3.42129636
Cl      36.45807626      40.05565425      49.66252440      -0.06409010       0.06237490      -0.05088533      -3.47125435
Cl      24.65309128      42.31920157      55.80428980       0.00262728      -0.02204694      -0.02117601      -3.52582836
Cl       1.34110516       2.09051791      56.96054106      -0.03235823      -0.01762927       0.02591180      -3.46063948
Cl      40.06832327      41.61547607      32.82541992      -0.03447368       0.05333088      -0.04881846      -3.45600986
Cl      21.53086814      29.06547400       3.78885525       0.02607321       0.00162192       0.03742548      -3.58036351
Na      49.11856141      38.48474142      33.96527712       0.04213130      -0.01388072      -0.01321568      -3.22208548
Na       8.99432673      10.17177716      57.24436160      -0.00356021       0.00950707      -0.03654481      -3.34633803
Na      21.33015878      16.98391916       9.14000179      -0.05542805      -0.01902574       0.07114441      -3.33262038
Na      56.78380212       9.79856788      51.44516846      -0.02508494       0.01128865       0.01788846      -3.10017109
Na      23.45335567       0.81013960      45.74584017      -0.01845819       0.02570795      -0.00432905      -3.23844624
Na      13.56316083      40.08356082      43.65640861      -0.00441652      -0.01712574       0.05393711      -3.28085351
Na      30.07150032      50.88036106      40.39224922       0.07707617      -0.00757161      -0.00983540      -3.25330234
Na      58.13373073      19.31906177      22.27791817       0.06332606       0.02148006       0.00033740      -3.29521537
Na      21.59688595      22.94024601      30.61498827       0.03619661      -0.00838393      -0.04424286      -3.38134694
Na      34.21093238      42.72644976      29.26887238      -0.01691516      -0.01610326      -0.01674073      -3.18680167
Na       3.54900864      57.64178455      24.84299396       0.03494432      -0.02767495      -0.06609847      -3.12873411
Na      33.70931253      19.98483280       7.84639081       0.08168720      -0.01662280      -0.04156269      -3.30019927
Na      34.35588160      10.10813764      56.94176961       0.00551725      -0.01259288      -0.05055401      -3.31488466
Na      20.75566852      27.85093891      20.80428035      -0.08751844       0.07050444       0.08352262      -3.21136904
Na      57.11120791      50.68833975      47.95762862       0.02766899       0.05416625       0.02082158      -3.42169905
Na      12.28030474      40.85711973      40.22325662       0.00769453      -0.03888433       0.02122501      -3.32639742
Na       8.49391516      35.45326729      49.44546952      -0.00900422      -0.09756888      -0.03202867      -3.39683318
Na      44.73857519      15.52927648      35.72938783      -0.00486430      -0.01641305      -0.00414789      -3.29213738
Na      12.87060533      29.36724032      47.54992016      -0.01033388      -0.02491568      -0.00660291      -3.31325889
Na       7.83058521      31.92445970      42.73161508      -0.00687122      -0.01287448       0.04319185      -3.26384878
Na      16.66147042      23.00222149       6.79871971       0.03871531      -0.08044384       0.06850464      -3.26194334
Na      26.88737697      50.41849137      29.55688534       0.05124573       0.05362098      -0.00266310      -3.22338676
Na      30.37546514      57.79029337      29.08947366       0.03129378      -0.03726338      -0.00955484      -3.49193501
Na      22.58453307       6.00901182      55.37247628      -0.01877324      -0.02924681       0.02321196      -3.32216454
Na      32.82856851      40.22022496      31.42528355       0.02273560       0.01548645      -0.02631837      -3.22944832
Na      24.04306749      34.31144581      31.14359841       0.03185387       0.07004259      -0.01815956      -3.41883230
Na       3.97868151       2.74800609      42.33541381       0.04003144      -0.11179548       0.09603350      -3.17118979
Na      40.90114062      36.63402381      11.71456675       0.00162313       0.02196479      -0.05146081      -3.14315701
Na      16.39143130      22.11560601      15.63055061      -0.06684335       0.07333317       0.01891377      -3.34517932
Na       4.71502719      34.83556916      17.97228962      -0.00488024      -0.06377517      -0.05718210      -3.31457353
Na      11.67778927      18.03068107      19.17250180       0.05104071      -0.02874258      -0.00195795      -3.40151477
Na      11.34811667      24.24679444       3.19554688      -0.03862556      -0.00341990      -0.00034041      -3.36448526
Na      39.61595487      14.49822673       9.43803089       0.01292080      -0.00870451      -0.01743327      -3.29663515
Na      35.36170388      24.38283014      37.64736425      -0.05631185       0.02575910      -0.00059514      -3.26290441
Na      11.03701779      18.40560831      41.71077756       0.04035694      -0.01639054       0.02384693      -3.30690718
Na      14.78288162      40.79843419       3.37195966       0.05375918      -0.06686655       0.06670493      -3.29147291
Na      53.94774789      48.02403041       8.67791768       0.04315825       0.00849095       0.01300488      -3.34686399
Na      19.47370248      20.86710289      57.05603070      -0.06816302       0.00337166       0.03361879      -3.21867442
Na      29.44862081      17.91415655       1.02721759      -0.07088343      -0.03274676      -0.00049861      -3.25728416
Na      31.86690266      47.14014618       9.90847847       0.03963985       0.01182856       0.10226900      -3.16001201
Na      31.14970535      41.34380290      21.42924061       0.02143775      -0.02759678      -0.00455888      -3.20322776
Na      37.41530467      11.69879330      32.33939161      -0.03373575       0.00277004       0.01236022      -3.35298753
Na      11.57858027      43.82698669      42.80780023       0.03976979       0.01542181      -0.02090071      -3.34509587
Na       2.18596799      54.15112575      40.16084223      -0.09501694       0.01424968       0.08071344      -3.20653200
Na      37.79091501       1.67430962       5.80035554      -0.04925014       0.02973304      -0.02838030      -3.36724830
Na      43.54483208      30.31359180      25.71504892       0.00595304       0.02939518      -0.01050993      -3.27483821
Na      36.66242847      13.48827228      55.57950658      -0.00029486       0.00568701      -0.04272738      -3.17203140
Na      16.35481477      48.09042344       4.38853599      -0.03306144      -0.01404932      -0.08139658      -3.19239640
Na      19.42423487      16.07893980      32.33572417      -0.02801405       0.03798188       0.10845654      -3.10434294
Na      25.71027764      56.90080108      20.69759240       0.06993277      -0.03422812      -0.03567117      -3.17827535
Cl      18.75173112      18.24533115      20.02279024       0.03228576      -0.01773679      -0.19538698      -3.39880610
Cl      43.71252368       9.32801416      24.37302146      -0.02696343      -0.07449676       0.07253143      -3.47207975
Cl      15.38832698       6.31682545      49.48800041       0.03392782      -0.01838192      -0.02506977      -3.53671694
Cl      50.63459863      25.60172718      40.21031497      -0.02318858       0.02257381      -0.03148737      -3.31268716
Cl      18.74290435       8.13149991      31.58221515       0.01772739       0.06798798       0.01250519      -3.56859303
Cl      29.67826076       2.24180928      23.38982163       0.06206102       0.01185466      -0.02211211      -3.56248331
Cl      15.92817800      25.85247397       0.90341315      -0.00962053       0.00396542       0.01024498      -3.49645710
Cl      43.78303878       2.28905860      48.15368175      -0.01357667      -0.02861823       0.00774505      -3.52296877
Cl      34.67564157       7.46867579      50.56080735      -0.01947587       0.08613177       0.04854313      -3.47887707
Cl      10.04838203       6.54928836      39.13594988      -0.09895334       0.05623969      -0.02733350      -3.35641694
Cl      11.65012206      24.37492362      56.73010363       0.03717208      -0.01008651       0.03222675      -3.63277864
Cl      25.21932575      51.12708606      18.76081490      -0.01429488      -0.02858045      -0.05584418      -3.28429008
Cl       5.77229228      33.28147899      14.58520811      -0.05335218       0.01592649      -0.01417311      -3.44021893
Cl      35.21474433      55.05692661       0.98831323      -0.01260486      -0.01374916      -0.05639724      -3.61602545
Cl      54.22007104       2.12416689      14.56010597      -0.01457298      -0.02435471       0.01662735      -3.50028539
Cl      26.39524477      34.14170677      50.64989249       0.05450555       0.01124202       0.00220603      -3.37335134
Cl       3.47659608      41.57168253      56.35212499      -0.03441996       0.01195859      -0.00832695      -3.58151793
Cl      25.79449280      30.25570637      35.19059459       0.02022780      -0.01930512       0.02506107      -3.48248792
Cl      32.37602396      43.50430827      36.90860478       0.11852167       0.00572257      -0.10444327      -3.42256618
Cl       3.17465198      40.25860679       4.77339723      -0.05703194      -0.08861987      -0.03391070      -3.53279567
Cl       3.34186874      39.51593446       8.45046198      -0.09135258       0.07485069       0.05400733      -3.52646232
Cl      43.40768367      13.12240201      56.06112991       0.01718491       0.00744994      -0.01914274      -3.48180318
Cl      51.72597554      14.61690933      51.95155553      -0.02885911       0.03540190       0.05829757      -3.51605296
Cl       2.76195360      37.39653367      56.73668684      -0.04244651       0.02267772      -0.01130928      -3.58638215
Cl      56.48900983      48.49847043      46.03394522       0.06337453       0.01942664      -0.01783514      -3.51169348
Cl       7.72697648       3.98505573      51.06467991      -0.02853564      -0.01631802       0.04522424      -3.49152923
Cl      50.75391313      51.91799273      57.14205570      -0.00891302      -0.03503688      -0.03342087      -3.60686493
Cl      37.68492930       3.27126433      54.84758974       0.13573909       0.02914950       0.09228811      -3.58798504
Cl      11.74302783      45.65934903      25.42937699       0.01978049      -0.02714043      -0.00867756      -3.46430230
Cl      32.44606737      29.14778013      30.89345244       0.02087739       0.09749175      -0.02243799      -3.43896341
Cl       2.33911780      19.35359521       1.77442119       0.00286123       0.13601102      -0.01349072      -3.49981332
Cl      42.82351832       5.72825721      56.49158410      -0.04643260      -0.04320033       0.01515829      -3.54388428
Cl       7.23596413      50.21961558       3.11185914      -0.02221881      -0.00530918       0.01987931      -3.45018506
Cl      48.83273041      48.87266733      54.64879396       0.01754020      -0.02373868      -0.08903916      -3.35208941
Cl      38.36908251      17.56059436      18.11111470       0.02174246       0.03677747      -0.01381213      -3.47890687
Cl       7.18052895      58.64056753      28.77949388      -0.03825173      -0.01051802      -0.04234394      -3.56585407
Cl      33.94021023      30.67499935      25.41358358       0.01859609      -0.05842077       0.05442893      -3.57329130
Cl      16.48607245      20.38072064      23.59382858       0.01317423       0.00819367      -0.00843917      -3.50872874
Cl      55.51973859      12.06493243      52.33156580      -0.01814081      -0.03952020      -0.01241075      -3.54480982
Cl      13.26899249      57.80659995       1.07702811      -0.02425729       0.02293150       0.00568141      -3.37198520
Cl      24.48104141      35.15016353      28.42704815       0.03334966      -0.02089695       0.03171964      -3.58070111
Cl      43.64595691      57.14290035      20.08989410       0.00783286      -0.03857012       0.04166371      -3.55600142
Cl      53.15857156      53.68750976      30.66930942      -0.02253721      -0.00572642      -0.05791559      -3.38100290
Cl      13.76088203      37.62449775      45.36096767      -0.03195762       0.08063786       0.05152969      -3.50392723
Cl      57.62709509      38.88574652      34.32314945      -0.02971297      -0.02081641       0.06125999      -3.42129564
Cl      36.45807637      40.05565430       5.76692314      -0.06409062       0.06237435      -0.05088607      -3.47125316
Cl      24.65309136      42.31920137      11.90868835       0.00262789      -0.02204627      -0.02117414      -3.52582741
Cl       1.34110512       2.09051801      13.06493899      -0.03235831      -0.01762858       0.02591325      -3.46063948
Cl      40.06832328      41.61547616      47.45728707      -0.03447172       0.05333199      -0.04881656      -3.45600986
Cl      21.53086812      29.06547398      18.42072277       0.02607296       0.00162261       0.03742523      -3.58036351
Na      49.11856151      38.48474149      48.59714408       0.04213098      -0.01388080      -0.01321543      -3.22208500
Na       8.99432651      10.17177737      13.34875955      -0.00355950       0.00950643      -0.03654396      -3.34633756
Na      21.33015874      16.98391903      23.77186913      -0.05542783      -0.01902582       0.07114254      -3.33261991
Na      56.78380202       9.79856785       7.54956702      -0.02508521       0.01128810       0.01788086      -3.10017157
Na      23.45335541       0.81013979       1.85023861      -0.01845782       0.02570937      -0.00432591      -3.23844576
Na      13.56316107      40.08356071      58.28827658      -0.00441670      -0.01712619       0.05393653      -3.28085303
Na      30.07150028      50.88036124      55.02411679       0.07707443      -0.00757182      -0.00983406      -3.25330281
Na      58.13373063      19.31906166      36.90978527       0.06332444       0.02148195       0.00033422      -3.29521489
Na      21.59688594      22.94024608      45.24685539       0.03619721      -0.00838146      -0.04424576      -3.38134694
Na      34.21093224      42.72644967      43.90073941      -0.01691822      -0.01610414      -0.01673713      -3.18680239
Na       3.54900871      57.64178454      39.47486100       0.03494424      -0.02767538      -0.06609743      -3.12873387
Na      33.70931244      19.98483277      22.47825790       0.08168885      -0.01661992      -0.04156488      -3.30020022
Na      34.35588168      10.10813735      13.04616821       0.00551627      -0.01259069      -0.05055473      -3.31488466
Na      20.75566848      27.85093885      35.43614731      -0.08751904       0.07050394       0.08352493      -3.21136856
Na      57.11120788      50.68833980       4.06202726       0.02767131       0.05416616       0.02082399      -3.42169929
Na      12.28030486      40.85711995      54.85512407       0.00769240      -0.03888363       0.02121323      -3.32639813
Na       8.49391527      35.45326731       5.54986834      -0.00900535      -0.09756947      -0.03202891      -3.39683318
Na      44.73857528      15.52927664      50.36125530      -0.00486551      -0.01641224      -0.00414812      -3.29213834
Na      12.87060526      29.36724024       3.65431898      -0.01033486      -0.02491627      -0.00660523      -3.31325912
Na       7.83058525      31.92445977      57.36348276      -0.00687352      -0.01287553       0.04319799      -3.26384854
Na      16.66147049      23.00222155      21.43058673       0.03871626      -0.08044267       0.06850543      -3.26194334
Na      26.88737689      50.41849137      44.18875235       0.05124683       0.05362013      -0.00265853      -3.22338724
Na      30.37546517      57.79029334      43.72134091       0.03129387      -0.03726402      -0.00955535      -3.49193525
Na      22.58453290       6.00901200      11.47687477      -0.01877111      -0.02924757       0.02320882      -3.32216454
Na      32.82856843      40.22022493      46.05715053       0.02273628       0.01548799      -0.02632555      -3.22944975
Na      24.04306766      34.31144584      45.77546532       0.03185575       0.07004326      -0.01816300      -3.41883278
Na       3.97868148       2.74800599      56.96728112       0.04003301      -0.11179480       0.09603474      -3.17118883
Na      40.90114066      36.63402376      26.34643384       0.00162508       0.02196646      -0.05145859      -3.14315701
Na      16.39143120      22.11560592      30.26241774      -0.06684311       0.07333302       0.01891462      -3.34517932
Na       4.71502726      34.83556910      32.60415650      -0.00488085      -0.06377612      -0.05718214      -3.31457424
Na      11.67778915      18.03068106      33.80436887       0.05104260      -0.02874117      -0.00195373      -3.40151525
Na      11.34811671      24.24679457      17.82741436      -0.03862431      -0.00342071      -0.00033989      -3.36448574
Na      39.61595490      14.49822676      24.06989808       0.01292025      -0.00870518      -0.01743434      -3.29663515
Na      35.36170382      24.38283023      52.27923128      -0.05630809       0.02575820      -0.00059453      -3.26290369
Na      11.03701774      18.40560836      56.34264508       0.04035620      -0.01638803       0.02384903      -3.30690765
Na      14.78288170      40.79843427      18.00382690       0.05375915      -0.06686656       0.06670617      -3.29147339
Na      53.94774781      48.02403052      23.30978490       0.04315884       0.00849041       0.01300178      -3.34686446
Na      19.47370247      20.86710262      13.16042976      -0.06816339       0.00337566       0.03361919      -3.21867442
Na      29.44862075      17.91415702      15.65908478      -0.07088059      -0.03274807      -0.00049932      -3.25728345
Na      31.86690276      47.14014609      24.54034552       0.03963925       0.01182858       0.10226794      -3.16001177
Na      31.14970528      41.34380283      36.06110753       0.02143497      -0.02759545      -0.00455700      -3.20322800
Na      37.41530457      11.69879336      46.97125893      -0.03373649       0.00277027       0.01235681      -3.35298824
Na      11.57857995      43.82698679      57.43966776       0.03977012       0.01542261      -0.02089969      -3.34509516
Na       2.18596822      54.15112569      54.79270940      -0.09501633       0.01424923       0.08071460      -3.20653200
Na      37.79091500       1.67430952      20.43222282      -0.04925075       0.02973289      -0.02837825      -3.36724877
Na      43.54483218      30.31359192      40.34691561       0.00595259       0.02939320      -0.01050540      -3.27483702
Na      36.66242848      13.48827238      11.68390507      -0.00029507       0.00568671      -0.04272750      -3.17203069
Na      16.35481486      48.09042346      19.02040284      -0.03306004      -0.01404948      -0.08139602      -3.19239616
Na      19.42423492      16.07893978      46.96759120      -0.02801350       0.03798132       0.10845558      -3.10434365
Na      25.71027755      56.90080129      35.32945912       0.06993373      -0.03422965      -0.03567579      -3.17827511
Cl      18.75173115      18.24533114      34.65465738       0.03228576      -0.01773641      -0.19538735      -3.39880490
Cl      43.71252368       9.32801419      39.00488843      -0.02696067      -0.07449730       0.07253446      -3.47207975
Cl      15.38832672       6.31682545       5.59239882       0.03392627      -0.01838351      -0.02507331      -3.53671694
Cl      50.63459853      25.60172712      54.84218219      -0.02318838       0.02257472      -0.03148793      -3.31268644
Cl      18.74290432       8.13149981      46.21408203       0.01772781       0.06798754       0.01250708      -3.56859303
Cl      29.67826084       2.24180931      38.02168827       0.06205978       0.01185564      -0.02210474      -3.56248474
Cl      15.92817809      25.85247380      15.53528052      -0.00961871       0.00396581       0.01024571      -3.49645782
Cl      43.78303878       2.28905868       4.25808052      -0.01357732      -0.02861597       0.00774407      -3.52296901
Cl      34.67564155       7.46867592       6.66520627      -0.01947509       0.08613399       0.04853982      -3.47887731
Cl      10.04838211       6.54928834      53.76781741      -0.09895463       0.05623613      -0.02734244      -3.35641956
Cl      11.65012200      24.37492344      12.83450214       0.03717156      -0.01008668       0.03222339      -3.63277841
Cl      25.21932574      51.12708605      33.39268178      -0.01429500      -0.02858068      -0.05584453      -3.28428888
Cl       5.77229228      33.28147896      29.21707515      -0.05335286       0.01592620      -0.01417471      -3.44021893
Cl      35.21474437      55.05692677      15.62018088      -0.01260437      -0.01374922      -0.05639724      -3.61602616
Cl      54.22007103       2.12416694      29.19197290      -0.01457377      -0.02435485       0.01662875      -3.50028610
Cl      26.39524471      34.14170656       6.75429104       0.05450612       0.01124042       0.00219927      -3.37335038
Cl       3.47659603      41.57168222      12.45652361      -0.03442026       0.01196180      -0.00833315      -3.58151674
Cl      25.79449271      30.25570611      49.82246164       0.02022783      -0.01930476       0.02506042      -3.48248696
Cl      32.37602375      43.50430821      51.54047158       0.11852232       0.00572223      -0.10444246      -3.42256618
Cl       3.17465203      40.25860661      19.40526447      -0.05703388      -0.08861876      -0.03390643      -3.53279519
Cl       3.34186878      39.51593446      23.08232903      -0.09135353       0.07485025       0.05401008      -3.52646232
Cl      43.40768372      13.12240196      12.16552829       0.01718370       0.00744879      -0.01914343      -3.48180246
Cl      51.72597545      14.61690928       8.05595448      -0.02885915       0.03540137       0.05829707      -3.51605272
Cl       2.76195342      37.39653345      12.84108540      -0.04244669       0.02267772      -0.01130946      -3.58638191
Cl      56.48900963      48.49847048       2.13834401       0.06337278       0.01942459      -0.01783160      -3.51169348
Cl       7.72697645       3.98505565       7.16907843      -0.02853768      -0.01631726       0.04521998      -3.49152875
Cl      50.75391307      51.91799229      13.24645347      -0.00891705      -0.03503857      -0.03342020      -3.60686445
Cl      37.68492941       3.27126429      10.95198825       0.13574019       0.02914967       0.09229494      -3.58798432
Cl      11.74302798      45.65934910      40.06124413       0.01977992      -0.02714340      -0.00868099      -3.46430230
Cl      32.44606720      29.14778019      45.52531957       0.02087859       0.09749099      -0.02243973      -3.43896294
Cl       2.33911768      19.35359527      16.40628828       0.00286190       0.13601170      -0.01349020      -3.49981380
Cl      42.82351846       5.72825715      12.59598295      -0.04642961      -0.04319957       0.01515828      -3.54388452
Cl       7.23596418      50.21961568      17.74372676      -0.02221929      -0.00530907       0.01988000      -3.45018554
Cl      48.83273042      48.87266709      10.75319291       0.01753822      -0.02373378      -0.08903851      -3.35208797
Cl      38.36908263      17.56059416      32.74298206       0.02174170       0.03677722      -0.01381011      -3.47890735
Cl       7.18052898      58.64056759      43.41136110      -0.03825170      -0.01051692      -0.04234765      -3.56585288
Cl      33.94021020      30.67499943      40.04545072       0.01859646      -0.05842150       0.05442673      -3.57329082
Cl      16.48607243      20.38072074      38.22569578       0.01317258       0.00819427      -0.00844048      -3.50872993
Cl      55.51973865      12.06493237       8.43596448      -0.01814051      -0.03952077      -0.01241165      -3.54481053
Cl      13.26899248      57.80659978      15.70889546      -0.02425710       0.02293087       0.00568054      -3.37198520
Cl      24.48104139      35.15016355      43.05891527       0.03335036      -0.02089704       0.03171804      -3.58070064
Cl      43.64595695      57.14290009      34.72176131       0.00783203      -0.03856880       0.04166437      -3.55600071
Cl      53.15857175      53.68750978      45.30117675      -0.02253918      -0.00572527      -0.05792003      -3.38100100
Cl      13.76088197      37.62449771       1.46536610      -0.03195608       0.08063952       0.05153342      -3.50392771
Cl      57.62709509      38.88574665      48.95501612      -0.02971318      -0.02081852       0.06126174      -3.42129803
Cl      36.45807639      40.05565427      20.39879038      -0.06409011       0.06237403      -0.05088558      -3.47125363
Cl      24.65309119      42.31920144      26.54055543       0.00262824      -0.02204663      -0.02117431      -3.52582765
Cl       1.34110511       2.09051804      27.69680598      -0.03235831      -0.01762876       0.02591273      -3.46063948
Cl      40.06832334      41.61547584       3.56168589      -0.03447274       0.05333114      -0.04881779      -3.45600963
Cl      21.53086815      29.06547399      33.05258959       0.02607275       0.00162247       0.03742529      -3.58036423
Na      49.11856136      38.48474170       4.70154287       0.04213160      -0.01388304      -0.01321208      -3.22208548
Na       8.99432654      10.17177737      27.98062657      -0.00355957       0.00950691      -0.03654533      -3.34633780
Na      21.33015880      16.98391913      38.40373576      -0.05542953      -0.01902584       0.07114439      -3.33262014
Na      56.78380210       9.79856782      22.18143419      -0.02508519       0.01128864       0.01788087      -3.10017157
Na      23.45335552       0.81013957      16.48210621      -0.01845803       0.02570844      -0.00432629      -3.23844552
Na      13.56316102      40.08356076      14.39267481      -0.00441581      -0.01712645       0.05393719      -3.28085303
Na      30.07150032      50.88036117      11.12851527       0.07707522      -0.00757161      -0.00983521      -3.25330281
Na      58.13373072      19.31906166      51.54165195       0.06332538       0.02148028       0.00033614      -3.29521441
Na      21.59688580      22.94024588       1.35125345       0.03619671      -0.00838299      -0.04424448      -3.38134718
Na      34.21093221      42.72644975       0.00513775      -0.01691722      -0.01610284      -0.01673905      -3.18680215
Na       3.54900878      57.64178440      54.10672829       0.03494380      -0.02767534      -0.06609790      -3.12873411
Na      33.70931257      19.98483285      37.11012473       0.08168993      -0.01661714      -0.04156595      -3.30020022
Na      34.35588166      10.10813737      27.67803526       0.00551663      -0.01259118      -0.05055635      -3.31488442
Na      20.75566859      27.85093883      50.06801440      -0.08751822       0.07050487       0.08352030      -3.21136904
Na      57.11120780      50.68833982      18.69389456       0.02767048       0.05416626       0.02082334      -3.42169929
Na      12.28030485      40.85711990      10.95952255       0.00769268      -0.03888472       0.02121832      -3.32639837
Na       8.49391527      35.45326726      20.18173564      -0.00900546      -0.09756868      -0.03202979      -3.39683342
Na      44.73857500      15.52927638       6.46565379      -0.00486461      -0.01641178      -0.00414729      -3.29213738
Na      12.87060536      29.36724030      18.28618636      -0.01033414      -0.02491605      -0.00660432      -3.31325841
Na       7.83058515      31.92445961      13.46788142      -0.00687283      -0.01287519       0.04319665      -3.26384807
Na      16.66147060      23.00222162      36.06245377       0.03871426      -0.08044433       0.06850384      -3.26194429
Na      26.88737729      50.41849118       0.29315061       0.05124307       0.05361611      -0.00266761      -3.22338724
Na      30.37546509      57.79029334      58.35320826       0.03129501      -0.03726285      -0.00955305      -3.49193525
Na      22.58453308       6.00901201      26.10874178      -0.01877135      -0.02924774       0.02320854      -3.32216454
Na      32.82856815      40.22022501       2.16154911       0.02273621       0.01548773      -0.02632111      -3.22944927
Na      24.04306766      34.31144554       1.87986368       0.03185485       0.07004186      -0.01815938      -3.41883230
Na       3.97868149       2.74800621      13.07168011       0.04003343      -0.11179478       0.09603285      -3.17118931
Na      40.90114043      36.63402367      40.97830084       0.00162007       0.02196244      -0.05146471      -3.14315772
Na      16.39143123      22.11560605      44.89428468      -0.06684375       0.07333296       0.01891585      -3.34517980
Na       4.71502717      34.83556916      47.23602362      -0.00488146      -0.06377617      -0.05718164      -3.31457424
Na      11.67778928      18.03068120      48.43623564       0.05104103      -0.02874391      -0.00196165      -3.40151501
Na      11.34811675      24.24679453      32.45928149      -0.03862465      -0.00341974      -0.00034156      -3.36448503
Na      39.61595481      14.49822671      38.70176486       0.01292089      -0.00870357      -0.01742892      -3.29663491
Na      35.36170388      24.38283014       8.38363035      -0.05631171       0.02575847      -0.00059450      -3.26290369
Na      11.03701775      18.40560842      12.44704359       0.04035716      -0.01638938       0.02384538      -3.30690765
Na      14.78288168      40.79843423      32.63569413       0.05375820      -0.06686715       0.06670815      -3.29147291
Na      53.94774794      48.02403036      37.94165186       0.04315771       0.00849266       0.01300677      -3.34686375
Na      19.47370252      20.86710256      27.79229670      -0.06816412       0.00337605       0.03361937      -3.21867347
Na      29.44862072      17.91415704      30.29095184      -0.07088117      -0.03274820      -0.00049913      -3.25728345
Na      31.86690267      47.14014623      39.17221226       0.03964168       0.01182770       0.10227259      -3.16001177
Na      31.14970538      41.34380273      50.69297488       0.02143606      -0.02759534      -0.00455631      -3.20322728
Na      37.41530470      11.69879324       3.07565734      -0.03373627       0.00276969       0.01235825      -3.35298800
Na      11.57858024      43.82698677      13.54406635       0.03976993       0.01542069      -0.02090318      -3.34509492
Na       2.18596801      54.15112579      10.89710827      -0.09501632       0.01424960       0.08071472      -3.20653200
Na      37.79091500       1.67430971      35.06408939      -0.04924998       0.02973353      -0.02838155      -3.36724854
Na      43.54483224      30.31359178      54.97878321       0.00594378       0.02939487      -0.01050654      -3.27483773
Na      36.66242848      13.48827247      26.31577212      -0.00029414       0.00568617      -0.04273010      -3.17203069
Na      16.35481500      48.09042343      33.65226958      -0.03306048      -0.01405017      -0.08139832      -3.19239664
Na      19.42423450      16.07893954       3.07199022      -0.02801430       0.03798145       0.10845508      -3.10434318
Na      25.71027771      56.90080105      49.96132639       0.06993308      -0.03422928      -0.03567405      -3.17827559
Cl      18.75173098      18.24533121      49.28652428       0.03228565      -0.01773636      -0.19538733      -3.39880466
Cl      43.71252384       9.32801414      53.63675558      -0.02696486      -0.07449695       0.07252930      -3.47207928
Cl      15.38832685       6.31682557      20.22426609       0.03392674      -0.01838397      -0.02507477      -3.53671694
Cl      50.63459860      25.60172723      10.94658094      -0.02318885       0.02257468      -0.03148714      -3.31268644
Cl      18.74290410       8.13149985       2.31848113       0.01772617       0.06798732       0.01250544      -3.56859326
Cl      29.67826070       2.24180930      52.65355573       0.06206122       0.01185567      -0.02211352      -3.56248403
Cl      15.92817817      25.85247381      30.16714760      -0.00961868       0.00396543       0.01024552      -3.49645782
Cl      43.78303882       2.28905856      18.88994776      -0.01357683      -0.02861714       0.00774496      -3.52296972
Cl      34.67564158       7.46867595      21.29707329      -0.01947527       0.08613369       0.04854024      -3.47887707
Cl      10.04838185       6.54928843       9.87221606      -0.09895494       0.05623735      -0.02733974      -3.35641789
Cl      11.65012200      24.37492346      27.46636909       0.03717194      -0.01008718       0.03222203      -3.63277793
Cl      25.21932576      51.12708588      48.02454898      -0.01429556      -0.02858061      -0.05584298      -3.28428888
Cl       5.77229216      33.28147900      43.84894206      -0.05335214       0.01592742      -0.01417263      -3.44021916
Cl      35.21474445      55.05692681      30.25204779      -0.01260354      -0.01374858      -0.05639808      -3.61602664
Cl      54.22007104       2.12416695      43.82384010      -0.01457359      -0.02435411       0.01662463      -3.50028467
Cl      26.39524488      34.14170660      21.38615798       0.05450505       0.01124112       0.00220058      -3.37335062
Cl       3.47659605      41.57168214      27.08839068      -0.03441975       0.01196101      -0.00833192      -3.58151698
Cl      25.79449263      30.25570619       5.92686042       0.02022895      -0.01930452       0.02505966      -3.48248744
Cl      32.37602379      43.50430827       7.64487058       0.11852083       0.00572126      -0.10444556      -3.42256618
Cl       3.17465197      40.25860642      34.03713119      -0.05703124      -0.08862056      -0.03391346      -3.53279567
Cl       3.34186876      39.51593446      37.71419614      -0.09135291       0.07484986       0.05401172      -3.52646303
Cl      43.40768365      13.12240198      26.79739517       0.01718333       0.00744799      -0.01914304      -3.48180270
Cl      51.72597546      14.61690929      22.68782164      -0.02885941       0.03540181       0.05829775      -3.51605248
Cl       2.76195343      37.39653354      27.47295240      -0.04244732       0.02267830      -0.01130881      -3.58638215
Cl      56.48900967      48.49847055      16.77021134       0.06337227       0.01942567      -0.01783442      -3.51169419
Cl       7.72697643       3.98505568      21.80094562      -0.02853746      -0.01631722       0.04522087      -3.49152851
Cl      50.75391307      51.91799236      27.87832063      -0.00891740      -0.03503801      -0.03341989      -3.60686493
Cl      37.68492946       3.27126435      25.58385516       0.13574009       0.02914995       0.09229785      -3.58798432
Cl      11.74302783      45.65934932      54.69311137       0.01977950      -0.02714126      -0.00868007      -3.46430373
Cl      32.44606749      29.14778016       1.62971792       0.02087671       0.09748929      -0.02244300      -3.43896246
Cl       2.33911771      19.35359529      31.03815516       0.00286055       0.13601176      -0.01348802      -3.49981260
Cl      42.82351843       5.72825710      27.22784980      -0.04642920      -0.04319936       0.01515719      -3.54388452
Cl       7.23596414      50.21961563      32.37559371      -0.02221959      -0.00530781       0.01987625      -3.45018506
Cl      48.83273037      48.87266710      25.38506010       0.01753802      -0.02373390      -0.08903672      -3.35208821
Cl      38.36908253      17.56059433      47.37484866       0.02174160       0.03677766      -0.01380589      -3.47890663
Cl       7.18052904      58.64056740      58.04322871      -0.03825241      -0.01051821      -0.04234518      -3.56585336
Cl      33.94021007      30.67499952      54.67731754       0.01859637      -0.05842097       0.05442658      -3.57329130
Cl      16.48607252      20.38072061      52.85756260       0.01317210       0.00819310      -0.00844052      -3.50872922
Cl      55.51973855      12.06493248      23.06783143      -0.01814055      -0.03952086      -0.01240887      -3.54480934
Cl      13.26899247      57.80659978      30.34076249      -0.02425648       0.02293104       0.00567964      -3.37198544
Cl      24.48104120      35.15016344      57.69078289       0.03335072      -0.02089701       0.03171553      -3.58069992
Cl      43.64595691      57.14289996      49.35362801       0.00783174      -0.03856689       0.04166728      -3.55600214
Cl      53.15857187      53.68750990       1.40557505      -0.02253698      -0.00572533      -0.05791438      -3.38100219
Cl      13.76088213      37.62449796      16.09723369      -0.03195611       0.08063945       0.05153450      -3.50392747
Cl      57.62709515      38.88574669       5.05941505      -0.02971422      -0.02081743       0.06126442      -3.42129683
Cl      36.45807629      40.05565421      35.03065734      -0.06409043       0.06237469      -0.05088738      -3.47125292
Cl      24.65309123      42.31920137      41.17242241       0.00262702      -0.02204741      -0.02117789      -3.52582741
Cl       1.34110510       2.09051803      42.32867307      -0.03235976      -0.01762866       0.02591043      -3.46063948
Cl      40.06832332      41.61547621      18.19355310      -0.03447310       0.05333034      -0.04882234      -3.45600986
Cl      21.53086813      29.06547398      47.68445667       0.02607216       0.00162180       0.03742912      -3.58036304
Na      49.11856144      53.11660840      19.33341029       0.04213383      -0.01387938      -0.01321197      -3.22208452
Na       8.99432657      24.80364442      42.61249326      -0.00356059       0.00950683      -0.03653972      -3.34633851
Na      21.33015875      31.61578584      53.03560327      -0.05542661      -0.01902248       0.07114749      -3.33262014
Na      56.78380217      24.43043488      36.81330106      -0.02508594       0.01128493       0.01788326      -3.10017157
Na      23.45335604      15.44200697      31.11397335      -0.01845822       0.02570872      -0.00432548      -3.23844552
Na      13.56316095      54.71542780      29.02454195      -0.00441594      -0.01712537       0.05393771      -3.28085327
Na      30.07150039       6.98476016      25.76038239       0.07707372      -0.00757518      -0.00983473      -3.25330210
Na      58.13373060      33.95092857       7.64605131       0.06332615       0.02148278       0.00033697      -3.29521465
Na      21.59688593      37.57211334      15.98312121       0.03619629      -0.00838190      -0.04424436      -3.38134694
Na      34.21093227      57.35831711      14.63700555      -0.01691359      -0.01611111      -0.01674041      -3.18680167
Na       3.54900897      13.74618258      10.21112673       0.03494328      -0.02767690      -0.06609497      -3.12873530
Na      33.70931265      34.61669992      51.74199184       0.08168837      -0.01661657      -0.04156583      -3.30020094
Na      34.35588159      24.74000455      42.30990212       0.00551742      -0.01259397      -0.05055276      -3.31488490
Na      20.75566862      42.48280597       6.17241319      -0.08751510       0.07049818       0.08352180      -3.21136856
Na      57.11120774       6.79273885      33.32576163       0.02767226       0.05416564       0.02082518      -3.42169905
Na      12.28030489      55.48898759      25.59138941       0.00769417      -0.03888222       0.02122111      -3.32639885
Na       8.49391520      50.08513419      34.81360248      -0.00900419      -0.09756865      -0.03202835      -3.39683294
Na      44.73857533      30.16114342      21.09752081      -0.00486346      -0.01641143      -0.00414595      -3.29213858
Na      12.87060542      43.99910727      32.91805316      -0.01033553      -0.02491605      -0.00660372      -3.31325889
Na       7.83058527      46.55632655      28.09974848      -0.00687438      -0.01287713       0.04319506      -3.26384759
Na      16.66147058      37.63408867      50.69432089       0.03871462      -0.08044719       0.06850262      -3.26194453
Na      26.88737686       6.52289037      14.92501849       0.05124152       0.05361529      -0.00266603      -3.22338653
Na      30.37546531      13.89469162      14.45760655       0.03129544      -0.03726092      -0.00955478      -3.49193525
Na      22.58453263      20.64087917      40.74060867      -0.01876654      -0.02924604       0.02320664      -3.32216454
Na      32.82856828      54.85209203      16.79341631       0.02273579       0.01548810      -0.02632488      -3.22944927
Na      24.04306750      48.94331307      16.51173127       0.03185499       0.07004273      -0.01816087      -3.41883183
Na       3.97868164      17.37987341      27.70354711       0.04003477      -0.11179368       0.09603518      -3.17119026
Na      40.90114035      51.26589130      55.61016860       0.00162621       0.02196538      -0.05145731      -3.14315844
Na      16.39143138      36.74747289       0.99868355      -0.06684224       0.07333201       0.01891454      -3.34517932
Na       4.71502710      49.46743631       3.34042288      -0.00488290      -0.06378009      -0.05718089      -3.31457424
Na      11.67778941      32.66254794       4.54063489       0.05104134      -0.02873993      -0.00195707      -3.40151501
Na      11.34811665      38.87866127      47.09114853      -0.03862381      -0.00342246      -0.00034067      -3.36448622
Na      39.61595488      29.13009362      53.33363222       0.01292155      -0.00870544      -0.01743285      -3.29663444
Na      35.36170388      39.01469698      23.01549726      -0.05631248       0.02575755      -0.00059537      -3.26290417
Na      11.03701774      33.03747574      27.07891061       0.04035773      -0.01638841       0.02384480      -3.30690765
Na      14.78288132      55.43030170      47.26756109       0.05375974      -0.06686917       0.06669926      -3.29147363
Na      53.94774773       4.12842952      52.57351909       0.04315699       0.00848800       0.01299919      -3.34686375
Na      19.47370255      35.49896947      42.42416348      -0.06816293       0.00337186       0.03361857      -3.21867442
Na      29.44862074      32.54602384      44.92281883      -0.07088118      -0.03274646      -0.00049770      -3.25728440
Na      31.86690283       3.24454505      53.80407940       0.03963921       0.01182626       0.10226828      -3.16001248
Na      31.14970518      55.97567018       6.79737320       0.02144004      -0.02759067      -0.00455564      -3.20322800
Na      37.41530456      26.33066042      17.70752485      -0.03373642       0.00277042       0.01235814      -3.35298777
Na      11.57858045      -0.06861482      28.17593342       0.03976867       0.01542342      -0.02090328      -3.34509540
Na       2.18596779      10.25552425      25.52897550      -0.09501430       0.01425257       0.08071370      -3.20653248
Na      37.79091488      16.30617719      49.69595673      -0.04924915       0.02973190      -0.02838274      -3.36724854
Na      43.54483220      44.94545874      11.08318179       0.00595292       0.02939267      -0.01050680      -3.27483773
Na      36.66242862      28.12013953      40.94763902      -0.00029336       0.00568647      -0.04272803      -3.17203140
Na      16.35481451       4.19482208      48.28413700      -0.03305934      -0.01404610      -0.08139765      -3.19239640
Na      19.42423489      30.71080711      17.70385721      -0.02801453       0.03797930       0.10845506      -3.10434294
Na      25.71027706      13.00519921       6.06572533       0.06993230      -0.03422071      -0.03567459      -3.17827559
Cl      18.75173106      32.87719846       5.39092330       0.03228585      -0.01773766      -0.19538708      -3.39880633
Cl      43.71252367      23.95988128       9.74115444      -0.02696321      -0.07449621       0.07253051      -3.47207928
Cl      15.38832692      20.94869243      34.85613308       0.03392611      -0.01838213      -0.02507182      -3.53671551
Cl      50.63459865      40.23359412      25.57844794      -0.02318789       0.02257552      -0.03148452      -3.31268716
Cl      18.74290435      22.76336707      16.95034814       0.01772751       0.06798953       0.01250549      -3.56859374
Cl      29.67826083      16.87367664       8.75795455       0.06206137       0.01185577      -0.02211203      -3.56248403
Cl      15.92817832      40.48434071      44.79901444      -0.00962265       0.00396669       0.01024494      -3.49645686
Cl      43.78303878      16.92092614      33.52181463      -0.01357841      -0.02861850       0.00774404      -3.52296972
Cl      34.67564147      22.10054304      35.92894041      -0.01947695       0.08612731       0.04854522      -3.47887731
Cl      10.04838191      21.18115556      24.50408312      -0.09895663       0.05623495      -0.02734175      -3.35641789
Cl      11.65012208      39.00679060      42.09823595       0.03717306      -0.01008172       0.03222380      -3.63277912
Cl      25.21932560       7.23148520       4.12894815      -0.01429319      -0.02857932      -0.05584462      -3.28428936
Cl       5.77229229      47.91334655      -0.04666070      -0.05335300       0.01592909      -0.01417316      -3.44021916
Cl      35.21474435      11.16132604      44.88391471      -0.01260428      -0.01375210      -0.05639592      -3.61602545
Cl      54.22007113      16.75603457      -0.07176201      -0.01457292      -0.02435475       0.01662611      -3.50028443
Cl      26.39524482      48.77357345      36.01802498       0.05450747       0.01124156       0.00220114      -3.37335157
Cl       3.47659620      56.20354965      41.72025718      -0.03442010       0.01196228      -0.00833238      -3.58151817
Cl      25.79449266      44.88757311      20.55872771       0.02022898      -0.01930352       0.02505822      -3.48248625
Cl      32.37602309      58.13617575      22.27673797       0.11851893       0.00571322      -0.10444418      -3.42256546
Cl       3.17465167      54.89047379      48.66899817      -0.05703197      -0.08862107      -0.03390800      -3.53279734
Cl       3.34186880      54.14780151      52.34606287      -0.09135288       0.07485262       0.05401139      -3.52646470
Cl      43.40768373      27.75426900      41.42926221       0.01718281       0.00744842      -0.01914709      -3.48180270
Cl      51.72597542      29.24877618      37.31968898      -0.02885773       0.03540228       0.05829483      -3.51605320
Cl       2.76195355      52.02840062      42.10481939      -0.04244737       0.02267779      -0.01131071      -3.58638215
Cl      56.48900955       4.60286934      31.40207839       0.06337412       0.01942378      -0.01783286      -3.51169443
Cl       7.72697636      18.61692317      36.43281285      -0.02853809      -0.01631812       0.04522130      -3.49153018
Cl      50.75391312       8.02239125      42.51018747      -0.00891743      -0.03504137      -0.03342099      -3.60686326
Cl      37.68492946      17.90313126      40.21572244       0.13574073       0.02914936       0.09229948      -3.58798409
Cl      11.74302788       1.76374769      10.79751048       0.01977965      -0.02714387      -0.00867963      -3.46430230
Cl      32.44606746      43.77964721      16.26158554       0.02087737       0.09748821      -0.02244286      -3.43896246
Cl       2.33911759      33.98546262      45.67002219       0.00286262       0.13601148      -0.01348808      -3.49981260
Cl      42.82351853      20.36012399      41.85971690      -0.04642865      -0.04320002       0.01515513      -3.54388523
Cl       7.23596413       6.32401434      47.00746090      -0.02222182      -0.00530879       0.01987703      -3.45018506
Cl      48.83273058       4.97706604      40.01692730       0.01753926      -0.02373445      -0.08903672      -3.35208821
Cl      38.36908271      32.19246114       3.47924720       0.02174133       0.03677383      -0.01381079      -3.47890687
Cl       7.18052915      14.74496565      14.14762711      -0.03825300      -0.01051696      -0.04234499      -3.56585288
Cl      33.94021036      45.30686640      10.78171662       0.01859158      -0.05842010       0.05443106      -3.57329130
Cl      16.48607251      35.01258774       8.96196154       0.01317491       0.00818953      -0.00844122      -3.50872707
Cl      55.51973869      26.69679920      37.69969847      -0.01814351      -0.03951566      -0.01241770      -3.54481173
Cl      13.26899268      13.91099823      44.97262961      -0.02425701       0.02292943       0.00567822      -3.37198496
Cl      24.48104126      49.78203043      13.79518122       0.03335121      -0.02090233       0.03171846      -3.58070111
Cl      43.64595693      13.24729863       5.45802695       0.00783350      -0.03857057       0.04166346      -3.55599999
Cl      53.15857173       9.79190859      16.03744261      -0.02253526      -0.00572259      -0.05791427      -3.38100266
Cl      13.76088216      52.25636510      30.72910071      -0.03195963       0.08063041       0.05153191      -3.50392771
Cl      57.62709532      53.51761389      19.69128247      -0.02971314      -0.02081791       0.06126522      -3.42129707
Cl      36.45807619      54.68752145      49.66252433      -0.06409109       0.06236618      -0.05088630      -3.47125435
Cl      24.65309155      56.95106881      55.80428982       0.00262821      -0.02204481      -0.02117586      -3.52582836
Cl       1.34110529      16.72238534      56.96054080      -0.03235939      -0.01762931       0.02591152      -3.46063948
Cl      40.06832407      56.24734277      32.82542052      -0.03447215       0.05333288      -0.04881494      -3.45600867
Cl      21.53086826      43.69734102       3.78885517       0.02607310       0.00162070       0.03742614      -3.58036423
Na      49.11856156      53.11660820      33.96527737       0.04212987      -0.01387629      -0.01321359      -3.22208452
Na       8.99432681      24.80364413      57.24436147      -0.00356017       0.00950663      -0.03654502      -3.34633803
Na      21.33015876      31.61578594       9.14000196      -0.05542732      -0.01902326       0.07114479      -3.33262014
Na      56.78380217      24.43043488      51.44516832      -0.02508504       0.01128781       0.01788815      -3.10017109
Na      23.45335613      15.44200699      45.74584014      -0.01845825       0.02570744      -0.00432861      -3.23844695
Na      13.56316088      54.71542789      43.65640882      -0.00441768      -0.01712603       0.05393708      -3.28085351
Na      30.07150031       6.98476008      40.39224917       0.07707505      -0.00757435      -0.00983603      -3.25330091
Na      58.13373066      33.95092854      22.27791824       0.06332617       0.02148137       0.00033759      -3.29521489
Na      21.59688587      37.57211337      30.61498833       0.03619543      -0.00838292      -0.04424356      -3.38134670
Na      34.21093237      57.35831681      29.26887246      -0.01691251      -0.01611112      -0.01674126      -3.18680143
Na       3.54900898      13.74618257      24.84299368       0.03494404      -0.02767741      -0.06609395      -3.12873507
Na      33.70931257      34.61669987       7.84639067       0.08168782      -0.01661823      -0.04156390      -3.30020046
Na      34.35588153      24.74000483      56.94176956       0.00551727      -0.01259315      -0.05055418      -3.31488490
Na      20.75566843      42.48280596      20.80428036      -0.08751597       0.07049934       0.08352171      -3.21136880
Na      57.11120783       6.79273874      47.95762870       0.02766941       0.05416536       0.02082104      -3.42169905
Na      12.28030494      55.48898738      40.22325658       0.00769448      -0.03888323       0.02122433      -3.32639861
Na       8.49391518      50.08513422      49.44546943      -0.00900378      -0.09756920      -0.03202828      -3.39683270
Na      44.73857524      30.16114337      35.72938791      -0.00486353      -0.01641335      -0.00414728      -3.29213762
Na      12.87060545      43.99910730      47.54992041      -0.01033597      -0.02491569      -0.00660510      -3.31325912
Na       7.83058522      46.55632661      42.73161508      -0.00687151      -0.01287741       0.04319170      -3.26384854
Na      16.66147051      37.63408859       6.79871970       0.03871505      -0.08044671       0.06850427      -3.26194477
Na      26.88737690       6.52289037      29.55688538       0.05124212       0.05361634      -0.00266508      -3.22338629
Na      30.37546528      13.89469162      29.08947349       0.03129485      -0.03726055      -0.00955591      -3.49193525
Na      22.58453283      20.64087907      55.37247609      -0.01877112      -0.02924632       0.02321100      -3.32216334
Na      32.82856830      54.85209205      31.42528341       0.02273530       0.01548737      -0.02631994      -3.22944927
Na      24.04306746      48.94331297      31.14359846       0.03185480       0.07004318      -0.01816021      -3.41883159
Na       3.97868171      17.37987335      42.33541421       0.04003184      -0.11179541       0.09603408      -3.17119074
Na      40.90114066      51.26589116      11.71456697       0.00162441       0.02196455      -0.05146100      -3.14315772
Na      16.39143117      36.74747314      15.63055062      -0.06684248       0.07333212       0.01891379      -3.34517980
Na       4.71502711      49.46743616      17.97228962      -0.00488270      -0.06378128      -0.05718045      -3.31457305
Na      11.67778923      32.66254800      19.17250197       0.05104109      -0.02873996      -0.00195783      -3.40151405
Na      11.34811661      38.87866130       3.19554689      -0.03862473      -0.00342304      -0.00033953      -3.36448574
Na      39.61595484      29.13009363       9.43803088       0.01292101      -0.00870464      -0.01743251      -3.29663491
Na      35.36170377      39.01469700      37.64736421      -0.05630751       0.02575772      -0.00059557      -3.26290417
Na      11.03701765      33.03747568      41.71077748       0.04035702      -0.01638888       0.02384697      -3.30690789
Na      14.78288120      55.43030184       3.37195975       0.05375993      -0.06686734       0.06670418      -3.29147291
Na      53.94774767       4.12842952       8.67791781       0.04315543       0.00848751       0.01300477      -3.34686446
Na      19.47370240      35.49896965      57.05603059      -0.06815965       0.00337318       0.03361905      -3.21867466
Na      29.44862080      32.54602341       1.02721766      -0.07088397      -0.03274830      -0.00049897      -3.25728416
Na      31.86690253       3.24454513       9.90847830       0.03963933       0.01182575       0.10226934      -3.16001272
Na      31.14970517      55.97567010      21.42924066       0.02143982      -0.02759057      -0.00455802      -3.20322776
Na      37.41530477      26.33066035      32.33939167      -0.03373572       0.00277032       0.01235991      -3.35298705
Na      11.57858042      -0.06861487      42.80780022       0.03976760       0.01542547      -0.02090071      -3.34509635
Na       2.18596788      10.25552425      40.16084249      -0.09501562       0.01425276       0.08071361      -3.20653200
Na      37.79091499      16.30617730       5.80035547      -0.04924974       0.02973168      -0.02838042      -3.36724830
Na      43.54483211      44.94545872      25.71504895       0.00595263       0.02939374      -0.01050922      -3.27483773
Na      36.66242847      28.12013929      55.57950655      -0.00029477       0.00568543      -0.04272762      -3.17203140
Na      16.35481452       4.19482202       4.38853613      -0.03305970      -0.01404438      -0.08139474      -3.19239616
Na      19.42423496      30.71080721      32.33572413      -0.02801480       0.03797938       0.10845486      -3.10434246
Na      25.71027702      13.00519911      20.69759234       0.06993324      -0.03421960      -0.03567068      -3.17827535
Cl      18.75173108      32.87719841      20.02279041       0.03228587      -0.01773719      -0.19538763      -3.39880657
Cl      43.71252362      23.95988129      24.37302150      -0.02696337      -0.07449621       0.07253107      -3.47207975
Cl      15.38832700      20.94869232      49.48800037       0.03392794      -0.01838206      -0.02506916      -3.53671646
Cl      50.63459866      40.23359404      40.21031493      -0.02318730       0.02257481      -0.03148672      -3.31268811
Cl      18.74290440      22.76336702      31.58221517       0.01772766       0.06798939       0.01250596      -3.56859374
Cl      29.67826089      16.87367662      23.38982168       0.06206109       0.01185522      -0.02211174      -3.56248331
Cl      15.92817794      40.48434084       0.90341310      -0.00962048       0.00396611       0.01024584      -3.49645782
Cl      43.78303874      16.92092607      48.15368167      -0.01357574      -0.02861423       0.00774471      -3.52296877
Cl      34.67564143      22.10054290      50.56080728      -0.01947583       0.08613334       0.04854201      -3.47887754
Cl      10.04838202      21.18115556      39.13594984      -0.09895421       0.05623712      -0.02733432      -3.35641694
Cl      11.65012207      39.00679042      56.73010350       0.03717100      -0.01008198       0.03222745      -3.63277984
Cl      25.21932573       7.23148513      18.76081505      -0.01429434      -0.02857912      -0.05584358      -3.28428936
Cl       5.77229235      47.91334593      14.58520822      -0.05335139       0.01592714      -0.01417333      -3.44021988
Cl      35.21474446      11.16132575       0.98831318      -0.01260354      -0.01374984      -0.05639647      -3.61602640
Cl      54.22007104      16.75603450      14.56010595      -0.01457375      -0.02435455       0.01662757      -3.50028467
Cl      26.39524480      48.77357371      50.64989212       0.05450490       0.01124147       0.00220584      -3.37335110
Cl       3.47659634      56.20354980      56.35212501      -0.03442076       0.01196334      -0.00833024      -3.58151698
Cl      25.79449276      44.88757326      35.19059468       0.02022733      -0.01930427       0.02506043      -3.48248696
Cl      32.37602313      58.13617569      36.90860518       0.11851931       0.00571309      -0.10444413      -3.42256546
Cl       3.17465172      54.89047404       4.77339712      -0.05703282      -0.08861975      -0.03390878      -3.53279614
Cl       3.34186872      54.14780154       8.45046179      -0.09135176       0.07485297       0.05400988      -3.52646399
Cl      43.40768376      27.75426905      56.06112988       0.01718423       0.00745022      -0.01914318      -3.48180389
Cl      51.72597550      29.24877624      51.95155553      -0.02885880       0.03540333       0.05829760      -3.51605320
Cl       2.76195361      52.02840088      56.73668681      -0.04244622       0.02267830      -0.01130931      -3.58638120
Cl      56.48900967       4.60286940      46.03394529       0.06337421       0.01942597      -0.01783615      -3.51169324
Cl       7.72697648      18.61692319      51.06467995      -0.02853513      -0.01631762       0.04522466      -3.49152970
Cl      50.75391317       8.02239156      57.14205562      -0.00891269      -0.03503973      -0.03342105      -3.60686493
Cl      37.68492918      17.90313131      54.84758957       0.13573954       0.02914999       0.09228835      -3.58798552
Cl      11.74302792       1.76374773      25.42937740       0.01977988      -0.02714348      -0.00867884      -3.46430182
Cl      32.44606749      43.77964721      30.89345257       0.02087705       0.09748839      -0.02244142      -3.43896341
Cl       2.33911787      33.98546232       1.77442130       0.00286225       0.13601196      -0.01348978      -3.49981332
Cl      42.82351831      20.36012418      56.49158414      -0.04643337      -0.04320087       0.01515850      -3.54388452
Cl       7.23596413       6.32401450       3.11185904      -0.02222024      -0.00530889       0.01987930      -3.45018506
Cl      48.83273064       4.97706611      54.64879394       0.01754110      -0.02373384      -0.08903759      -3.35208821
Cl      38.36908255      32.19246129      18.11111468       0.02174085       0.03677538      -0.01381060      -3.47890711
Cl       7.18052916      14.74496559      28.77949419      -0.03825324      -0.01051706      -0.04234456      -3.56585312
Cl      33.94021040      45.30686632      25.41358357       0.01859135      -0.05842030       0.05443036      -3.57329202
Cl      16.48607246      35.01258765      23.59382868       0.01317461       0.00818942      -0.00843991      -3.50872707
Cl      55.51973861      26.69679938      52.33156581      -0.01814043      -0.03952061      -0.01241027      -3.54480982
Cl      13.26899259      13.91099842       1.07702823      -0.02425575       0.02292946       0.00567763      -3.37198496
Cl      24.48104133      49.78203028      28.42704828       0.03335103      -0.02090262       0.03171870      -3.58070111
Cl      43.64595693      13.24729856      20.08989441       0.00783294      -0.03857314       0.04166136      -3.55599928
Cl      53.15857159       9.79190860      30.66930971      -0.02253560      -0.00572284      -0.05791393      -3.38100338
Cl      13.76088210      52.25636490      45.36096769      -0.03196013       0.08062965       0.05152941      -3.50392652
Cl      57.62709537      53.51761399      34.32314958      -0.02971174      -0.02081641       0.06126002      -3.42129636
Cl      36.45807618      54.68752143       5.76692310      -0.06409040       0.06236575      -0.05088575      -3.47125483
Cl      24.65309163      56.95106856      11.90868838       0.00262837      -0.02204452      -0.02117439      -3.52582765
Cl       1.34110532      16.72238542      13.06493880      -0.03235916      -0.01762871       0.02591201      -3.46063900
Cl      40.06832400      56.24734290      47.45728756      -0.03447078       0.05333336      -0.04881328      -3.45600843
Cl      21.53086824      43.69734102      18.42072275       0.02607311       0.00162092       0.03742580      -3.58036375
Na      49.11856153      53.11660836      48.59714416       0.04212970      -0.01387707      -0.01321392      -3.22208428
Na       8.99432647      24.80364436      13.34875951      -0.00356018       0.00950648      -0.03654415      -3.34633803
Na      21.33015871      31.61578591      23.77186912      -0.05542807      -0.01902369       0.07114303      -3.33262014
Na      56.78380211      24.43043482       7.54956699      -0.02508491       0.01128590       0.01788156      -3.10017204
Na      23.45335586      15.44200734       1.85023859      -0.01845782       0.02570921      -0.00432609      -3.23844600
Na      13.56316102      54.71542779      58.28827676      -0.00441718      -0.01712667       0.05393729      -3.28085327
Na      30.07150020       6.98476029      55.02411679       0.07707343      -0.00757483      -0.00983424      -3.25330210
Na      58.13373067      33.95092856      36.90978537       0.06332365       0.02148421       0.00033457      -3.29521465
Na      21.59688591      37.57211345      45.24685532       0.03619623      -0.00837996      -0.04424689      -3.38134742
Na      34.21093223      57.35831699      43.90073969      -0.01691046      -0.01611236      -0.01674344      -3.18680167
Na       3.54900893      13.74618247      39.47486055       0.03494364      -0.02767575      -0.06609920      -3.12873530
Na      33.70931257      34.61669985      22.47825767       0.08168788      -0.01661838      -0.04156423      -3.30020070
Na      34.35588155      24.74000448      13.04616811       0.00551584      -0.01258988      -0.05055511      -3.31488466
Na      20.75566841      42.48280584      35.43614735      -0.08751666       0.07049796       0.08352391      -3.21136880
Na      57.11120779       6.79273884       4.06202736       0.02767158       0.05416627       0.02082372      -3.42169833
Na      12.28030498      55.48898747      54.85512409       0.00769372      -0.03888127       0.02121324      -3.32639885
Na       8.49391527      50.08513419       5.54986827      -0.00900497      -0.09756933      -0.03202929      -3.39683294
Na      44.73857533      30.16114359      50.36125520      -0.00486509      -0.01641162      -0.00414769      -3.29213834
Na      12.87060538      43.99910724       3.65431912      -0.01033562      -0.02491677      -0.00660512      -3.31325889
Na       7.83058537      46.55632650      57.36348292      -0.00687421      -0.01287790       0.04319780      -3.26384807
Na      16.66147052      37.63408855      21.43058667       0.03871590      -0.08044595       0.06850489      -3.26194453
Na      26.88737689       6.52289027      44.18875255       0.05124334       0.05361715      -0.00265994      -3.22338676
Na      30.37546539      13.89469156      43.72134078       0.03129529      -0.03726007      -0.00955535      -3.49193525
Na      22.58453279      20.64087915      11.47687456      -0.01877115      -0.02924607       0.02320885      -3.32216454
Na      32.82856814      54.85209205      46.05715045       0.02273593       0.01548782      -0.02632685      -3.22944951
Na      24.04306756      48.94331297      45.77546532       0.03185620       0.07004361      -0.01816319      -3.41883206
Na       3.97868165      17.37987334      56.96728138       0.04003425      -0.11179456       0.09603511      -3.17118979
Na      40.90114068      51.26589123      26.34643398       0.00162573       0.02196662      -0.05145827      -3.14315772
Na      16.39143107      36.74747312      30.26241771      -0.06684287       0.07333203       0.01891438      -3.34517956
Na       4.71502721      49.46743621      32.60415655      -0.00488307      -0.06378067      -0.05718088      -3.31457424
Na      11.67778919      32.66254793      33.80436907       0.05104231      -0.02874013      -0.00196124      -3.40151525
Na      11.34811674      38.87866153      17.82741435      -0.03862429      -0.00342304      -0.00033949      -3.36448574
Na      39.61595487      29.13009363      24.06989800       0.01292123      -0.00870512      -0.01743353      -3.29663444
Na      35.36170389      39.01469706      52.27923129      -0.05631191       0.02575740      -0.00059573      -3.26290417
Na      11.03701773      33.03747563      56.34264507       0.04035612      -0.01638582       0.02385011      -3.30690765
Na      14.78288131      55.43030183      18.00382709       0.05375884      -0.06686717       0.06670568      -3.29147387
Na      53.94774768       4.12842953      23.30978495       0.04315627       0.00848681       0.01300169      -3.34686446
Na      19.47370246      35.49896952      13.16042968      -0.06816429       0.00337293       0.03361887      -3.21867418
Na      29.44862066      32.54602393      15.65908490      -0.07088057      -0.03274721      -0.00049923      -3.25728440
Na      31.86690275       3.24454515      24.54034538       0.03963893       0.01182598       0.10226782      -3.16001225
Na      31.14970514      55.97567028      36.06110743       0.02143781      -0.02758956      -0.00455583      -3.20322776
Na      37.41530467      26.33066044      46.97125897      -0.03373621       0.00276977       0.01235656      -3.35298800
Na      11.57858015      -0.06861485      57.43966789       0.03976930       0.01542602      -0.02089911      -3.34509540
Na       2.18596806      10.25552427      54.79270966      -0.09501535       0.01425201       0.08071427      -3.20653200
Na      37.79091489      16.30617717      20.43222278      -0.04924985       0.02973108      -0.02837961      -3.36724877
Na      43.54483229      44.94545888      40.34691570       0.00594308       0.02939252      -0.01050430      -3.27483773
Na      36.66242860      28.12013935      11.68390508      -0.00029464       0.00568514      -0.04272778      -3.17203140
Na      16.35481461       4.19482202      19.02040296      -0.03305964      -0.01404448      -0.08139415      -3.19239640
Na      19.42423499      30.71080704      46.96759119      -0.02801413       0.03797826       0.10845408      -3.10434341
Na      25.71027692      13.00519926      35.32945927       0.06993344      -0.03422105      -0.03567706      -3.17827535
Cl      18.75173118      32.87719843      34.65465756       0.03228617      -0.01773694      -0.19538787      -3.39880705
Cl      43.71252360      23.95988138      39.00488840      -0.02696069      -0.07449645       0.07253441      -3.47207928
Cl      15.38832669      20.94869238       5.59239884       0.03392701      -0.01838328      -0.02507263      -3.53671694
Cl      50.63459846      40.23359418      54.84218223      -0.02318733       0.02257503      -0.03148700      -3.31268716
Cl      18.74290429      22.76336704      46.21408201       0.01772841       0.06799050       0.01250682      -3.56859374
Cl      29.67826097      16.87367656      38.02168837       0.06205945       0.01185574      -0.02210412      -3.56248569
Cl      15.92817800      40.48434058      15.53528050      -0.00961931       0.00396692       0.01024526      -3.49645805
Cl      43.78303876      16.92092623       4.25808041      -0.01357833      -0.02861902       0.00774512      -3.52296972
Cl      34.67564143      22.10054284       6.66520623      -0.01947405       0.08613815       0.04853801      -3.47887754
Cl      10.04838208      21.18115543      53.76781742      -0.09895565       0.05623369      -0.02734336      -3.35641909
Cl      11.65012206      39.00679036      12.83450208       0.03717061      -0.01008166       0.03222385      -3.63277912
Cl      25.21932554       7.23148500      33.39268211      -0.01429373      -0.02857928      -0.05584418      -3.28428912
Cl       5.77229232      47.91334602      29.21707532      -0.05335236       0.01592781      -0.01417458      -3.44021869
Cl      35.21474432      11.16132596      15.62018079      -0.01260287      -0.01375216      -0.05639607      -3.61602592
Cl      54.22007107      16.75603448      29.19197294      -0.01457349      -0.02435472       0.01662833      -3.50028515
Cl      26.39524484      48.77357348       6.75429109       0.05450614       0.01124007       0.00219841      -3.37335086
Cl       3.47659623      56.20354952      12.45652340      -0.03441998       0.01196269      -0.00833084      -3.58151722
Cl      25.79449272      44.88757290      49.82246160       0.02022760      -0.01930410       0.02505983      -3.48248649
Cl      32.37602300      58.13617579      51.54047190       0.11852077       0.00571345      -0.10444304      -3.42256641
Cl       3.17465172      54.89047386      19.40526435      -0.05703369      -0.08861995      -0.03390510      -3.53279686
Cl       3.34186874      54.14780159      23.08232876      -0.09135199       0.07485316       0.05400834      -3.52646494
Cl      43.40768365      27.75426897      12.16552831       0.01718399       0.00744906      -0.01914395      -3.48180294
Cl      51.72597544      29.24877623       8.05595450      -0.02885812       0.03540272       0.05829727      -3.51605320
Cl       2.76195355      52.02840068      12.84108537      -0.04244710       0.02267848      -0.01130901      -3.58638144
Cl      56.48900939       4.60286933       2.13834401       0.06337442       0.01942344      -0.01783114      -3.51169491
Cl       7.72697646      18.61692317       7.16907845      -0.02853715      -0.01631726       0.04522046      -3.49152970
Cl      50.75391305       8.02239124      13.24645346      -0.00891385      -0.03503904      -0.03341916      -3.60686493
Cl      37.68492937      17.90313124      10.95198828       0.13574083       0.02914961       0.09229471      -3.58798456
Cl      11.74302796       1.76374758      40.06124432       0.01978020      -0.02714566      -0.00868136      -3.46430230
Cl      32.44606743      43.77964725      45.52531947       0.02087908       0.09748805      -0.02244233      -3.43896198
Cl       2.33911769      33.98546253      16.40628828       0.00286251       0.13601127      -0.01348959      -3.49981356
Cl      42.82351847      20.36012407      12.59598290      -0.04643082      -0.04320022       0.01515825      -3.54388428
Cl       7.23596418       6.32401443      17.74372669      -0.02222023      -0.00530870       0.01987913      -3.45018482
Cl      48.83273053       4.97706596      10.75319299       0.01753914      -0.02373514      -0.08903898      -3.35208797
Cl      38.36908271      32.19246123      32.74298188       0.02174096       0.03677372      -0.01380836      -3.47890639
Cl       7.18052923      14.74496564      43.41136114      -0.03825207      -0.01051484      -0.04234751      -3.56585288
Cl      33.94021025      45.30686658      40.04545087       0.01859717      -0.05841717       0.05442617      -3.57329130
Cl      16.48607248      35.01258771      38.22569594       0.01317380       0.00819053      -0.00844243      -3.50872779
Cl      55.51973870      26.69679925       8.43596451      -0.01814260      -0.03951705      -0.01241489      -3.54481053
Cl      13.26899264      13.91099827      15.70889552      -0.02425751       0.02293000       0.00567986      -3.37198496
Cl      24.48104126      49.78203030      43.05891536       0.03335209      -0.02090212       0.03171752      -3.58070111
Cl      43.64595684      13.24729835      34.72176124       0.00783531      -0.03857015       0.04166606      -3.55599952
Cl      53.15857178       9.79190858      45.30117668      -0.02253619      -0.00572252      -0.05791394      -3.38100266
Cl      13.76088203      52.25636456       1.46536604      -0.03195581       0.08063897       0.05153382      -3.50392795
Cl      57.62709536      53.51761408      48.95501622      -0.02971186      -0.02081875       0.06126337      -3.42129803
Cl      36.45807622      54.68752142      20.39879021      -0.06409115       0.06236533      -0.05088671      -3.47125435
Cl      24.65309154      56.95106852      26.54055544       0.00262960      -0.02204430      -0.02117503      -3.52582693
Cl       1.34110531      16.72238544      27.69680575      -0.03235950      -0.01762904       0.02591180      -3.46063924
Cl      40.06832386      56.24734250       3.56168636      -0.03447149       0.05333196      -0.04881614      -3.45600867
Cl      21.53086826      43.69734109      33.05258957       0.02607325       0.00162070       0.03742569      -3.58036447
Na      49.11856132      53.11660849       4.70154315       0.04212993      -0.01387732      -0.01321232      -3.22208500
Na       8.99432652      24.80364439      27.98062649      -0.00356017       0.00950687      -0.03654579      -3.34633803
Na      21.33015879      31.61578601      38.40373579      -0.05542943      -0.01902341       0.07114534      -3.33262038
Na      56.78380216      24.43043490      22.18143419      -0.02508559       0.01128678       0.01788090      -3.10017204
Na      23.45335608      15.44200702      16.48210627      -0.01845802       0.02570878      -0.00432660      -3.23844576
Na      13.56316101      54.71542783      14.39267493      -0.00441643      -0.01712570       0.05393672      -3.28085327
Na      30.07150030       6.98476014      11.12851521       0.07707419      -0.00757438      -0.00983521      -3.25330210
Na      58.13373073      33.95092855      51.54165201       0.06332514       0.02148154       0.00033628      -3.29521441
Na      21.59688573      37.57211327       1.35125333       0.03619563      -0.00838256      -0.04424476      -3.38134718
Na      34.21093245      57.35831709       0.00513789      -0.01691352      -0.01611094      -0.01673990      -3.18680167
Na       3.54900908      13.74618243      54.10672805       0.03494304      -0.02767555      -0.06609976      -3.12873507
Na      33.70931265      34.61669996      37.11012450       0.08168779      -0.01661973      -0.04156157      -3.30020022
Na      34.35588150      24.74000450      27.67803517       0.00551586      -0.01258970      -0.05055645      -3.31488442
Na      20.75566855      42.48280586      50.06801438      -0.08751577       0.07050012       0.08351961      -3.21136856
Na      57.11120788       6.79273880      18.69389471       0.02767123       0.05416584       0.02082331      -3.42169833
Na      12.28030493      55.48898754      10.95952250       0.00769444      -0.03888254       0.02121931      -3.32639885
Na       8.49391521      50.08513426      20.18173555      -0.00900492      -0.09756890      -0.03202961      -3.39683270
Na      44.73857498      30.16114338       6.46565378      -0.00486343      -0.01641085      -0.00414711      -3.29213786
Na      12.87060551      43.99910728      18.28618631      -0.01033568      -0.02491684      -0.00660508      -3.31325841
Na       7.83058524      46.55632671      13.46788130      -0.00687451      -0.01288142       0.04319773      -3.26384759
Na      16.66147069      37.63408881      36.06245375       0.03871329      -0.08044674       0.06850390      -3.26194572
Na      26.88737728       6.52289008       0.29315053       0.05124233       0.05361610      -0.00266710      -3.22338676
Na      30.37546535      13.89469167      58.35320826       0.03129577      -0.03726084      -0.00955323      -3.49193525
Na      22.58453272      20.64087918      26.10874162      -0.01876792      -0.02924604       0.02320672      -3.32216501
Na      32.82856811      54.85209208       2.16154889       0.02273586       0.01548816      -0.02632241      -3.22944975
Na      24.04306762      48.94331280       1.87986375       0.03185502       0.07004220      -0.01816018      -3.41883206
Na       3.97868166      17.37987345      13.07168030       0.04003387      -0.11179423       0.09603342      -3.17119050
Na      40.90114043      51.26589126      40.97830097       0.00162109       0.02196322      -0.05146435      -3.14315820
Na      16.39143110      36.74747309      44.89428468      -0.06684248       0.07333221       0.01891562      -3.34518003
Na       4.71502717      49.46743624      47.23602357      -0.00488336      -0.06378158      -0.05718018      -3.31457305
Na      11.67778929      32.66254801      48.43623586       0.05104155      -0.02874091      -0.00196072      -3.40151525
Na      11.34811679      38.87866144      32.45928153      -0.03862452      -0.00342215      -0.00033992      -3.36448574
Na      39.61595485      29.13009366      38.70176487       0.01292159      -0.00870395      -0.01742818      -3.29663444
Na      35.36170386      39.01469702       8.38363028      -0.05630828       0.02575688      -0.00059517      -3.26290441
Na      11.03701773      33.03747574      12.44704359       0.04035718      -0.01638716       0.02384590      -3.30690789
Na      14.78288125      55.43030182      32.63569412       0.05375781      -0.06686719       0.06670784      -3.29147410
Na      53.94774785       4.12842954      37.94165192       0.04315507       0.00848785       0.01300523      -3.34686399
Na      19.47370250      35.49896941      27.79229679      -0.06816484       0.00337268       0.03361789      -3.21867418
Na      29.44862069      32.54602390      30.29095194      -0.07088120      -0.03274717      -0.00049853      -3.25728416
Na      31.86690267       3.24454517      39.17221236       0.03964013       0.01182429       0.10227001      -3.16001225
Na      31.14970517      55.97567004      50.69297462       0.02143881      -0.02759013      -0.00455416      -3.20322704
Na      37.41530469      26.33066031       3.07565737      -0.03373635       0.00277011       0.01235834      -3.35298777
Na      11.57858042      -0.06861480      13.54406627       0.03976850       0.01542380      -0.02090225      -3.34509516
Na       2.18596782      10.25552429      10.89710839      -0.09501571       0.01425298       0.08071631      -3.20653224
Na      37.79091496      16.30617735      35.06408925      -0.04924936       0.02973181      -0.02838180      -3.36724854
Na      43.54483239      44.94545861      54.97878335       0.00594327       0.02939252      -0.01050518      -3.27483702
Na      36.66242864      28.12013947      26.31577200      -0.00029454       0.00568520      -0.04272806      -3.17203188
Na      16.35481462       4.19482203      33.65226985      -0.03305913      -0.01404536      -0.08139664      -3.19239664
Na      19.42423456      30.71080662       3.07199020      -0.02801509       0.03798166       0.10845521      -3.10434270
Na      25.71027706      13.00519909      49.96132684       0.06993334      -0.03422036      -0.03567503      -3.17827582
Cl      18.75173098      32.87719837      49.28652436       0.03228563      -0.01773709      -0.19538747      -3.39880610
Cl      43.71252384      23.95988132      53.63675553      -0.02696520      -0.07449600       0.07252907      -3.47207975
Cl      15.38832683      20.94869247      20.22426606       0.03392700      -0.01838426      -0.02507394      -3.53671670
Cl      50.63459860      40.23359408      10.94658090      -0.02318773       0.02257589      -0.03148586      -3.31268644
Cl      18.74290421      22.76336705       2.31848109       0.01772662       0.06798938       0.01250526      -3.56859326
Cl      29.67826084      16.87367652      52.65355571       0.06206108       0.01185564      -0.02211291      -3.56248474
Cl      15.92817807      40.48434062      30.16714750      -0.00961823       0.00396653       0.01024538      -3.49645853
Cl      43.78303879      16.92092606      18.88994763      -0.01357630      -0.02861437       0.00774398      -3.52296948
Cl      34.67564149      22.10054304      21.29707320      -0.01947575       0.08613112       0.04854162      -3.47887802
Cl      10.04838190      21.18115554       9.87221608      -0.09895592       0.05623487      -0.02734061      -3.35641789
Cl      11.65012203      39.00679043      27.46636912       0.03717098      -0.01008232       0.03222244      -3.63277864
Cl      25.21932561       7.23148504      48.02454918      -0.01429442      -0.02857972      -0.05584233      -3.28428936
Cl       5.77229215      47.91334608      43.84894219      -0.05335242       0.01592948      -0.01417287      -3.44021988
Cl      35.21474434      11.16132589      30.25204773      -0.01260191      -0.01375034      -0.05639712      -3.61602712
Cl      54.22007102      16.75603452      43.82384027      -0.01457368      -0.02435318       0.01662445      -3.50028396
Cl      26.39524487      48.77357351      21.38615813       0.05450524       0.01124132       0.00220043      -3.37335086
Cl       3.47659628      56.20354964      27.08839046      -0.03442008       0.01196258      -0.00833010      -3.58151793
Cl      25.79449272      44.88757303       5.92686053       0.02022897      -0.01930333       0.02505830      -3.48248601
Cl      32.37602293      58.13617572       7.64487082       0.11851844       0.00571322      -0.10444680      -3.42256546
Cl       3.17465167      54.89047381      34.03713139      -0.05703140      -0.08862076      -0.03391227      -3.53279614
Cl       3.34186865      54.14780162      37.71419594      -0.09135155       0.07485318       0.05401229      -3.52646399
Cl      43.40768365      27.75426899      26.79739519       0.01718398       0.00744853      -0.01914316      -3.48180270
Cl      51.72597547      29.24877623      22.68782161      -0.02885889       0.03540291       0.05829741      -3.51605272
Cl       2.76195346      52.02840058      27.47295239      -0.04244618       0.02267871      -0.01130896      -3.58638048
Cl      56.48900955       4.60286938      16.77021138       0.06337395       0.01942505      -0.01783378      -3.51169467
Cl       7.72697640      18.61692308      21.80094564      -0.02853636      -0.01631729       0.04522131      -3.49152851
Cl      50.75391301       8.02239128      27.87832056      -0.00891295      -0.03504008      -0.03341911      -3.60686541
Cl      37.68492942      17.90313130      25.58385527       0.13574111       0.02915028       0.09229764      -3.58798528
Cl      11.74302779       1.76374782      54.69311176       0.01977938      -0.02714430      -0.00868090      -3.46430349
Cl      32.44606749      43.77964716       1.62971784       0.02087826       0.09748735      -0.02244435      -3.43896174
Cl       2.33911766      33.98546252      31.03815518       0.00286083       0.13601197      -0.01348821      -3.49981284
Cl      42.82351835      20.36012411      27.22784975      -0.04642997      -0.04319929       0.01515758      -3.54388452
Cl       7.23596408       6.32401451      32.37559349      -0.02222105      -0.00530808       0.01987547      -3.45018435
Cl      48.83273048       4.97706595      25.38505998       0.01753943      -0.02373419      -0.08903677      -3.35208797
Cl      38.36908255      32.19246124      47.37484864       0.02174021       0.03677356      -0.01380538      -3.47890687
Cl       7.18052926      14.74496555      58.04322892      -0.03825188      -0.01051669      -0.04234490      -3.56585336
Cl      33.94021024      45.30686684      54.67731764       0.01859781      -0.05841380       0.05442641      -3.57329249
Cl      16.48607241      35.01258775      52.85756263       0.01317313       0.00819003      -0.00844073      -3.50872779
Cl      55.51973863      26.69679932      23.06783138      -0.01813978      -0.03952141      -0.01240566      -3.54481030
Cl      13.26899264      13.91099824      30.34076258      -0.02425706       0.02292985       0.00567905      -3.37198591
Cl      24.48104120      49.78203039      57.69078295       0.03335152      -0.02090249       0.03171550      -3.58070016
Cl      43.64595680      13.24729831      49.35362815       0.00783346      -0.03856953       0.04166836      -3.55599952
Cl      53.15857180       9.79190861       1.40557513      -0.02253571      -0.00572236      -0.05791320      -3.38100290
Cl      13.76088211      52.25636499      16.09723371      -0.03195950       0.08063120       0.05153318      -3.50392747
Cl      57.62709544      53.51761395       5.05941527      -0.02971279      -0.02081718       0.06126313      -3.42129683
Cl      36.45807621      54.68752127      35.03065729      -0.06409090       0.06236571      -0.05088749      -3.47125316
Cl      24.65309156      56.95106843      41.17242240       0.00262885      -0.02204361      -0.02117227      -3.52582741
Cl       1.34110528      16.72238546      42.32867291      -0.03235972      -0.01762846       0.02590989      -3.46063948
Cl      40.06832390      56.24734272      18.19355335      -0.03447189       0.05333205      -0.04881909      -3.45600939
Cl      21.53086829      43.69734103      47.68445655       0.02607266       0.00161967       0.03743013      -3.58036423
Na       5.22296015       9.22100732      19.33341023       0.04212897      -0.01388037      -0.01321140      -3.22208524
Na      23.62619341      39.43551153      42.61249332      -0.00355957       0.00950568      -0.03653858      -3.34633803
Na      35.96202555      46.24765290      53.03560334      -0.05542666      -0.01902579       0.07114743      -3.33261895
Na      12.88819999      39.06230148      36.81330144      -0.02508363       0.01128422       0.01788249      -3.10017133
Na      38.08522284      30.07387380      31.11397337      -0.01845872       0.02571108      -0.00432485      -3.23844576
Na      28.19502814      10.81982686      29.02454191      -0.00441802      -0.01712567       0.05393634      -3.28085327
Na      44.70336730      21.61662711      25.76038241       0.07707196      -0.00757482      -0.00983393      -3.25330210
Na      14.23812882      48.58279601       7.64605142       0.06332617       0.02148274       0.00033708      -3.29521465
Na      36.22875292      52.20398005      15.98312128       0.03619732      -0.00838041      -0.04424526      -3.38134718
Na      48.84279927      13.46271566      14.63700534      -0.01691481      -0.01610867      -0.01673949      -3.18680215
Na      18.18087597      28.37804966      10.21112688       0.03494291      -0.02767829      -0.06609771      -3.12873507
Na      48.34117964      49.24856701      51.74199177       0.08168916      -0.01661459      -0.04156726      -3.30020046
Na      48.98774869      39.37187150      42.30990217       0.00551652      -0.01259321      -0.05055302      -3.31488395
Na      35.38753643      57.11467352       6.17241307      -0.08751623       0.07050397       0.08352162      -3.21136785
Na      13.21560665      21.42460598      33.32576146       0.02767035       0.05416679       0.02082391      -3.42169905
Na      26.91217181      11.59338590      25.59138959       0.00769252      -0.03888322       0.02121968      -3.32639861
Na      23.12578232       6.18953316      34.81360264      -0.00900487      -0.09757043      -0.03202661      -3.39683342
Na       0.84297372      44.79301043      21.09752065      -0.00486464      -0.01641012      -0.00414733      -3.29213691
Na      27.50247272       0.10350567      32.91805294      -0.01033410      -0.02491586      -0.00660365      -3.31325865
Na      22.46245213       2.66072509      28.09974805      -0.00687384      -0.01287612       0.04319414      -3.26384783
Na      31.29333740      52.26595562      50.69432069       0.03871356      -0.08044715       0.06850280      -3.26194429
Na      41.51924373      21.15475761      14.92501837       0.05123825       0.05361291      -0.00266719      -3.22338629
Na      45.00733221      28.52655863      14.45760641       0.03129688      -0.03725910      -0.00955529      -3.49193549
Na      37.21639990      35.27274595      40.74060867      -0.01876958      -0.02924615       0.02320839      -3.32216620
Na      47.46043536      10.95649098      16.79341651       0.02273852       0.01548948      -0.02632431      -3.22944903
Na      38.67493445       5.04771151      16.51173128       0.03185464       0.07004355      -0.01816151      -3.41883278
Na      18.61054900      32.01174048      27.70354726       0.04003041      -0.11179647       0.09603263      -3.17118979
Na      55.53300773       7.37028995      55.61016874       0.00163391       0.02196999      -0.05144873      -3.14315772
Na      31.02329842      51.37933976       0.99868354      -0.06684267       0.07333222       0.01891408      -3.34517884
Na      19.34689431       5.57183516       3.34042285      -0.00488096      -0.06377794      -0.05718147      -3.31457376
Na      26.30965646      47.29441529       4.54063482       0.05104214      -0.02874010      -0.00195608      -3.40151477
Na      25.97998355      53.51052870      47.09114856      -0.03862353      -0.00342114      -0.00034062      -3.36448646
Na      54.24782184      43.76196085      53.33363233       0.01292045      -0.00870497      -0.01743375      -3.29663491
Na      49.99357098      53.64656423      23.01549730      -0.05631093       0.02575987      -0.00059593      -3.26290369
Na      25.66888475      47.66934254      27.07891058       0.04035734      -0.01638786       0.02384367      -3.30690742
Na      29.41474876      11.53470013      47.26756092       0.05375678      -0.06686276       0.06671277      -3.29147339
Na      10.05214654      18.76029634      52.57351923       0.04315294       0.00848792       0.01300150      -3.34686327
Na      34.10556923      50.13083646      42.42416349      -0.06815837       0.00337519       0.03361921      -3.21867442
Na      44.08048770      47.17789115      44.92281896      -0.07087939      -0.03274661      -0.00049742      -3.25728440
Na      46.49876989      17.87641223      53.80407943       0.03963661       0.01182695       0.10226697      -3.16001248
Na      45.78157240      12.08006850       6.79737323       0.02143647      -0.02759288      -0.00455738      -3.20322800
Na      52.04717166      40.96252735      17.70752484      -0.03373491       0.00276738       0.01235701      -3.35298824
Na      26.21044746      14.56325270      28.17593335       0.03976885       0.01542471      -0.02090211      -3.34509587
Na      16.81783486      24.88739151      25.52897559      -0.09501530       0.01425281       0.08071385      -3.20653272
Na      52.42278182      30.93804441      49.69595674      -0.04924932       0.02973312      -0.02838367      -3.36724830
Na      58.17669959       1.04985732      11.08318176       0.00594418       0.02939478      -0.01050694      -3.27483797
Na      51.29429572      42.75200661      40.94763916      -0.00029396       0.00568804      -0.04272800      -3.17203164
Na      30.98668188      18.82668962      48.28413681      -0.03306046      -0.01404669      -0.08139808      -3.19239640
Na      34.05610170      45.34267406      17.70385709      -0.02801527       0.03798191       0.10845440      -3.10434365
Na      40.34214397      27.63706630       6.06572534       0.06993259      -0.03421962      -0.03567490      -3.17827535
Cl      33.38359815      47.50906548       5.39092325       0.03228671      -0.01773611      -0.19538555      -3.39880610
Cl      -0.18307758      38.59174834       9.74115393      -0.02696264      -0.07449523       0.07253166      -3.47208023
Cl      30.02019400      35.58055951      34.85613318       0.03392742      -0.01837847      -0.02506994      -3.53671527
Cl       6.73899797      54.86546162      25.57844821      -0.02319022       0.02256874      -0.03148545      -3.31268668
Cl      33.37477116      37.39523384      16.95034807       0.01772712       0.06799011       0.01250483      -3.56859255
Cl      44.31012792      31.50554381       8.75795447       0.06205707       0.01185129      -0.02211201      -3.56248569
Cl      30.56004508      55.11620849      44.79901481      -0.00962044       0.00397035       0.01024484      -3.49645543
Cl      58.41490670      31.55279341      33.52181503      -0.01357467      -0.02861543       0.00774305      -3.52296972
Cl      49.30750843      36.73240996      35.92894048      -0.01947546       0.08613016       0.04854346      -3.47887707
Cl      24.68024920      35.81302261      24.50408320      -0.09895349       0.05623804      -0.02734017      -3.35641742
Cl      26.28198911      53.63865787      42.09823567       0.03717008      -0.01008046       0.03222423      -3.63277912
Cl      39.85119297      21.86335226       4.12894793      -0.01429310      -0.02857845      -0.05584460      -3.28429008
Cl      20.40415971       4.01774477      -0.04666062      -0.05335416       0.01592664      -0.01417400      -3.44021916
Cl      49.84661157      25.79319271      44.88391478      -0.01260199      -0.01374970      -0.05639669      -3.61602545
Cl      10.32447006      31.38790171      -0.07176205      -0.01457531      -0.02435535       0.01662863      -3.50028467
Cl      41.02711211       4.87797216      36.01802498       0.05450893       0.01124173       0.00219720      -3.37335086
Cl      18.10846327      12.30794823      41.72025750      -0.03442004       0.01195909      -0.00833025      -3.58151865
Cl      40.42635971       0.99197108      20.55872705       0.02022963      -0.01929691       0.02505754      -3.48248792
Cl      47.00789062      14.24057433      22.27673739       0.11852293       0.00571944      -0.10444207      -3.42256522
Cl      17.80651950      10.99487287      48.66899844      -0.05702870      -0.08862355      -0.03391020      -3.53279686
Cl      17.97373597      10.25220046      52.34606304      -0.09135140       0.07485034       0.05401143      -3.52646375
Cl      58.03955065      42.38613656      41.42926229       0.01718873       0.00745171      -0.01914481      -3.48180318
Cl       7.83037412      43.88064304      37.31968891      -0.02885937       0.03540356       0.05829540      -3.51605296
Cl      17.39382082       8.13279978      42.10481956      -0.04244930       0.02267679      -0.01131060      -3.58638287
Cl      12.59340788      19.23473678      31.40207821       0.06337425       0.01942256      -0.01783221      -3.51169634
Cl      22.35884347      33.24879005      36.43281271      -0.02853790      -0.01632150       0.04522138      -3.49152970
Cl       6.85831177      22.65425829      42.51018743      -0.00891176      -0.03504065      -0.03342173      -3.60686374
Cl      52.31679678      32.53499835      40.21572228       0.13574031       0.02914912       0.09229971      -3.58798361
Cl      26.37489477      16.39561521      10.79751007       0.01977934      -0.02714130      -0.00867854      -3.46430182
Cl      47.07793426      58.41151479      16.26158539       0.02087556       0.09748958      -0.02244168      -3.43896413
Cl      16.97098546      48.61732928      45.67002210       0.00286195       0.13601218      -0.01348808      -3.49981284
Cl      57.45538583      34.99199104      41.85971656      -0.04643662      -0.04319425       0.01515573      -3.54388237
Cl      21.86783146      20.95588151      47.00746098      -0.02222242      -0.00530698       0.01987735      -3.45018554
Cl       4.93712949      19.60893281      40.01692731       0.01753947      -0.02373294      -0.08903848      -3.35208821
Cl      53.00094975      46.82432838       3.47924716       0.02174151       0.03677845      -0.01381073      -3.47890782
Cl      21.81239626      29.37683280      14.14762719      -0.03825448      -0.01051926      -0.04234440      -3.56585312
Cl      48.57207655       1.41126553      10.78171604       0.01859357      -0.05842257       0.05442847      -3.57329059
Cl      31.11793944      49.64445491       8.96196160       0.01317593       0.00818860      -0.00844068      -3.50872803
Cl      11.62413762      41.32866623      37.69969864      -0.01814389      -0.03951716      -0.01241674      -3.54481220
Cl      27.90085967      28.54286523      44.97262953      -0.02425609       0.02292877       0.00567857      -3.37198520
Cl      39.11290849       5.88642904      13.79518113       0.03335316      -0.02089981       0.03171941      -3.58070016
Cl      58.27782495      27.87916569       5.45802721       0.00783543      -0.03857357       0.04166501      -3.55600119
Cl       9.26297081      24.42377564      16.03744258      -0.02253199      -0.00572078      -0.05791429      -3.38100338
Cl      28.39274877       8.36076364      30.72910065      -0.03195407       0.08063690       0.05153281      -3.50392842
Cl      13.73149411       9.62201283      19.69128284      -0.02971548      -0.02082020       0.06126603      -3.42129707
Cl      51.08994322      10.79192018      49.66252430      -0.06408923       0.06236913      -0.05088626      -3.47125483
Cl      39.28495879      13.05546733      55.80428993       0.00263096      -0.02204453      -0.02117549      -3.52582860
Cl      15.97297276      31.35425222      56.96054092      -0.03235938      -0.01762790       0.02591038      -3.46063948
Cl      54.70019016      12.35174177      32.82542000      -0.03447258       0.05332935      -0.04881822      -3.45600820
Cl      36.16273542      58.32920854       3.78885491       0.02607505       0.00162137       0.03742626      -3.58036351
Na       5.22296024       9.22100721      33.96527732       0.04212830      -0.01388008      -0.01321443      -3.22208500
Na      23.62619373      39.43551120      57.24436155      -0.00355913       0.00950503      -0.03654454      -3.34633732
Na      35.96202558      46.24765301       9.14000192      -0.05542619      -0.01902663       0.07114353      -3.33261967
Na      12.88819993      39.06230163      51.44516893      -0.02508217       0.01128503       0.01788613      -3.10017109
Na      38.08522295      30.07387389      45.74584024      -0.01845846       0.02570886      -0.00432630      -3.23844600
Na      28.19502796      10.81982687      43.65640875      -0.00441973      -0.01712612       0.05393519      -3.28085232
Na      44.70336731      21.61662709      40.39224928       0.07707155      -0.00757404      -0.00983381      -3.25330114
Na      14.23812893      48.58279590      22.27791834       0.06332751       0.02148141       0.00033848      -3.29521418
Na      36.22875303      52.20398022      30.61498827       0.03619709      -0.00838147      -0.04424426      -3.38134670
Na      48.84279925      13.46271566      29.26887241      -0.01691311      -0.01610857      -0.01674138      -3.18680191
Na      18.18087600      28.37804972      24.84299389       0.03494284      -0.02767765      -0.06609936      -3.12873530
Na      48.34117946      49.24856685       7.84639071       0.08168840      -0.01661695      -0.04156512      -3.30019975
Na      48.98774847      39.37187191      56.94176960       0.00551593      -0.01259309      -0.05055428      -3.31488442
Na      35.38753628      57.11467345      20.80428017      -0.08751631       0.07050391       0.08352321      -3.21136785
Na      13.21560672      21.42460594      47.95762845       0.02766703       0.05416645       0.02081959      -3.42169952
Na      26.91217173      11.59338588      40.22325657       0.00769236      -0.03888329       0.02122189      -3.32639837
Na      23.12578223       6.18953313      49.44546952      -0.00900491      -0.09757067      -0.03202710      -3.39683318
Na       0.84297364      44.79301034      35.72938754      -0.00486409      -0.01641275      -0.00414822      -3.29213667
Na      27.50247272       0.10350569      47.54992000      -0.01033320      -0.02491529      -0.00660303      -3.31325865
Na      22.46245214       2.66072509      42.73161495      -0.00687395      -0.01287805       0.04320105      -3.26384807
Na      31.29333738      52.26595562       6.79871958       0.03871410      -0.08044559       0.06850422      -3.26194453
Na      41.51924399      21.15475767      29.55688543       0.05123896       0.05361488      -0.00266608      -3.22338629
Na      45.00733219      28.52655869      29.08947336       0.03129621      -0.03725917      -0.00955600      -3.49193525
Na      37.21640012      35.27274575      55.37247605      -0.01877163      -0.02924634       0.02321247      -3.32216525
Na      47.46043536      10.95649104      31.42528364       0.02273707       0.01548824      -0.02631914      -3.22944880
Na      38.67493437       5.04771151      31.14359836       0.03185389       0.07004436      -0.01816075      -3.41883230
Na      18.61054896      32.01174029      42.33541409       0.04003273      -0.11179592       0.09603271      -3.17119026
Na      55.53300786       7.37029000      11.71456708       0.00162710       0.02196750      -0.05145667      -3.14315748
Na      31.02329832      51.37933987      15.63055055      -0.06684358       0.07333340       0.01891376      -3.34517884
Na      19.34689434       5.57183497      17.97228967      -0.00488106      -0.06377812      -0.05718082      -3.31457376
Na      26.30965637      47.29441528      19.17250198       0.05104164      -0.02874153      -0.00195676      -3.40151429
Na      25.97998366      53.51052862       3.19554709      -0.03862480      -0.00342197      -0.00033997      -3.36448574
Na      54.24782199      43.76196085       9.43803113       0.01292041      -0.00870385      -0.01743273      -3.29663563
Na      49.99357097      53.64656411      37.64736417      -0.05631187       0.02575959      -0.00059680      -3.26290321
Na      25.66888478      47.66934247      41.71077751       0.04035692      -0.01638817       0.02384673      -3.30690646
Na      29.41474872      11.53470018       3.37195963       0.05375882      -0.06686397       0.06670516      -3.29147387
Na      10.05214650      18.76029634       8.67791786       0.04315212       0.00848757       0.01300713      -3.34686399
Na      34.10556917      50.13083665      57.05603072      -0.06815788       0.00337693       0.03362049      -3.21867442
Na      44.08048788      47.17789047       1.02721766      -0.07087867      -0.03274751      -0.00049818      -3.25728440
Na      46.49876971      17.87641244       9.90847837       0.03964298       0.01182373       0.10227194      -3.16001225
Na      45.78157238      12.08006859      21.42924071       0.02143660      -0.02759325      -0.00455936      -3.20322847
Na      52.04717172      40.96252721      32.33939152      -0.03373510       0.00276760       0.01235901      -3.35298753
Na      26.21044735      14.56325258      42.80780022       0.03976784       0.01542676      -0.02090031      -3.34509611
Na      16.81783487      24.88739154      40.16084249      -0.09501557       0.01425346       0.08071346      -3.20653224
Na      52.42278181      30.93804454       5.80035527      -0.04925006       0.02973275      -0.02838119      -3.36724854
Na      58.17669953       1.04985734      25.71504880       0.00594388       0.02939601      -0.01050962      -3.27483773
Na      51.29429571      42.75200646      55.57950671      -0.00029528       0.00568781      -0.04272711      -3.17203188
Na      30.98668177      18.82668945       4.38853590      -0.03306201      -0.01404540      -0.08139434      -3.19239664
Na      34.05610168      45.34267408      32.33572419      -0.02801538       0.03798258       0.10845453      -3.10434318
Na      40.34214383      27.63706620      20.69759235       0.06993345      -0.03421867      -0.03567094      -3.17827511
Cl      33.38359817      47.50906546      20.02279021       0.03228835      -0.01773596      -0.19538546      -3.39880657
Cl      -0.18307761      38.59174844      24.37302098      -0.02696175      -0.07449502       0.07253359      -3.47208023
Cl      30.02019408      35.58055949      49.48800033       0.03392420      -0.01837835      -0.02506897      -3.53671646
Cl       6.73899791      54.86546166      40.21031528      -0.02318966       0.02256803      -0.03148730      -3.31268811
Cl      33.37477110      37.39523374      31.58221510       0.01772727       0.06799047       0.01250524      -3.56859255
Cl      44.31012783      31.50554370      23.38982148       0.06206315       0.01185689      -0.02210912      -3.56248331
Cl      30.56004476      55.11620874       0.90341327      -0.00962249       0.00396808       0.01024392      -3.49645710
Cl      58.41490655      31.55279336      48.15368191      -0.01357385      -0.02861656       0.00774508      -3.52296948
Cl      49.30750845      36.73240988      50.56080740      -0.01947623       0.08612764       0.04854515      -3.47887659
Cl      24.68024934      35.81302274      39.13595004      -0.09895450       0.05623864      -0.02733408      -3.35641623
Cl      26.28198917      53.63865814      56.73010327       0.03716905      -0.01008170       0.03222718      -3.63277912
Cl      39.85119314      21.86335211      18.76081489      -0.01429341      -0.02857837      -0.05584444      -3.28428936
Cl      20.40415958       4.01774425      14.58520816      -0.05335360       0.01592689      -0.01417385      -3.44021893
Cl      49.84661124      25.79319257       0.98831333      -0.01260059      -0.01374992      -0.05639707      -3.61602664
Cl      10.32447021      31.38790133      14.56010595      -0.01457559      -0.02435528       0.01662904      -3.50028515
Cl      41.02711197       4.87797231      50.64989222       0.05450696       0.01124456       0.00220619      -3.37335229
Cl      18.10846346      12.30794848      56.35212524      -0.03442021       0.01196275      -0.00833770      -3.58151770
Cl      40.42635974       0.99197107      35.19059415       0.02022827      -0.01929725       0.02505888      -3.48248816
Cl      47.00789079      14.24057431      36.90860482       0.11851646       0.00571835      -0.10444578      -3.42256522
Cl      17.80651941      10.99487311       4.77339732      -0.05702895      -0.08862323      -0.03391095      -3.53279614
Cl      17.97373577      10.25220046       8.45046205      -0.09135090       0.07484975       0.05400726      -3.52646351
Cl      58.03955069      42.38613648      56.06113015       0.01718920       0.00745334      -0.01914099      -3.48180437
Cl       7.83037415      43.88064315      51.95155555      -0.02885876       0.03540377       0.05829752      -3.51605392
Cl      17.39382107       8.13279986      56.73668697      -0.04244827       0.02267678      -0.01130922      -3.58638167
Cl      12.59340788      19.23473688      46.03394515       0.06337447       0.01942383      -0.01783386      -3.51169443
Cl      22.35884363      33.24879014      51.06467987      -0.02853602      -0.01632151       0.04522551      -3.49152923
Cl       6.85831193      22.65425867      57.14205560      -0.00891307      -0.03504055      -0.03342096      -3.60686374
Cl      52.31679672      32.53499838      54.84758989       0.13573837       0.02914906       0.09228766      -3.58798456
Cl      26.37489470      16.39561515      25.42937694       0.01977971      -0.02714019      -0.00867745      -3.46430182
Cl      47.07793439      58.41151473      30.89345245       0.02087625       0.09749108      -0.02244016      -3.43896461
Cl      16.97098564      48.61732916       1.77442123       0.00286151       0.13601243      -0.01349003      -3.49981332
Cl      57.45538589      34.99199109      56.49158352      -0.04643689      -0.04319930       0.01515932      -3.54388189
Cl      21.86783146      20.95588167       3.11185906      -0.02222066      -0.00530633       0.01987802      -3.45018482
Cl       4.93712950      19.60893303      54.64879386       0.01753932      -0.02373300      -0.08903734      -3.35208821
Cl      53.00094972      46.82432879      18.11111466       0.02174140       0.03677815      -0.01381177      -3.47890735
Cl      21.81239626      29.37683273      28.77949419      -0.03825470      -0.01051902      -0.04234365      -3.56585336
Cl      48.57207656       1.41126557      25.41358303       0.01859295      -0.05842328       0.05442815      -3.57329082
Cl      31.11793948      49.64445497      23.59382867       0.01317535       0.00818876      -0.00843986      -3.50872779
Cl      11.62413744      41.32866652      52.33156533      -0.01814176      -0.03951904      -0.01241074      -3.54481101
Cl      27.90085959      28.54286543       1.07702833      -0.02425567       0.02292928       0.00567796      -3.37198448
Cl      39.11290846       5.88642904      28.42704816       0.03335300      -0.02089963       0.03171981      -3.58070016
Cl      58.27782490      27.87916542      20.08989467       0.00783535      -0.03857372       0.04166394      -3.55600095
Cl       9.26297077      24.42377566      30.66930961      -0.02253203      -0.00572029      -0.05791027      -3.38100290
Cl      28.39274872       8.36076365      45.36096770      -0.03195506       0.08063607       0.05153022      -3.50392771
Cl      13.73149405       9.62201290      34.32315001      -0.02971479      -0.02081899       0.06126178      -3.42129660
Cl      51.08994327      10.79192015       5.76692308      -0.06408868       0.06236894      -0.05088605      -3.47125363
Cl      39.28495880      13.05546729      11.90868846       0.00263140      -0.02204440      -0.02117391      -3.52582860
Cl      15.97297270      31.35425243      13.06493872      -0.03235891      -0.01762786       0.02591137      -3.46063948
Cl      54.70019039      12.35174184      47.45728707      -0.03447192       0.05332956      -0.04881619      -3.45600820
Cl      36.16273553      58.32920857      18.42072249       0.02607512       0.00162168       0.03742516      -3.58036423
Na       5.22296017       9.22100724      48.59714414       0.04212850      -0.01387935      -0.01321347      -3.22208428
Na      23.62619344      39.43551143      13.34875957      -0.00356039       0.00950548      -0.03654350      -3.34633756
Na      35.96202540      46.24765298      23.77186914      -0.05542631      -0.01902663       0.07114220      -3.33261943
Na      12.88819995      39.06230152       7.54956728      -0.02508266       0.01128460       0.01788297      -3.10017133
Na      38.08522271      30.07387427       1.85023852      -0.01845836       0.02571125      -0.00432443      -3.23844552
Na      28.19502823      10.81982672      58.28827672      -0.00441823      -0.01712557       0.05393681      -3.28085351
Na      44.70336717      21.61662729      55.02411707       0.07707837      -0.00757274      -0.00983511      -3.25330234
Na      14.23812891      48.58279588      36.90978546       0.06332549       0.02148321       0.00033510      -3.29521418
Na      36.22875305      52.20398023      45.24685538       0.03619746      -0.00837876      -0.04424775      -3.38134718
Na      48.84279928      13.46271567      43.90073945      -0.01691553      -0.01610905      -0.01673741      -3.18680263
Na      18.18087593      28.37804959      39.47486093       0.03494338      -0.02767614      -0.06609889      -3.12873530
Na      48.34117943      49.24856674      22.47825788       0.08168872      -0.01661669      -0.04156554      -3.30020022
Na      48.98774859      39.37187164      13.04616810       0.00551544      -0.01259325      -0.05055545      -3.31488419
Na      35.38753619      57.11467345      35.43614722      -0.08751636       0.07050280       0.08352415      -3.21136761
Na      13.21560672      21.42460596       4.06202728       0.02766873       0.05416700       0.02082196      -3.42169833
Na      26.91217180      11.59338588      54.85512400       0.00769210      -0.03888127       0.02121092      -3.32639837
Na      23.12578225       6.18953314       5.54986833      -0.00900587      -0.09757075      -0.03202792      -3.39683294
Na       0.84297365      44.79301044      50.36125475      -0.00486307      -0.01641161      -0.00414667      -3.29213738
Na      27.50247267       0.10350551       3.65431872      -0.01033425      -0.02491556      -0.00660498      -3.31325865
Na      22.46245218       2.66072513      57.36348260      -0.00687370      -0.01287624       0.04319767      -3.26384807
Na      31.29333739      52.26595565      21.43058662       0.03871454      -0.08044575       0.06850369      -3.26194406
Na      41.51924388      21.15475753      44.18875250       0.05123758       0.05361237      -0.00266263      -3.22338700
Na      45.00733219      28.52655863      43.72134064       0.03129658      -0.03725973      -0.00955407      -3.49193597
Na      37.21639996      35.27274596      11.47687449      -0.01877046      -0.02924646       0.02320924      -3.32216525
Na      47.46043519      10.95649101      46.05715057       0.02273850       0.01548981      -0.02632467      -3.22944951
Na      38.67493437       5.04771147      45.77546538       0.03185559       0.07004445      -0.01816399      -3.41883278
Na      18.61054893      32.01174038      56.96728138       0.04003441      -0.11179641       0.09603349      -3.17118883
Na      55.53300785       7.37028993      26.34643412       0.00162889       0.02196740      -0.05145451      -3.14315772
Na      31.02329828      51.37933987      30.26241760      -0.06684327       0.07333335       0.01891471      -3.34517860
Na      19.34689436       5.57183499      32.60415668      -0.00488137      -0.06377802      -0.05718033      -3.31457424
Na      26.30965624      47.29441529      33.80436898       0.05104218      -0.02874128      -0.00196074      -3.40151405
Na      25.97998371      53.51052876      17.82741456      -0.03862426      -0.00341970      -0.00034158      -3.36448622
Na      54.24782204      43.76196092      24.06989824       0.01292005      -0.00870387      -0.01743347      -3.29663515
Na      49.99357095      53.64656415      52.27923130      -0.05631194       0.02575950      -0.00059610      -3.26290345
Na      25.66888484      47.66934248      56.34264496       0.04035630      -0.01638527       0.02384908      -3.30690765
Na      29.41474876      11.53470018      18.00382680       0.05375854      -0.06686306       0.06670808      -3.29147339
Na      10.05214648      18.76029637      23.30978491       0.04315235       0.00848690       0.01300428      -3.34686446
Na      34.10556918      50.13083637      13.16042982      -0.06815877       0.00337493       0.03361870      -3.21867442
Na      44.08048766      47.17789113      15.65908498      -0.07087892      -0.03274819      -0.00049866      -3.25728393
Na      46.49876982      17.87641245      24.54034548       0.03963482       0.01182240       0.10226768      -3.16001248
Na      45.78157237      12.08006860      36.06110752       0.02143723      -0.02759047      -0.00455689      -3.20322824
Na      52.04717162      40.96252739      46.97125893      -0.03373531       0.00276776       0.01235622      -3.35298800
Na      26.21044708      14.56325259      57.43966788       0.03976870       0.01542709      -0.02089891      -3.34509587
Na      16.81783505      24.88739144      54.79270974      -0.09501486       0.01425216       0.08071536      -3.20653200
Na      52.42278184      30.93804440      20.43222264      -0.04925004       0.02973224      -0.02838009      -3.36724877
Na      58.17669960       1.04985738      40.34691564       0.00594586       0.02939628      -0.01050877      -3.27483773
Na      51.29429565      42.75200654      11.68390523      -0.00029539       0.00568609      -0.04272943      -3.17203188
Na      30.98668186      18.82668960      19.02040285      -0.03306130      -0.01404586      -0.08139449      -3.19239664
Na      34.05610169      45.34267410      46.96759104      -0.02801596       0.03798135       0.10845398      -3.10434413
Na      40.34214393      27.63706636      35.32945943       0.06993356      -0.03421990      -0.03567641      -3.17827439
Cl      33.38359836      47.50906553      34.65465740       0.03228606      -0.01773573      -0.19538677      -3.39880538
Cl      -0.18307757      38.59174848      39.00488801      -0.02696077      -0.07449539       0.07253435      -3.47208023
Cl      30.02019383      35.58055944       5.59239891       0.03392693      -0.01837982      -0.02507236      -3.53671575
Cl       6.73899777      54.86546160      54.84218251      -0.02318923       0.02256815      -0.03148766      -3.31268764
Cl      33.37477102      37.39523386      46.21408198       0.01772717       0.06799018       0.01250662      -3.56859255
Cl      44.31012811      31.50554380      38.02168847       0.06205712       0.01184936      -0.02211579      -3.56248665
Cl      30.56004491      55.11620847      15.53528071      -0.00961998       0.00396995       0.01024131      -3.49645662
Cl      58.41490643      31.55279333       4.25808077      -0.01357427      -0.02861564       0.00774395      -3.52297020
Cl      49.30750841      36.73240984       6.66520634      -0.01947556       0.08613130       0.04854049      -3.47887659
Cl      24.68024920      35.81302248      53.76781735      -0.09895250       0.05623678      -0.02734178      -3.35641861
Cl      26.28198911      53.63865794      12.83450179       0.03716865      -0.01008181       0.03222287      -3.63277912
Cl      39.85119300      21.86335211      33.39268171      -0.01429389      -0.02857919      -0.05584473      -3.28428936
Cl      20.40415958       4.01774422      29.21707515      -0.05335399       0.01592713      -0.01417470      -3.44021916
Cl      49.84661150      25.79319263      15.62018084      -0.01260085      -0.01375040      -0.05639665      -3.61602688
Cl      10.32447022      31.38790132      29.19197294      -0.01457550      -0.02435509       0.01662970      -3.50028515
Cl      41.02711200       4.87797206       6.75429106       0.05450815       0.01124230       0.00219848      -3.37335134
Cl      18.10846334      12.30794825      12.45652360      -0.03441931       0.01195971      -0.00833165      -3.58151793
Cl      40.42635984       0.99197095      49.82246084       0.02022854      -0.01929774       0.02505908      -3.48248768
Cl      47.00789056      14.24057427      51.54047150       0.11852306       0.00571962      -0.10444073      -3.42256618
Cl      17.80651937      10.99487298      19.40526458      -0.05703068      -0.08862229      -0.03390700      -3.53279591
Cl      17.97373586      10.25220047      23.08232901      -0.09135179       0.07484976       0.05400947      -3.52646303
Cl      58.03955068      42.38613655      12.16552842       0.01718970       0.00745242      -0.01914094      -3.48180389
Cl       7.83037415      43.88064305       8.05595458      -0.02885971       0.03540366       0.05829723      -3.51605296
Cl      17.39382067       8.13279980      12.84108550      -0.04244571       0.02267667      -0.01130875      -3.58638215
Cl      12.59340780      19.23473678       2.13834389       0.06337482       0.01942166      -0.01782956      -3.51169515
Cl      22.35884348      33.24879004       7.16907845      -0.02853782      -0.01632123       0.04522081      -3.49152923
Cl       6.85831184      22.65425825      13.24645344      -0.00891134      -0.03503974      -0.03341900      -3.60686445
Cl      52.31679677      32.53499833      10.95198821       0.13574006       0.02914813       0.09229469      -3.58798432
Cl      26.37489473      16.39561525      40.06124412       0.01977886      -0.02714369      -0.00868076      -3.46430182
Cl      47.07793437      58.41151494      45.52531956       0.02087779       0.09749059      -0.02244166      -3.43896365
Cl      16.97098557      48.61732922      16.40628829       0.00286190       0.13601276      -0.01348975      -3.49981332
Cl      57.45538580      34.99199109      12.59598246      -0.04643733      -0.04320042       0.01515956      -3.54388237
Cl      21.86783134      20.95588153      17.74372679      -0.02222078      -0.00530648       0.01987792      -3.45018506
Cl       4.93712946      19.60893282      10.75319292       0.01753828      -0.02373375      -0.08903936      -3.35208726
Cl      53.00094961      46.82432860      32.74298200       0.02174117       0.03677782      -0.01380855      -3.47890687
Cl      21.81239626      29.37683272      43.41136111      -0.03825493      -0.01051805      -0.04234614      -3.56585240
Cl      48.57207657       1.41126554      40.04545012       0.01859144      -0.05842084       0.05443331      -3.57329082
Cl      31.11793948      49.64445486      38.22569601       0.01317393       0.00818986      -0.00844246      -3.50872827
Cl      11.62413756      41.32866640       8.43596431      -0.01814238      -0.03951869      -0.01241339      -3.54481101
Cl      27.90085960      28.54286538      15.70889547      -0.02425724       0.02292951       0.00568045      -3.37198472
Cl      39.11290857       5.88642907      43.05891515       0.03335340      -0.02089978       0.03171930      -3.58070016
Cl      58.27782490      27.87916534      34.72176167       0.00783676      -0.03857322       0.04166660      -3.55600023
Cl       9.26297079      24.42377569      45.30117672      -0.02253368      -0.00572354      -0.05791806      -3.38100171
Cl      28.39274867       8.36076353       1.46536613      -0.03195488       0.08063649       0.05153303      -3.50392771
Cl      13.73149407       9.62201290      48.95501654      -0.02971528      -0.02082042       0.06126544      -3.42129803
Cl      51.08994308      10.79192020      20.39879029      -0.06408851       0.06236760      -0.05088607      -3.47125411
Cl      39.28495867      13.05546723      26.54055542       0.00263150      -0.02204456      -0.02117400      -3.52582860
Cl      15.97297270      31.35425238      27.69680573      -0.03235696      -0.01762741       0.02591156      -3.46063876
Cl      54.70019021      12.35174151       3.56168601      -0.03447220       0.05332953      -0.04881754      -3.45600796
Cl      36.16273556      58.32920873      33.05258910       0.02607476       0.00162175       0.03742530      -3.58036423
Na       5.22296012       9.22100746       4.70154314       0.04212887      -0.01388010      -0.01321188      -3.22208500
Na      23.62619344      39.43551146      27.98062655      -0.00356002       0.00950576      -0.03654534      -3.34633684
Na      35.96202545      46.24765298      38.40373585      -0.05542911      -0.01902697       0.07114585      -3.33261967
Na      12.88819986      39.06230149      22.18143458      -0.02508231       0.01128437       0.01788164      -3.10017157
Na      38.08522289      30.07387392      16.48210624      -0.01845905       0.02571039      -0.00432512      -3.23844552
Na      28.19502813      10.81982688      14.39267486      -0.00441683      -0.01712542       0.05393657      -3.28085303
Na      44.70336724      21.61662713      11.12851516       0.07707303      -0.00757357      -0.00983348      -3.25330210
Na      14.23812892      48.58279587      51.54165220       0.06332675       0.02148246       0.00033597      -3.29521394
Na      36.22875258      52.20397999       1.35125336       0.03619702      -0.00838055      -0.04424628      -3.38134718
Na      48.84279952      13.46271566       0.00513761      -0.01691449      -0.01610814      -0.01673938      -3.18680215
Na      18.18087610      28.37804966      54.10672803       0.03494375      -0.02767929      -0.06609504      -3.12873459
Na      48.34117962      49.24856688      37.11012463       0.08169004      -0.01661425      -0.04156709      -3.30020022
Na      48.98774856      39.37187166      27.67803510       0.00551599      -0.01259318      -0.05055629      -3.31488323
Na      35.38753631      57.11467341      50.06801420      -0.08751603       0.07050454       0.08351980      -3.21136761
Na      13.21560680      21.42460592      18.69389459       0.02766794       0.05416717       0.02082158      -3.42169833
Na      26.91217178      11.59338587      10.95952247       0.00769259      -0.03888307       0.02121768      -3.32639813
Na      23.12578228       6.18953321      20.18173557      -0.00900569      -0.09757084      -0.03202824      -3.39683294
Na       0.84297344      44.79301026       6.46565353      -0.00486363      -0.01641113      -0.00414584      -3.29213619
Na      27.50247290       0.10350559      18.28618604      -0.01033657      -0.02491554      -0.00660607      -3.31325817
Na      22.46245208       2.66072517      13.46788105      -0.00687376      -0.01287659       0.04319626      -3.26384807
Na      31.29333754      52.26595561      36.06245370       0.03871326      -0.08044673       0.06850234      -3.26194429
Na      41.51924426      21.15475728       0.29315054       0.05124021       0.05361678      -0.00266827      -3.22338676
Na      45.00733226      28.52655873      58.35320816       0.03129579      -0.03725945      -0.00955124      -3.49193525
Na      37.21639998      35.27274601      26.10874146      -0.01877065      -0.02924687       0.02320917      -3.32216501
Na      47.46043548      10.95649106       2.16154909       0.02273818       0.01548903      -0.02632099      -3.22944927
Na      38.67493439       5.04771141       1.87986366       0.03185380       0.07004295      -0.01816048      -3.41883302
Na      18.61054893      32.01174043      13.07168037       0.04003449      -0.11179516       0.09603268      -3.17118979
Na      55.53300783       7.37028995      40.97830111       0.00162363       0.02196532      -0.05146068      -3.14315772
Na      31.02329825      51.37933985      44.89428468      -0.06684396       0.07333297       0.01891515      -3.34517956
Na      19.34689432       5.57183498      47.23602367      -0.00488181      -0.06377861      -0.05718087      -3.31457400
Na      26.30965628      47.29441533      48.43623580       0.05104208      -0.02874188      -0.00196044      -3.40151477
Na      25.97998384      53.51052880      32.45928184      -0.03862438      -0.00342000      -0.00034070      -3.36448598
Na      54.24782185      43.76196083      38.70176497       0.01292103      -0.00870252      -0.01742841      -3.29663539
Na      49.99357092      53.64656417       8.38363024      -0.05631182       0.02575946      -0.00059490      -3.26290321
Na      25.66888480      47.66934245      12.44704357       0.04035681      -0.01638710       0.02384458      -3.30690742
Na      29.41474871      11.53470014      32.63569407       0.05375758      -0.06686443       0.06670870      -3.29147339
Na      10.05214661      18.76029632      37.94165191       0.04315253       0.00848790       0.01300720      -3.34686399
Na      34.10556918      50.13083626      27.79229680      -0.06815878       0.00337486       0.03361840      -3.21867442
Na      44.08048762      47.17789112      30.29095199      -0.07087909      -0.03274764      -0.00049857      -3.25728416
Na      46.49876959      17.87641247      39.17221213       0.03964624       0.01182266       0.10227539      -3.16001153
Na      45.78157243      12.08006861      50.69297485       0.02143352      -0.02759115      -0.00455553      -3.20322704
Na      52.04717168      40.96252717       3.07565728      -0.03373481       0.00276716       0.01235779      -3.35298777
Na      26.21044737      14.56325270      13.54406628       0.03976856       0.01542563      -0.02090186      -3.34509611
Na      16.81783483      24.88739152      10.89710853      -0.09501578       0.01425247       0.08071644      -3.20653224
Na      52.42278186      30.93804452      35.06408915      -0.04925016       0.02973334      -0.02838321      -3.36724830
Na      58.17669968       1.04985726      54.97878313       0.00594434       0.02939488      -0.01050556      -3.27483702
Na      51.29429560      42.75200664      26.31577223      -0.00029531       0.00568603      -0.04273067      -3.17203164
Na      30.98668192      18.82668946      33.65226961      -0.03306044      -0.01404626      -0.08139625      -3.19239616
Na      34.05610113      45.34267363       3.07199014      -0.02801635       0.03798196       0.10845418      -3.10434365
Na      40.34214394      27.63706611      49.96132670       0.06993321      -0.03421926      -0.03567553      -3.17827487
Cl      33.38359814      47.50906542      49.28652432       0.03228640      -0.01773503      -0.19538651      -3.39880490
Cl      -0.18307743      38.59174849      53.63675517      -0.02696342      -0.07449478       0.07252920      -3.47207975
Cl      30.02019383      35.58055968      20.22426611       0.03392649      -0.01838040      -0.02507205      -3.53671646
Cl       6.73899789      54.86546157      10.94658112      -0.02318979       0.02256865      -0.03148664      -3.31268716
Cl      33.37477108      37.39523374       2.31848109       0.01772590       0.06799029       0.01250381      -3.56859303
Cl      44.31012782      31.50554374      52.65355559       0.06206342       0.01185342      -0.02211211      -3.56248498
Cl      30.56004484      55.11620856      30.16714785      -0.00962018       0.00396956       0.01023973      -3.49645710
Cl      58.41490660      31.55279335      18.88994798      -0.01357379      -0.02861614       0.00774442      -3.52297044
Cl      49.30750844      36.73240972      21.29707349      -0.01947561       0.08613083       0.04854136      -3.47887683
Cl      24.68024916      35.81302266       9.87221614      -0.09895230       0.05623806      -0.02733864      -3.35641694
Cl      26.28198903      53.63865794      27.46636884       0.03717419      -0.01008189       0.03222204      -3.63277841
Cl      39.85119313      21.86335199      48.02454891      -0.01429349      -0.02857894      -0.05584278      -3.28428960
Cl      20.40415950       4.01774427      43.84894213      -0.05335263       0.01592687      -0.01417451      -3.44021869
Cl      49.84661140      25.79319256      30.25204781      -0.01260000      -0.01374938      -0.05639689      -3.61602783
Cl      10.32447020      31.38790134      43.82384031      -0.01457545      -0.02435413       0.01662732      -3.50028443
Cl      41.02711207       4.87797219      21.38615807       0.05450727       0.01124316       0.00220043      -3.37335157
Cl      18.10846335      12.30794807      27.08839073      -0.03441868       0.01195935      -0.00832961      -3.58151817
Cl      40.42635973       0.99197109       5.92685983       0.02022874      -0.01929658       0.02505799      -3.48248768
Cl      47.00789058      14.24057431       7.64487035       0.11852136       0.00571881      -0.10444385      -3.42256546
Cl      17.80651941      10.99487278      34.03713130      -0.05702861      -0.08862309      -0.03391492      -3.53279567
Cl      17.97373572      10.25220052      37.71419622      -0.09135152       0.07484972       0.05401170      -3.52646351
Cl      58.03955070      42.38613656      26.79739534       0.01718898       0.00745131      -0.01914062      -3.48180437
Cl       7.83037417      43.88064310      22.68782166      -0.02885944       0.03540403       0.05829758      -3.51605225
Cl      17.39382068       8.13279981      27.47295246      -0.04244550       0.02267654      -0.01130817      -3.58638215
Cl      12.59340788      19.23473679      16.77021124       0.06337442       0.01942330      -0.01783153      -3.51169515
Cl      22.35884350      33.24878996      21.80094564      -0.02853728      -0.01632101       0.04522186      -3.49152851
Cl       6.85831186      22.65425827      27.87832047      -0.00891195      -0.03503976      -0.03341931      -3.60686398
Cl      52.31679679      32.53499838      25.58385515       0.13574013       0.02914923       0.09229726      -3.58798456
Cl      26.37489463      16.39561541      54.69311133       0.01977938      -0.02714141      -0.00867984      -3.46430254
Cl      47.07793442      58.41151474       1.62971783       0.02087580       0.09748977      -0.02244332      -3.43896317
Cl      16.97098541      48.61732923      31.03815523       0.00286225       0.13601232      -0.01348758      -3.49981380
Cl      57.45538575      34.99199110      27.22784937      -0.04643899      -0.04319930       0.01516002      -3.54388332
Cl      21.86783124      20.95588177      32.37559355      -0.02222158      -0.00530582       0.01987470      -3.45018435
Cl       4.93712939      19.60893279      25.38506000       0.01753801      -0.02373344      -0.08903760      -3.35208774
Cl      53.00094975      46.82432865      47.37484868       0.02174083       0.03677657      -0.01380708      -3.47890663
Cl      21.81239632      29.37683252      58.04322891      -0.03825474      -0.01051980      -0.04234383      -3.56585312
Cl      48.57207638       1.41126578      54.67731701       0.01859332      -0.05842391       0.05442596      -3.57329082
Cl      31.11793944      49.64445493      52.85756267       0.01317391       0.00818864      -0.00844164      -3.50872803
Cl      11.62413748      41.32866642      23.06783139      -0.01814215      -0.03951925      -0.01241254      -3.54481173
Cl      27.90085951      28.54286531      30.34076257      -0.02425665       0.02292967       0.00567885      -3.37198448
Cl      39.11290843       5.88642904      57.69078291       0.03335451      -0.02089998       0.03171634      -3.58069897
Cl      58.27782479      27.87916527      49.35362838       0.00783397      -0.03857362       0.04166251      -3.55600119
Cl       9.26297083      24.42377577       1.40557508      -0.02253220      -0.00572377      -0.05791292      -3.38100290
Cl      28.39274870       8.36076362      16.09723368      -0.03195412       0.08063725       0.05153421      -3.50392795
Cl      13.73149410       9.62201287       5.05941568      -0.02971529      -0.02082032       0.06126397      -3.42129731
Cl      51.08994314      10.79192010      35.03065727      -0.06408799       0.06237007      -0.05088754      -3.47125316
Cl      39.28495875      13.05546727      41.17242263       0.00263103      -0.02204527      -0.02117771      -3.52582765
Cl      15.97297277      31.35425236      42.32867285      -0.03236051      -0.01762887       0.02591102      -3.46063924
Cl      54.70019017      12.35174179      18.19355322      -0.03447254       0.05332848      -0.04882164      -3.45600820
Cl      36.16273563      58.32920862      47.68445629       0.02607400       0.00162054       0.03742908      -3.58036351
Na       5.22296014      23.85287436      19.33341019       0.04212983      -0.01388142      -0.01321076      -3.22208452
Na      23.62619349      54.06737814      42.61249346      -0.00355955       0.00950577      -0.03653921      -3.34633803
Na      35.96202569       2.35205159      53.03560338      -0.05542658      -0.01902265       0.07114681      -3.33262014
Na      12.88819975      53.69416866      36.81330140      -0.02508258       0.01128539       0.01788451      -3.10017157
Na      38.08522275      44.70574079      31.11397318      -0.01846011       0.02570795      -0.00432528      -3.23844528
Na      28.19502815      25.45169388      29.02454196      -0.00441848      -0.01712573       0.05393586      -3.28085327
Na      44.70336722      36.24849414      25.76038247       0.07707955      -0.00757166      -0.00983685      -3.25330257
Na      14.23812899       4.68719456       7.64605136       0.06332670       0.02148079       0.00033673      -3.29521418
Na      36.22875306       8.30837919      15.98312114       0.03619567      -0.00838296      -0.04424424      -3.38134694
Na      48.84279915      28.09458271      14.63700533      -0.01691364      -0.01610908      -0.01673959      -3.18680239
Na      18.18087591      43.00991667      10.21112675       0.03494215      -0.02768322      -0.06609403      -3.12873387
Na      48.34117955       5.35296591      51.74199191       0.08168948      -0.01661825      -0.04156548      -3.30020070
Na      48.98774879      54.00373865      42.30990217       0.00551700      -0.01259262      -0.05055266      -3.31488442
Na      35.38753548      13.21907190       6.17241327      -0.08751626       0.07050136       0.08352154      -3.21136832
Na      13.21560665      36.05647282      33.32576136       0.02766892       0.05416662       0.02082326      -3.42169952
Na      26.91217183      26.22525299      25.59138957       0.00769209      -0.03888235       0.02121886      -3.32639885
Na      23.12578236      20.82140024      34.81360258      -0.00900435      -0.09757037      -0.03202675      -3.39683318
Na       0.84297334       0.89740837      21.09752087      -0.00486362      -0.01640860      -0.00414434      -3.29213715
Na      27.50247230      14.73537323      32.91805314      -0.01033472      -0.02491646      -0.00660274      -3.31325912
Na      22.46245227      17.29259276      28.09974836      -0.00687366      -0.01287711       0.04319534      -3.26384783
Na      31.29333740       8.37035438      50.69432066       0.03871565      -0.08044325       0.06850416      -3.26194334
Na      41.51924379      35.78662455      14.92501835       0.05123839       0.05361312      -0.00266696      -3.22338676
Na      45.00733223      43.15842550      14.45760636       0.03129732      -0.03725936      -0.00955488      -3.49193525
Na      37.21639978      49.90461319      40.74060873      -0.01876838      -0.02924611       0.02320856      -3.32216525
Na      47.46043532      25.58835803      16.79341650       0.02273838       0.01548933      -0.02632455      -3.22944880
Na      38.67493440      19.67957903      16.51173126       0.03185507       0.07004335      -0.01816160      -3.41883278
Na      18.61054887      46.64360741      27.70354709       0.04003502      -0.11179616       0.09603462      -3.17118907
Na      55.53300761      22.00215706      55.61016844       0.00163389       0.02196940      -0.05144930      -3.14315772
Na      31.02329852       7.48373874       0.99868356      -0.06684288       0.07333393       0.01891511      -3.34517860
Na      19.34689429      20.20370230       3.34042274      -0.00488244      -0.06377968      -0.05718090      -3.31457376
Na      26.30965651       3.39881356       4.54063471       0.05104138      -0.02874114      -0.00195670      -3.40151477
Na      25.97998361       9.61492740      47.09114852      -0.03862455      -0.00342029      -0.00034067      -3.36448598
Na      54.24782169      58.39382850      53.33363244       0.01292130      -0.00870584      -0.01743289      -3.29663515
Na      49.99357099       9.75096317      23.01549735      -0.05631112       0.02575924      -0.00059548      -3.26290393
Na      25.66888467       3.77374110      27.07891074       0.04035757      -0.01638896       0.02384444      -3.30690765
Na      29.41474875      26.16656713      47.26756087       0.05375684      -0.06686160       0.06671278      -3.29147291
Na      10.05214657      33.39216335      52.57351917       0.04315352       0.00848942       0.01300130      -3.34686399
Na      34.10556940       6.23523528      42.42416353      -0.06815709       0.00337523       0.03361984      -3.21867442
Na      44.08048782       3.28228974      44.92281854      -0.07088036      -0.03274515      -0.00049736      -3.25728416
Na      46.49876986      32.50827919      53.80407948       0.03963716       0.01182980       0.10226697      -3.16001201
Na      45.78157225      26.71193551       6.79737321       0.02144459      -0.02758931      -0.00455641      -3.20322847
Na      52.04717194      55.59439471      17.70752485      -0.03373569       0.00276928       0.01235837      -3.35298824
Na      26.21044743      29.19511967      28.17593331       0.03976819       0.01542302      -0.02090255      -3.34509587
Na      16.81783497      39.51925867      25.52897555      -0.09501638       0.01425040       0.08071287      -3.20653319
Na      52.42278172      45.56991139      49.69595673      -0.04924899       0.02972970      -0.02838375      -3.36724854
Na      58.17669940      15.68172500      11.08318178       0.00594524       0.02939514      -0.01050762      -3.27483821
Na      51.29429594      57.38387320      40.94763931      -0.00029262       0.00569078      -0.04272657      -3.17203021
Na      30.98668191      33.45855632      48.28413678      -0.03305950      -0.01404981      -0.08139946      -3.19239616
Na      34.05610114       1.44707224      17.70385625      -0.02801416       0.03798293       0.10845626      -3.10434270
Na      40.34214404      42.26893302       6.06572532       0.06993253      -0.03421965      -0.03567453      -3.17827535
Cl      33.38359811       3.61346419       5.39092332       0.03228658      -0.01773654      -0.19538575      -3.39880610
Cl      -0.18307758      53.22361553       9.74115415      -0.02696072      -0.07449318       0.07253230      -3.47207999
Cl      30.02019396      50.21242662      34.85613297       0.03392606      -0.01837967      -0.02507057      -3.53671598
Cl       6.73899766      10.96986036      25.57844804      -0.02318911       0.02257248      -0.03148625      -3.31268620
Cl      33.37477133      52.02710093      16.95034821       0.01772681       0.06799148       0.01250513      -3.56859422
Cl      44.31012804      46.13741068       8.75795451       0.06205910       0.01185548      -0.02211172      -3.56248569
Cl      30.56004543      11.22060688      44.79901461      -0.00962058       0.00396597       0.01024113      -3.49645829
Cl      58.41490655      46.18466006      33.52181512      -0.01357662      -0.02862040       0.00774480      -3.52297020
Cl      49.30750853      51.36427703      35.92894010      -0.01947774       0.08612654       0.04854527      -3.47887707
Cl      24.68024919      50.44488982      24.50408319      -0.09895379       0.05623732      -0.02734065      -3.35641766
Cl      26.28198898       9.74305663      42.09823596       0.03717580      -0.01008559       0.03222330      -3.63277864
Cl      39.85119321      36.49521920       4.12894790      -0.01429333      -0.02857951      -0.05584472      -3.28428841
Cl      20.40415963      18.64961226      -0.04666068      -0.05335418       0.01592663      -0.01417464      -3.44021893
Cl      49.84661162      40.42506004      44.88391473      -0.01260014      -0.01375335      -0.05639611      -3.61602688
Cl      10.32447009      46.01976863      -0.07176217      -0.01457518      -0.02435040       0.01662879      -3.50028539
Cl      41.02711205      19.50983963      36.01802502       0.05450895       0.01124105       0.00219822      -3.37335062
Cl      18.10846325      26.93981531      41.72025751      -0.03441991       0.01195746      -0.00833061      -3.58151817
Cl      40.42635944      15.62383909      20.55872777       0.02022862      -0.01930237       0.02505916      -3.48248649
Cl      47.00789064      28.87244131      22.27673746       0.11852185       0.00571601      -0.10444304      -3.42256498
Cl      17.80651946      25.62673997      48.66899834      -0.05702982      -0.08862320      -0.03391045      -3.53279686
Cl      17.97373600      24.88406762      52.34606316      -0.09135154       0.07484992       0.05401187      -3.52646399
Cl      58.03955077      57.01800390      41.42926223       0.01718666       0.00744992      -0.01914694      -3.48180366
Cl       7.83037432      58.51251120      37.31968887      -0.02885900       0.03539873       0.05829532      -3.51605392
Cl      17.39382077      22.76466674      42.10481955      -0.04244922       0.02267703      -0.01131080      -3.58638334
Cl      12.59340797      33.86660383      31.40207834       0.06337339       0.01942433      -0.01783209      -3.51169467
Cl      22.35884346      47.88065693      36.43281280      -0.02853824      -0.01631919       0.04522143      -3.49153090
Cl       6.85831183      37.28612535      42.51018737      -0.00891176      -0.03503989      -0.03342135      -3.60686374
Cl      52.31679677      47.16686513      40.21572243       0.13574266       0.02915125       0.09229423      -3.58798528
Cl      26.37489475      31.02748231      10.79751016       0.01977996      -0.02714540      -0.00868104      -3.46430230
Cl      47.07793415      14.51591318      16.26158550       0.02087701       0.09749026      -0.02244148      -3.43896294
Cl      16.97098549       4.72172795      45.67002219       0.00286236       0.13601175      -0.01348795      -3.49981332
Cl      57.45538596      49.62385792      41.85971663      -0.04643551      -0.04320060       0.01515804      -3.54388356
Cl      21.86783124      35.58774842      47.00746099      -0.02222382      -0.00531027       0.01987891      -3.45018530
Cl       4.93712939      34.24079989      40.01692734       0.01753780      -0.02373390      -0.08903818      -3.35208797
Cl      53.00094966       2.92872701       3.47924714       0.02174167       0.03677948      -0.01381139      -3.47890687
Cl      21.81239633      44.00869972      14.14762713      -0.03825783      -0.01052171      -0.04234383      -3.56585288
Cl      48.57207735      16.04313259      10.78171663       0.01858838      -0.05842511       0.05442929      -3.57328963
Cl      31.11793945       5.74885356       8.96196171       0.01317465       0.00819254      -0.00844038      -3.50872922
Cl      11.62413759      55.96053403      37.69969852      -0.01814460      -0.03951580      -0.01241980      -3.54481077
Cl      27.90085957      43.17473237      44.97262949      -0.02425773       0.02293038       0.00567974      -3.37198400
Cl      39.11290841      20.51829630      13.79518123       0.03335364      -0.02090063       0.03171858      -3.58070016
Cl      58.27782495      42.51103270       5.45802720       0.00783449      -0.03857083       0.04166435      -3.55600166
Cl       9.26297080      39.05564275      16.03744273      -0.02253282      -0.00571903      -0.05791470      -3.38100290
Cl      28.39274874      22.99263079      30.72910057      -0.03195304       0.08063887       0.05153357      -3.50392890
Cl      13.73149408      24.25387980      19.69128274      -0.02971550      -0.02081842       0.06126558      -3.42129779
Cl      51.08994320      25.42378725      49.66252430      -0.06408861       0.06236640      -0.05088593      -3.47125459
Cl      39.28495874      27.68733439      55.80428994       0.00263127      -0.02204316      -0.02117558      -3.52582860
Cl      15.97297279      45.98611924      56.96054093      -0.03235945      -0.01762749       0.02591017      -3.46063924
Cl      54.70019016      26.98360869      32.82542009      -0.03447375       0.05332962      -0.04881775      -3.45600820
Cl      36.16273537      14.43360704       3.78885520       0.02607545       0.00162086       0.03742614      -3.58036351
Na       5.22296025      23.85287420      33.96527740       0.04212805      -0.01388115      -0.01321384      -3.22208452
Na      23.62619378      54.06737803      57.24436140      -0.00355849       0.00950585      -0.03654453      -3.34633756
Na      35.96202576       2.35205166       9.14000204      -0.05542758      -0.01902438       0.07114395      -3.33261991
Na      12.88819969      53.69416880      51.44516888      -0.02508283       0.01128626       0.01788552      -3.10017157
Na      38.08522281      44.70574092      45.74584019      -0.01845996       0.02570550      -0.00432775      -3.23844576
Na      28.19502795      25.45169384      43.65640882      -0.00441987      -0.01712696       0.05393439      -3.28085303
Na      44.70336724      36.24849406      40.39224931       0.07707191      -0.00757382      -0.00983408      -3.25330162
Na      14.23812902       4.68719451      22.27791830       0.06332691       0.02148007       0.00033741      -3.29521418
Na      36.22875304       8.30837918      30.61498825       0.03619574      -0.00838427      -0.04424338      -3.38134694
Na      48.84279918      28.09458266      29.26887237      -0.01691313      -0.01610920      -0.01674102      -3.18680143
Na      18.18087592      43.00991667      24.84299380       0.03494090      -0.02768189      -0.06609900      -3.12873411
Na      48.34117938       5.35296569       7.84639076       0.08168907      -0.01661992      -0.04156401      -3.30020022
Na      48.98774847      54.00373884      56.94176960       0.00551596      -0.01259196      -0.05055396      -3.31488466
Na      35.38753544      13.21907191      20.80428034      -0.08751653       0.07050229       0.08352116      -3.21136856
Na      13.21560667      36.05647272      47.95762836       0.02766637       0.05416663       0.02081958      -3.42169976
Na      26.91217180      26.22525297      40.22325649       0.00769213      -0.03888272       0.02122202      -3.32639861
Na      23.12578229      20.82140030      49.44546941      -0.00900391      -0.09757070      -0.03202759      -3.39683270
Na       0.84297333       0.89740841      35.72938799      -0.00486479      -0.01641232      -0.00415106      -3.29213715
Na      27.50247238      14.73537327      47.54992006      -0.01033448      -0.02491633      -0.00660149      -3.31325960
Na      22.46245239      17.29259283      42.73161500      -0.00687369      -0.01287892       0.04320196      -3.26384878
Na      31.29333742       8.37035441       6.79871961       0.03871622      -0.08044201       0.06850547      -3.26194406
Na      41.51924389      35.78662451      29.55688529       0.05123895       0.05361465      -0.00266615      -3.22338676
Na      45.00733223      43.15842561      29.08947334       0.03129661      -0.03725930      -0.00955577      -3.49193501
Na      37.21640012      49.90461302      55.37247602      -0.01877198      -0.02924470       0.02321238      -3.32216501
Na      47.46043528      25.58835810      31.42528360       0.02273609       0.01548865      -0.02631906      -3.22944903
Na      38.67493435      19.67957892      31.14359836       0.03185435       0.07004420      -0.01816125      -3.41883206
Na      18.61054896      46.64360733      42.33541411       0.04003337      -0.11179754       0.09603338      -3.17119050
Na      55.53300795      22.00215728      11.71456704       0.00163178       0.02197001      -0.05145178      -3.14315724
Na      31.02329837       7.48373898      15.63055060      -0.06684341       0.07333416       0.01891530      -3.34517884
Na      19.34689442      20.20370223      17.97228949      -0.00488220      -0.06378007      -0.05718084      -3.31457400
Na      26.30965649       3.39881354      19.17250185       0.05104138      -0.02874269      -0.00195830      -3.40151477
Na      25.97998362       9.61492733       3.19554702      -0.03862491      -0.00342001      -0.00034101      -3.36448574
Na      54.24782185      58.39382841       9.43803128       0.01292122      -0.00870491      -0.01743180      -3.29663563
Na      49.99357096       9.75096313      37.64736422      -0.05631064       0.02575956      -0.00059612      -3.26290417
Na      25.66888468       3.77374111      41.71077771       0.04035668      -0.01638967       0.02384632      -3.30690718
Na      29.41474868      26.16656716       3.37195962       0.05375860      -0.06686382       0.06670579      -3.29147387
Na      10.05214652      33.39216344       8.67791781       0.04315318       0.00848961       0.01300676      -3.34686446
Na      34.10556933       6.23523555      57.05603064      -0.06815726       0.00337519       0.03361920      -3.21867442
Na      44.08048790       3.28228928       1.02721747      -0.07087903      -0.03274682      -0.00049764      -3.25728416
Na      46.49876970      32.50827931       9.90847834       0.03964445       0.01182918       0.10227109      -3.16001248
Na      45.78157237      26.71193563      21.42924065       0.02143811      -0.02758954      -0.00455854      -3.20322847
Na      52.04717188      55.59439467      32.33939161      -0.03373493       0.00276976       0.01235977      -3.35298777
Na      26.21044747      29.19511956      42.80780025       0.03976795       0.01542456      -0.02090089      -3.34509587
Na      16.81783489      39.51925857      40.16084236      -0.09501622       0.01425012       0.08071270      -3.20653224
Na      52.42278184      45.56991147       5.80035540      -0.04924987       0.02972962      -0.02838022      -3.36724806
Na      58.17669950      15.68172497      25.71504884       0.00594496       0.02939679      -0.01051030      -3.27483821
Na      51.29429598      57.38387314      55.57950705      -0.00029332       0.00569054      -0.04272610      -3.17203069
Na      30.98668168      33.45855617       4.38853591      -0.03306095      -0.01404797      -0.08139516      -3.19239616
Na      34.05610112       1.44707231      32.33572332      -0.02801482       0.03798263       0.10845534      -3.10434246
Na      40.34214388      42.26893302      20.69759229       0.06993340      -0.03421868      -0.03567088      -3.17827487
Cl      33.38359817       3.61346419      20.02279030       0.03228587      -0.01773629      -0.19538677      -3.39880586
Cl      -0.18307760      53.22361551      24.37302124      -0.02696204      -0.07449313       0.07253055      -3.47208071
Cl      30.02019396      50.21242633      49.48800043       0.03392824      -0.01837932      -0.02506806      -3.53671646
Cl       6.73899758      10.96986035      40.21031497      -0.02318821       0.02257232      -0.03148737      -3.31268764
Cl      33.37477133      52.02710097      31.58221516       0.01772724       0.06799159       0.01250508      -3.56859374
Cl      44.31012789      46.13741071      23.38982161       0.06205900       0.01185536      -0.02211119      -3.56248474
Cl      30.56004501      11.22060703       0.90341319      -0.00962118       0.00396646       0.01024349      -3.49645758
Cl      58.41490651      46.18465995      48.15368201      -0.01357180      -0.02861121       0.00774417      -3.52296972
Cl      49.30750857      51.36427686      50.56080715      -0.01947769       0.08612713       0.04854527      -3.47887707
Cl      24.68024928      50.44488982      39.13594991      -0.09895645       0.05623733      -0.02733324      -3.35641575
Cl      26.28198906       9.74305680      56.73010351       0.03717321      -0.01009022       0.03222591      -3.63277864
Cl      39.85119316      36.49521907      18.76081492      -0.01429415      -0.02857996      -0.05584455      -3.28428888
Cl      20.40415952      18.64961176      14.58520822      -0.05335318       0.01592490      -0.01417457      -3.44021916
Cl      49.84661136      40.42505981       0.98831322      -0.01259886      -0.01375441      -0.05639588      -3.61602807
Cl      10.32447027      46.01976849      14.56010586      -0.01457637      -0.02435016       0.01662828      -3.50028682
Cl      41.02711199      19.50983976      50.64989219       0.05450652       0.01124448       0.00220699      -3.37335205
Cl      18.10846339      26.93981559      56.35212521      -0.03442015       0.01196303      -0.00833775      -3.58151698
Cl      40.42635942      15.62383928      35.19059460       0.02022822      -0.01930266       0.02505974      -3.48248696
Cl      47.00789073      28.87244127      36.90860473       0.11851630       0.00571934      -0.10444561      -3.42256498
Cl      17.80651941      25.62674019       4.77339730      -0.05702966      -0.08862223      -0.03391133      -3.53279614
Cl      17.97373585      24.88406755       8.45046206      -0.09135098       0.07484967       0.05400797      -3.52646375
Cl      58.03955074      57.01800394      56.06113018       0.01718723       0.00745102      -0.01914310      -3.48180485
Cl       7.83037434      58.51251129      51.95155557      -0.02885873       0.03539896       0.05829644      -3.51605320
Cl      17.39382101      22.76466679      56.73668701      -0.04244823       0.02267713      -0.01130954      -3.58638215
Cl      12.59340796      33.86660404      46.03394517       0.06337363       0.01942587      -0.01783461      -3.51169348
Cl      22.35884351      47.88065711      51.06467970      -0.02853616      -0.01631942       0.04522540      -3.49153018
Cl       6.85831210      37.28612543      57.14205559      -0.00891291      -0.03503925      -0.03342051      -3.60686445
Cl      52.31679666      47.16686513      54.84758982       0.13574003       0.02915079       0.09228851      -3.58798599
Cl      26.37489480      31.02748218      25.42937694       0.01978059      -0.02714416      -0.00867906      -3.46430230
Cl      47.07793425      14.51591318      30.89345251       0.02087667       0.09749034      -0.02244006      -3.43896365
Cl      16.97098567       4.72172785       1.77442121       0.00286128       0.13601157      -0.01349049      -3.49981380
Cl      57.45538588      49.62385821      56.49158359      -0.04643742      -0.04319982       0.01515932      -3.54388213
Cl      21.86783134      35.58774874       3.11185922      -0.02222263      -0.00530972       0.01987970      -3.45018411
Cl       4.93712943      34.24080017      54.64879394       0.01753808      -0.02373361      -0.08903733      -3.35208893
Cl      53.00094952       2.92872714      18.11111471       0.02174203       0.03677873      -0.01381099      -3.47890735
Cl      21.81239623      44.00869950      28.77949413      -0.03825841      -0.01052234      -0.04234242      -3.56585264
Cl      48.57207736      16.04313264      25.41358374       0.01858974      -0.05842556       0.05442905      -3.57329130
Cl      31.11793952       5.74885355      23.59382873       0.01317452       0.00819239      -0.00843874      -3.50872874
Cl      11.62413756      55.96053416      52.33156538      -0.01814260      -0.03951687      -0.01241301      -3.54480982
Cl      27.90085951      43.17473255       1.07702816      -0.02425742       0.02293005       0.00568077      -3.37198400
Cl      39.11290841      20.51829628      28.42704817       0.03335297      -0.02090103       0.03171939      -3.58070016
Cl      58.27782485      42.51103265      20.08989460       0.00783457      -0.03857155       0.04166299      -3.55600166
Cl       9.26297079      39.05564272      30.66930971      -0.02253206      -0.00571966      -0.05791347      -3.38100314
Cl      28.39274866      22.99263077      45.36096759      -0.03195398       0.08063932       0.05153472      -3.50392723
Cl      13.73149402      24.25387994      34.32314993      -0.02971502      -0.02081779       0.06126212      -3.42129707
Cl      51.08994324      25.42378720       5.76692312      -0.06408863       0.06236614      -0.05088662      -3.47125411
Cl      39.28495869      27.68733432      11.90868849       0.00263176      -0.02204265      -0.02117466      -3.52582812
Cl      15.97297268      45.98611943      13.06493877      -0.03235936      -0.01762737       0.02591090      -3.46063924
Cl      54.70019023      26.98360886      47.45728710      -0.03447096       0.05333040      -0.04881602      -3.45600796
Cl      36.16273534      14.43360705      18.42072274       0.02607521       0.00162103       0.03742623      -3.58036327
Na       5.22296016      23.85287422      48.59714411       0.04212960      -0.01388042      -0.01321282      -3.22208405
Na      23.62619350      54.06737815      13.34875950      -0.00355847       0.00950613      -0.03654354      -3.34633756
Na      35.96202565       2.35205161      23.77186932      -0.05542774      -0.01902428       0.07114267      -3.33261991
Na      12.88819975      53.69416875       7.54956723      -0.02508357       0.01128555       0.01788264      -3.10017204
Na      38.08522261      44.70574121       1.85023840      -0.01846007       0.02570792      -0.00432497      -3.23844552
Na      28.19502819      25.45169372      58.28827674      -0.00441696      -0.01712549       0.05393673      -3.28085303
Na      44.70336720      36.24849430      55.02411698       0.07707829      -0.00757234      -0.00983585      -3.25330234
Na      14.23812901       4.68719445      36.90978535       0.06332511       0.02148169       0.00033391      -3.29521465
Na      36.22875307       8.30837924      45.24685533       0.03619622      -0.00838129      -0.04424622      -3.38134742
Na      48.84279916      28.09458265      43.90073942      -0.01691504      -0.01611036      -0.01673757      -3.18680239
Na      18.18087583      43.00991636      39.47486076       0.03494151      -0.02768007      -0.06609857      -3.12873411
Na      48.34117938       5.35296576      22.47825786       0.08168925      -0.01661970      -0.04156476      -3.30020046
Na      48.98774854      54.00373878      13.04616807       0.00551681      -0.01259151      -0.05055444      -3.31488395
Na      35.38753535      13.21907199      35.43614727      -0.08751649       0.07050065       0.08352408      -3.21136832
Na      13.21560666      36.05647289       4.06202721       0.02766815       0.05416689       0.02082296      -3.42169929
Na      26.91217181      26.22525299      54.85512401       0.00769218      -0.03888119       0.02121111      -3.32639837
Na      23.12578228      20.82140021       5.54986834      -0.00900552      -0.09757091      -0.03202809      -3.39683270
Na       0.84297343       0.89740849      50.36125538      -0.00486486      -0.01640949      -0.00414692      -3.29213715
Na      27.50247220      14.73537317       3.65431893      -0.01033507      -0.02491675      -0.00660527      -3.31325912
Na      22.46245219      17.29259272      57.36348280      -0.00687337      -0.01287769       0.04319851      -3.26384854
Na      31.29333747       8.37035456      21.43058662       0.03871670      -0.08044212       0.06850528      -3.26194382
Na      41.51924375      35.78662448      44.18875231       0.05123966       0.05361509      -0.00266108      -3.22338724
Na      45.00733225      43.15842552      43.72134056       0.03129679      -0.03725983      -0.00955366      -3.49193549
Na      37.21639984      49.90461314      11.47687455      -0.01877030      -0.02924581       0.02320922      -3.32216501
Na      47.46043527      25.58835805      46.05715076       0.02273894       0.01549012      -0.02632625      -3.22944927
Na      38.67493447      19.67957892      45.77546530       0.03185634       0.07004475      -0.01816390      -3.41883278
Na      18.61054881      46.64360728      56.96728131       0.04003436      -0.11179738       0.09603432      -3.17118931
Na      55.53300783      22.00215727      26.34643401       0.00163348       0.02197041      -0.05145032      -3.14315701
Na      31.02329831       7.48373895      30.26241767      -0.06684374       0.07333405       0.01891555      -3.34517837
Na      19.34689430      20.20370218      32.60415655      -0.00488287      -0.06377983      -0.05717963      -3.31457424
Na      26.30965641       3.39881350      33.80436895       0.05104201      -0.02874065      -0.00195385      -3.40151525
Na      25.97998363       9.61492743      17.82741442      -0.03862392      -0.00342027      -0.00034002      -3.36448526
Na      54.24782189      58.39382853      24.06989827       0.01292069      -0.00870539      -0.01743307      -3.29663563
Na      49.99357098       9.75096322      52.27923129      -0.05631144       0.02575863      -0.00059584      -3.26290321
Na      25.66888471       3.77374107      56.34264512       0.04035618      -0.01638670       0.02384937      -3.30690765
Na      29.41474874      26.16656714      18.00382674       0.05375818      -0.06686249       0.06670854      -3.29147339
Na      10.05214648      33.39216354      23.30978489       0.04315314       0.00848876       0.01300455      -3.34686446
Na      34.10556934       6.23523528      13.16042976      -0.06815794       0.00337540       0.03361965      -3.21867442
Na      44.08048771       3.28228970      15.65908465      -0.07087924      -0.03274626      -0.00049857      -3.25728393
Na      46.49876981      32.50827940      24.54034548       0.03963481       0.01182768       0.10226670      -3.16001248
Na      45.78157239      26.71193556      36.06110742       0.02143521      -0.02758769      -0.00455465      -3.20322824
Na      52.04717188      55.59439470      46.97125881      -0.03373449       0.00276877       0.01235602      -3.35298824
Na      26.21044705      29.19511957      57.43966777       0.03976901       0.01542541      -0.02089913      -3.34509516
Na      16.81783505      39.51925848      54.79270973      -0.09501385       0.01425441       0.08071466      -3.20653200
Na      52.42278170      45.56991149      20.43222264      -0.04924961       0.02972933      -0.02837954      -3.36724854
Na      58.17669944      15.68172503      40.34691577       0.00594580       0.02939456      -0.01050799      -3.27483797
Na      51.29429576      57.38387322      11.68390558      -0.00029298       0.00569006      -0.04272691      -3.17203069
Na      30.98668173      33.45855614      19.02040283      -0.03305939      -0.01404719      -0.08139629      -3.19239664
Na      34.05610105       1.44707208      46.96759029      -0.02801451       0.03798258       0.10845552      -3.10434270
Na      40.34214390      42.26893314      35.32945929       0.06993297      -0.03422000      -0.03567583      -3.17827415
Cl      33.38359831       3.61346420      34.65465752       0.03228590      -0.01773697      -0.19538759      -3.39880586
Cl      -0.18307761      53.22361551      39.00488819      -0.02695939      -0.07449367       0.07253431      -3.47207904
Cl      30.02019383      50.21242638       5.59239898       0.03392689      -0.01838027      -0.02507244      -3.53671646
Cl       6.73899743      10.96986029      54.84218240      -0.02318833       0.02257251      -0.03148793      -3.31268716
Cl      33.37477134      52.02710096      46.21408218       0.01772764       0.06799176       0.01250682      -3.56859374
Cl      44.31012823      46.13741060      38.02168858       0.06205869       0.01185557      -0.02211550      -3.56248665
Cl      30.56004530      11.22060695      15.53528053      -0.00962131       0.00396623       0.01024339      -3.49645782
Cl      58.41490632      46.18465998       4.25808081      -0.01357631      -0.02862094       0.00774573      -3.52297068
Cl      49.30750864      51.36427689       6.66520601      -0.01947711       0.08612922       0.04854311      -3.47887754
Cl      24.68024928      50.44488973      53.76781747      -0.09895632       0.05623489      -0.02734245      -3.35641885
Cl      26.28198899       9.74305655      12.83450205       0.03717337      -0.01008658       0.03222303      -3.63277864
Cl      39.85119305      36.49521917      33.39268178      -0.01429355      -0.02858019      -0.05584472      -3.28428864
Cl      20.40415952      18.64961169      29.21707526      -0.05335374       0.01592483      -0.01417576      -3.44021988
Cl      49.84661156      40.42505976      15.62018073      -0.01259947      -0.01375506      -0.05639505      -3.61602712
Cl      10.32447024      46.01976839      29.19197290      -0.01457503      -0.02435013       0.01662979      -3.50028634
Cl      41.02711204      19.50983960       6.75429106       0.05450740       0.01124256       0.00219955      -3.37335134
Cl      18.10846329      26.93981525      12.45652353      -0.03441889       0.01195974      -0.00833121      -3.58151722
Cl      40.42635943      15.62383894      49.82246169       0.02022780      -0.01930309       0.02505999      -3.48248696
Cl      47.00789067      28.87244123      51.54047172       0.11852192       0.00572065      -0.10444079      -3.42256618
Cl      17.80651945      25.62674008      19.40526454      -0.05703105      -0.08862213      -0.03390741      -3.53279614
Cl      17.97373587      24.88406759      23.08232913      -0.09135211       0.07484926       0.05400933      -3.52646303
Cl      58.03955071      57.01800388      12.16552830       0.01718763       0.00744978      -0.01914299      -3.48180366
Cl       7.83037432      58.51251129       8.05595449      -0.02885886       0.03539890       0.05829709      -3.51605320
Cl      17.39382070      22.76466679      12.84108549      -0.04244522       0.02267589      -0.01130895      -3.58638167
Cl      12.59340789      33.86660365       2.13834398       0.06337383       0.01942490      -0.01783185      -3.51169443
Cl      22.35884346      47.88065701       7.16907846      -0.02853814      -0.01631884       0.04522055      -3.49152970
Cl       6.85831190      37.28612527      13.24645341      -0.00891266      -0.03503915      -0.03341862      -3.60686445
Cl      52.31679671      47.16686518      10.95198815       0.13574155       0.02915028       0.09229511      -3.58798504
Cl      26.37489474      31.02748235      40.06124411       0.01977944      -0.02714645      -0.00868222      -3.46430230
Cl      47.07793422      14.51591316      45.52531952       0.02087850       0.09749001      -0.02244137      -3.43896270
Cl      16.97098560       4.72172798      16.40628832       0.00286222       0.13601223      -0.01349014      -3.49981380
Cl      57.45538589      49.62385804      12.59598257      -0.04643888      -0.04320136       0.01516112      -3.54388356
Cl      21.86783125      35.58774864      17.74372680      -0.02222233      -0.00530995       0.01987980      -3.45018435
Cl       4.93712934      34.24079991      10.75319292       0.01753706      -0.02373443      -0.08903845      -3.35208750
Cl      53.00094947       2.92872704      32.74298205       0.02174183       0.03677750      -0.01380920      -3.47890687
Cl      21.81239620      44.00869956      43.41136107      -0.03825705      -0.01052059      -0.04234660      -3.56585169
Cl      48.57207726      16.04313269      40.04545086       0.01858859      -0.05842521       0.05442726      -3.57328963
Cl      31.11793943       5.74885352      38.22569597       0.01317303       0.00819372      -0.00844074      -3.50872946
Cl      11.62413761      55.96053397       8.43596438      -0.01814332      -0.03951675      -0.01241545      -3.54480982
Cl      27.90085946      43.17473244      15.70889548      -0.02425711       0.02293023       0.00567993      -3.37198448
Cl      39.11290842      20.51829629      43.05891526       0.03335393      -0.02090082       0.03171875      -3.58070016
Cl      58.27782486      42.51103272      34.72176165       0.00783559      -0.03856990       0.04166646      -3.55600119
Cl       9.26297077      39.05564267      45.30117675      -0.02253399      -0.00571886      -0.05791846      -3.38100171
Cl      28.39274870      22.99263057       1.46536606      -0.03195463       0.08063840       0.05153339      -3.50392771
Cl      13.73149406      24.25387991      48.95501647      -0.02971511      -0.02081909       0.06126574      -3.42129850
Cl      51.08994325      25.42378722      20.39879024      -0.06408893       0.06236535      -0.05088612      -3.47125483
Cl      39.28495859      27.68733430      26.54055553       0.00263162      -0.02204289      -0.02117456      -3.52582836
Cl      15.97297270      45.98611928      27.69680575      -0.03235878      -0.01762706       0.02591140      -3.46063995
Cl      54.70019016      26.98360846       3.56168602      -0.03447253       0.05332949      -0.04881840      -3.45600820
Cl      36.16273530      14.43360710      33.05258957       0.02607534       0.00162096       0.03742548      -3.58036423
Na       5.22296007      23.85287442       4.70154309       0.04212999      -0.01388124      -0.01321048      -3.22208500
Na      23.62619350      54.06737815      27.98062653      -0.00356006       0.00950669      -0.03654416      -3.34633756
Na      35.96202564       2.35205160      38.40373598      -0.05542760      -0.01902362       0.07114311      -3.33262038
Na      12.88819973      53.69416869      22.18143451      -0.02508344       0.01128581       0.01788070      -3.10017204
Na      38.08522280      44.70574088      16.48210608      -0.01846108       0.02570777      -0.00432285      -3.23844528
Na      28.19502812      25.45169383      14.39267496      -0.00441787      -0.01712614       0.05393520      -3.28085327
Na      44.70336720      36.24849414      11.12851530       0.07707977      -0.00757105      -0.00983673      -3.25330257
Na      14.23812905       4.68719455      51.54165214       0.06332658       0.02148068       0.00033576      -3.29521418
Na      36.22875282       8.30837900       1.35125337       0.03619513      -0.00838327      -0.04424476      -3.38134766
Na      48.84279947      28.09458257       0.00513764      -0.01691414      -0.01610914      -0.01673933      -3.18680215
Na      18.18087599      43.00991643      54.10672798       0.03494085      -0.02768446      -0.06609347      -3.12873459
Na      48.34117952       5.35296578      37.11012480       0.08169079      -0.01661682      -0.04156629      -3.30020046
Na      48.98774860      54.00373877      27.67803511       0.00551704      -0.01259161      -0.05055606      -3.31488395
Na      35.38753543      13.21907192      50.06801446      -0.08751629       0.07050243       0.08351959      -3.21136856
Na      13.21560675      36.05647285      18.69389446       0.02766724       0.05416775       0.02082153      -3.42169881
Na      26.91217180      26.22525301      10.95952243       0.00769242      -0.03888198       0.02121769      -3.32639861
Na      23.12578231      20.82140031      20.18173546      -0.00900499      -0.09757030      -0.03202856      -3.39683270
Na       0.84297310       0.89740828       6.46565389      -0.00486417      -0.01640961      -0.00414533      -3.29213667
Na      27.50247228      14.73537322      18.28618619      -0.01033475      -0.02491649      -0.00660425      -3.31325889
Na      22.46245231      17.29259281      13.46788129      -0.00687361      -0.01287742       0.04319721      -3.26384807
Na      31.29333756       8.37035462      36.06245369       0.03871442      -0.08044367       0.06850435      -3.26194406
Na      41.51924412      35.78662439       0.29315052       0.05123849       0.05361373      -0.00266837      -3.22338700
Na      45.00733225      43.15842578      58.35320809       0.03129741      -0.03725973      -0.00955267      -3.49193501
Na      37.21639988      49.90461323      26.10874152      -0.01876993      -0.02924594       0.02320901      -3.32216525
Na      47.46043537      25.58835809       2.16154907       0.02273843       0.01548909      -0.02632111      -3.22944927
Na      38.67493449      19.67957881       1.87986366       0.03185454       0.07004278      -0.01816118      -3.41883302
Na      18.61054889      46.64360738      13.07168020       0.04003505      -0.11179649       0.09603362      -3.17118979
Na      55.53300786      22.00215728      40.97830112       0.00162777       0.02196688      -0.05145667      -3.14315724
Na      31.02329834       7.48373892      44.89428468      -0.06684382       0.07333386       0.01891644      -3.34517884
Na      19.34689435      20.20370217      47.23602354      -0.00488261      -0.06378055      -0.05718012      -3.31457424
Na      26.30965647       3.39881360      48.43623573       0.05104158      -0.02874278      -0.00196145      -3.40151477
Na      25.97998376       9.61492748      32.45928157      -0.03862461      -0.00341982      -0.00034028      -3.36448574
Na      54.24782169      58.39382837      38.70176518       0.01292029      -0.00870518      -0.01743259      -3.29663491
Na      49.99357100       9.75096322       8.38363031      -0.05631098       0.02575876      -0.00059496      -3.26290393
Na      25.66888472       3.77374108      12.44704368       0.04035719      -0.01638884       0.02384519      -3.30690765
Na      29.41474864      26.16656712      32.63569395       0.05375760      -0.06686395       0.06670904      -3.29147339
Na      10.05214656      33.39216345      37.94165196       0.04315263       0.00848943       0.01300830      -3.34686399
Na      34.10556935       6.23523515      27.79229673      -0.06815802       0.00337505       0.03361873      -3.21867442
Na      44.08048770       3.28228971      30.29095170      -0.07087856      -0.03274605      -0.00049802      -3.25728345
Na      46.49876957      32.50827920      39.17221226       0.03964831       0.01182926       0.10227391      -3.16001201
Na      45.78157243      26.71193563      50.69297479       0.02143539      -0.02759124      -0.00455771      -3.20322704
Na      52.04717188      55.59439479       3.07565735      -0.03373514       0.00276934       0.01235799      -3.35298800
Na      26.21044735      29.19511961      13.54406630       0.03976857       0.01542421      -0.02090236      -3.34509587
Na      16.81783493      39.51925864      10.89710860      -0.09501645       0.01425014       0.08071417      -3.20653319
Na      52.42278168      45.56991159      35.06408925      -0.04924963       0.02972989      -0.02838268      -3.36724782
Na      58.17669950      15.68172497      54.97878320       0.00594571       0.02939514      -0.01050696      -3.27483773
Na      51.29429575      57.38387328      26.31577258      -0.00029293       0.00568961      -0.04272887      -3.17203069
Na      30.98668176      33.45855612      33.65226954      -0.03306032      -0.01404791      -0.08139783      -3.19239569
Na      34.05610092       1.44707194       3.07198953      -0.02801503       0.03798249       0.10845522      -3.10434270
Na      40.34214393      42.26893283      49.96132665       0.06993323      -0.03421919      -0.03567481      -3.17827487
Cl      33.38359811       3.61346422      49.28652435       0.03228625      -0.01773645      -0.19538727      -3.39880538
Cl      -0.18307750      53.22361546      53.63675538      -0.02696230      -0.07449229       0.07252932      -3.47207975
Cl      30.02019396      50.21242657      20.22426617       0.03392797      -0.01838180      -0.02507285      -3.53671670
Cl       6.73899766      10.96986035      10.94658095      -0.02318866       0.02257322      -0.03148723      -3.31268716
Cl      33.37477132      52.02710090       2.31848117       0.01772659       0.06799202       0.01250456      -3.56859398
Cl      44.31012791      46.13741072      52.65355573       0.06206031       0.01185644      -0.02211323      -3.56248617
Cl      30.56004529      11.22060691      30.16714760      -0.00962048       0.00396591       0.01024381      -3.49645829
Cl      58.41490649      46.18465999      18.88994807      -0.01357578      -0.02862106       0.00774606      -3.52297020
Cl      49.30750853      51.36427694      21.29707305      -0.01947762       0.08612926       0.04854272      -3.47887754
Cl      24.68024913      50.44488986       9.87221605      -0.09895284       0.05623761      -0.02733855      -3.35641694
Cl      26.28198891       9.74305662      27.46636903       0.03717369      -0.01008683       0.03222173      -3.63277793
Cl      39.85119305      36.49521922      48.02454888      -0.01429408      -0.02858067      -0.05584251      -3.28428841
Cl      20.40415945      18.64961179      43.84894221      -0.05335257       0.01592624      -0.01417617      -3.44021869
Cl      49.84661148      40.42505983      30.25204778      -0.01259841      -0.01375464      -0.05639625      -3.61602831
Cl      10.32447026      46.01976854      43.82384019      -0.01457524      -0.02434925       0.01662724      -3.50028491
Cl      41.02711201      19.50983969      21.38615795       0.05450644       0.01124310       0.00220134      -3.37335110
Cl      18.10846337      26.93981521      27.08839064      -0.03441854       0.01195884      -0.00832971      -3.58151770
Cl      40.42635934      15.62383904       5.92686057       0.02022927      -0.01930234       0.02505850      -3.48248696
Cl      47.00789065      28.87244135       7.64487038       0.11851769       0.00571311      -0.10444473      -3.42256451
Cl      17.80651938      25.62673989      34.03713125      -0.05702849      -0.08862267      -0.03391401      -3.53279591
Cl      17.97373581      24.88406758      37.71419629      -0.09135107       0.07485002       0.05401138      -3.52646351
Cl      58.03955073      57.01800387      26.79739529       0.01718785       0.00744950      -0.01914235      -3.48180389
Cl       7.83037433      58.51251127      22.68782168      -0.02885851       0.03539891       0.05829722      -3.51605272
Cl      17.39382068      22.76466680      27.47295252      -0.04244496       0.02267554      -0.01130840      -3.58638191
Cl      12.59340797      33.86660389      16.77021120       0.06337349       0.01942301      -0.01782887      -3.51169491
Cl      22.35884345      47.88065699      21.80094562      -0.02853752      -0.01631878       0.04522182      -3.49152970
Cl       6.85831193      37.28612533      27.87832045      -0.00891304      -0.03503886      -0.03341872      -3.60686493
Cl      52.31679669      47.16686519      25.58385520       0.13574183       0.02915025       0.09229787      -3.58798528
Cl      26.37489459      31.02748233      54.69311126       0.01978029      -0.02714501      -0.00868152      -3.46430373
Cl      47.07793408      14.51591297       1.62971797       0.02087685       0.09748940      -0.02244376      -3.43896246
Cl      16.97098550       4.72172793      31.03815517       0.00286174       0.13601184      -0.01348814      -3.49981380
Cl      57.45538600      49.62385805      27.22784946      -0.04643950      -0.04320009       0.01516014      -3.54388285
Cl      21.86783119      35.58774856      32.37559386      -0.02221642      -0.00530914       0.01987711      -3.45018482
Cl       4.93712940      34.24079995      25.38506003       0.01753717      -0.02373365      -0.08903717      -3.35208797
Cl      53.00094952       2.92872713      47.37484867       0.02174105       0.03677772      -0.01380538      -3.47890687
Cl      21.81239635      44.00869975      58.04322889      -0.03825790      -0.01052289      -0.04234398      -3.56585169
Cl      48.57207712      16.04313281      54.67731748       0.01858947      -0.05842700       0.05442755      -3.57329178
Cl      31.11793947       5.74885358      52.85756272       0.01317284       0.00819287      -0.00844054      -3.50872874
Cl      11.62413756      55.96053409      23.06783154      -0.01814312      -0.03951719      -0.01241489      -3.54481006
Cl      27.90085941      43.17473246      30.34076264      -0.02425697       0.02293034       0.00567838      -3.37198472
Cl      39.11290827      20.51829632      57.69078297       0.03335396      -0.02090092       0.03171626      -3.58069897
Cl      58.27782484      42.51103256      49.35362841       0.00783259      -0.03857249       0.04166328      -3.55600119
Cl       9.26297081      39.05564281       1.40557508      -0.02253278      -0.00571897      -0.05791327      -3.38100314
Cl      28.39274883      22.99263070      16.09723366      -0.03195425       0.08063886       0.05153426      -3.50392795
Cl      13.73149403      24.25387983       5.05941559      -0.02971527      -0.02081888       0.06126450      -3.42129779
Cl      51.08994314      25.42378710      35.03065723      -0.06408863       0.06237082      -0.05088789      -3.47125363
Cl      39.28495869      27.68733430      41.17242259       0.00263119      -0.02204341      -0.02117767      -3.52582741
Cl      15.97297274      45.98611939      42.32867286      -0.03236099      -0.01762710       0.02590940      -3.46063995
Cl      54.70019014      26.98360879      18.19355314      -0.03447215       0.05332963      -0.04881752      -3.45600748
Cl      36.16273544      14.43360707      47.68445653       0.02607468       0.00162011       0.03742955      -3.58036351
Na       5.22296016      38.48474171      19.33341004       0.04212948      -0.01388126      -0.01321239      -3.22208595
Na      23.62619347      10.17177745      42.61249334      -0.00356165       0.00950707      -0.03653915      -3.34633851
Na      35.96202569      16.98391907      53.03560333      -0.05542743      -0.01902437       0.07114680      -3.33261991
Na      12.88820012       9.79856743      36.81330132      -0.02508387       0.01128539       0.01788214      -3.10017157
Na      38.08522263       0.81013940      31.11397329      -0.01845943       0.02570861      -0.00432549      -3.23844504
Na      28.19502808      40.08356079      29.02454182      -0.00441703      -0.01712624       0.05393618      -3.28085303
Na      44.70336725      50.88036117      25.76038243       0.07707235      -0.00757283      -0.00983340      -3.25330257
Na      14.23812896      19.31906200       7.64605147       0.06332625       0.02148103       0.00033644      -3.29521441
Na      36.22875300      22.94024606      15.98312132       0.03619535      -0.00838422      -0.04424388      -3.38134694
Na      48.84279930      42.72644973      14.63700539      -0.01691726      -0.01610313      -0.01673944      -3.18680167
Na      18.18087563      57.64178475      10.21112731       0.03494322      -0.02767701      -0.06609534      -3.12873483
Na      48.34117969      19.98483306      51.74199190       0.08168849      -0.01661870      -0.04156581      -3.30020022
Na      48.98774871      10.10813745      42.30990219       0.00551700      -0.01259083      -0.05055327      -3.31488442
Na      35.38753551      27.85093898       6.17241328      -0.08751729       0.07050396       0.08352223      -3.21136832
Na      13.21560676      50.68833968      33.32576135       0.02766860       0.05416776       0.02082385      -3.42169905
Na      26.91217182      40.85711993      25.59138953       0.00769183      -0.03888530       0.02121944      -3.32639837
Na      23.12578228      35.45326736      34.81360264      -0.00900369      -0.09756880      -0.03202857      -3.39683318
Na       0.84297354      15.52927638      21.09752063      -0.00486325      -0.01641053      -0.00414499      -3.29213738
Na      27.50247232      29.36724024      32.91805317      -0.01033422      -0.02491601      -0.00660347      -3.31325912
Na      22.46245217      31.92445965      28.09974843      -0.00687244      -0.01287466       0.04319426      -3.26384807
Na      31.29333754      23.00222147      50.69432077       0.03871525      -0.08044466       0.06850357      -3.26194310
Na      41.51924377      50.41849139      14.92501841       0.05123944       0.05361412      -0.00266711      -3.22338676
Na      45.00733219      57.79029341      14.45760665       0.03129540      -0.03726257      -0.00955541      -3.49193478
Na      37.21639992       6.00901208      40.74060895      -0.01876905      -0.02924654       0.02320842      -3.32216501
Na      47.46043538      40.22022490      16.79341657       0.02273833       0.01548771      -0.02632210      -3.22944832
Na      38.67493444      34.31144588      16.51173120       0.03185558       0.07004299      -0.01816174      -3.41883230
Na      18.61054874       2.74800613      27.70354707       0.04003512      -0.11179408       0.09603526      -3.17118979
Na      55.53300764      36.63402426      55.61016858       0.00163375       0.02196429      -0.05145196      -3.14315772
Na      31.02329857      22.11560570       0.99868350      -0.06684393       0.07333294       0.01891495      -3.34517837
Na      19.34689430      34.83556936       3.34042277      -0.00487971      -0.06377567      -0.05718195      -3.31457376
Na      26.30965643      18.03068108       4.54063476       0.05104131      -0.02874191      -0.00195755      -3.40151501
Na      25.97998365      24.24679452      47.09114846      -0.03862504      -0.00341965      -0.00034146      -3.36448526
Na      54.24782179      14.49822688      53.33363234       0.01292051      -0.00870623      -0.01743385      -3.29663515
Na      49.99357099      24.38283021      23.01549734      -0.05631059       0.02575934      -0.00059468      -3.26290369
Na      25.66888471      18.40560844      27.07891067       0.04035816      -0.01639046       0.02384366      -3.30690765
Na      29.41474865      40.79843442      47.26756109       0.05375984      -0.06686760       0.06670022      -3.29147339
Na      10.05214656      48.02403019      52.57351911       0.04315376       0.00848919       0.01300146      -3.34686327
Na      34.10556933      20.86710244      42.42416346      -0.06815697       0.00337791       0.03361956      -3.21867490
Na      44.08048770      17.91415696      44.92281877      -0.07087985      -0.03274693      -0.00049811      -3.25728512
Na      46.49876976      47.14014598      53.80407939       0.03964314       0.01182941       0.10226938      -3.16001058
Na      45.78157236      41.34380260       6.79737323       0.02143630      -0.02759695      -0.00455864      -3.20322704
Na      52.04717178      11.69879339      17.70752482      -0.03373577       0.00276934       0.01235769      -3.35298824
Na      26.21044732      43.82698680      28.17593331       0.03976941       0.01542052      -0.02090304      -3.34509516
Na      16.81783508      54.15112600      25.52897542      -0.09501606       0.01425064       0.08071593      -3.20653224
Na      52.42278167       1.67430950      49.69595691      -0.04924899       0.02973380      -0.02838164      -3.36724830
Na      58.17669945      30.31359197      11.08318181       0.00594514       0.02939375      -0.01050678      -3.27483773
Na      51.29429565      13.48827241      40.94763902      -0.00029347       0.00568779      -0.04272814      -3.17203212
Na      30.98668193      48.09042356      48.28413691      -0.03306087      -0.01405085      -0.08139937      -3.19239688
Na      34.05610157      16.07893976      17.70385694      -0.02801494       0.03798203       0.10845520      -3.10434318
Na      40.34214453      56.90080111       6.06572512       0.06993269      -0.03422845      -0.03567287      -3.17827487
Cl      33.38359822      18.24533125       5.39092329       0.03228656      -0.01773670      -0.19538577      -3.39880610
Cl      -0.18307752       9.32801432       9.74115388      -0.02696127      -0.07449624       0.07253237      -3.47208047
Cl      30.02019384       6.31682543      34.85613310       0.03392596      -0.01838257      -0.02507299      -3.53671575
Cl       6.73899772      25.60172743      25.57844806      -0.02318961       0.02257432      -0.03148600      -3.31268597
Cl      33.37477117       8.13149977      16.95034820       0.01772610       0.06798771       0.01250480      -3.56859374
Cl      44.31012777       2.24180934       8.75795444       0.06205934       0.01185501      -0.02211374      -3.56248450
Cl      30.56004529      25.85247375      44.79901472      -0.00962018       0.00396582       0.01024206      -3.49645853
Cl      58.41490672       2.28905902      33.52181513      -0.01357492      -0.02861736       0.00774336      -3.52297044
Cl      49.30750872       7.46867599      35.92894042      -0.01947822       0.08612770       0.04854517      -3.47887707
Cl      24.68024900       6.54928841      24.50408306      -0.09895448       0.05623849      -0.02734110      -3.35641861
Cl      26.28198904      24.37492348      42.09823604       0.03717520      -0.01008612       0.03222336      -3.63277864
Cl      39.85119289      51.12708633       4.12894783      -0.01429377      -0.02857956      -0.05584481      -3.28428888
Cl      20.40415961      33.28147947      -0.04666064      -0.05335458       0.01592741      -0.01417351      -3.44021869
Cl      49.84661146      55.05692691      44.88391463      -0.01260310      -0.01374980      -0.05639691      -3.61602592
Cl      10.32446991       2.12416732      -0.07176217      -0.01457276      -0.02435539       0.01662848      -3.50028515
Cl      41.02711208      34.14170659      36.01802511       0.05450885       0.01124107       0.00220093      -3.37335157
Cl      18.10846334      41.57168222      41.72025762      -0.03442009       0.01196065      -0.00833141      -3.58151865
Cl      40.42635944      30.25570617      20.55872772       0.02022850      -0.01930453       0.02505896      -3.48248768
Cl      47.00789053      43.50430824      22.27673730       0.11852394       0.00572371      -0.10444181      -3.42256570
Cl      17.80651948      40.25860676      48.66899841      -0.05703177      -0.08862107      -0.03390875      -3.53279614
Cl      17.97373604      39.51593429      52.34606303      -0.09135246       0.07485177       0.05401218      -3.52646351
Cl      58.03955070      13.12240226      41.42926230       0.01718831       0.00745087      -0.01914503      -3.48180318
Cl       7.83037412      14.61690923      37.31968895      -0.02885912       0.03540086       0.05829554      -3.51605368
Cl      17.39382078      37.39653355      42.10481952      -0.04244926       0.02267862      -0.01131026      -3.58638239
Cl      12.59340797      48.49847083      31.40207825       0.06337416       0.01942480      -0.01783226      -3.51169538
Cl      22.35884360       3.98505574      36.43281270      -0.02853750      -0.01631849       0.04522084      -3.49152851
Cl       6.85831185      51.91799246      42.51018752      -0.00891244      -0.03503874      -0.03342248      -3.60686445
Cl      52.31679686       3.27126423      40.21572246       0.13574211       0.02915076       0.09229511      -3.58798456
Cl      26.37489466      45.65934909      10.79751015       0.01978003      -0.02714160      -0.00867825      -3.46430230
Cl      47.07793409      29.14778001      16.26158535       0.02087779       0.09749161      -0.02243966      -3.43896246
Cl      16.97098538      19.35359521      45.67002212       0.00286134       0.13601127      -0.01348775      -3.49981332
Cl      57.45538594       5.72825695      41.85971664      -0.04643660      -0.04319875       0.01515697      -3.54388404
Cl      21.86783146      50.21961560      47.00746095      -0.02222221      -0.00530878       0.01987825      -3.45018601
Cl       4.93712946      48.87266710      40.01692748       0.01753877      -0.02373367      -0.08903804      -3.35208845
Cl      53.00094986      17.56059417       3.47924709       0.02174189       0.03677872      -0.01381126      -3.47890687
Cl      21.81239597      58.64056754      14.14762698      -0.03824998      -0.01051642      -0.04234573      -3.56585336
Cl      48.57207734      30.67499963      10.78171651       0.01858962      -0.05842365       0.05443069      -3.57329035
Cl      31.11793949      20.38072065       8.96196158       0.01317512       0.00819445      -0.00844029      -3.50872874
Cl      11.62413749      12.06493242      37.69969860      -0.01814470      -0.03951705      -0.01241798      -3.54481173
Cl      27.90085947      57.80659978      44.97262958      -0.02425697       0.02293110       0.00567902      -3.37198520
Cl      39.11290839      35.15016351      13.79518116       0.03335275      -0.02089748       0.03171967      -3.58069992
Cl      58.27782499      57.14290037       5.45802694       0.00783600      -0.03857017       0.04166549      -3.55600166
Cl       9.26297067      53.68751007      16.03744269      -0.02253457      -0.00572517      -0.05791622      -3.38100266
Cl      28.39274885      37.62449781      30.72910058      -0.03195678       0.08063845       0.05153221      -3.50392842
Cl      13.73149418      38.88574659      19.69128285      -0.02971429      -0.02081699       0.06126516      -3.42129707
Cl      51.08994312      40.05565431      49.66252437      -0.06408896       0.06237410      -0.05088534      -3.47125363
Cl      39.28495882      42.31920155      55.80428988       0.00263127      -0.02204585      -0.02117511      -3.52582884
Cl      15.97297264       2.09051796      56.96054113      -0.03235989      -0.01762848       0.02591258      -3.46064019
Cl      54.70019036      41.61547592      32.82542031      -0.03447311       0.05333144      -0.04881775      -3.45600867
Cl      36.16273536      29.06547404       3.78885521       0.02607586       0.00162169       0.03742586      -3.58036423
Na       5.22296022      38.48474165      33.96527715       0.04212881      -0.01388007      -0.01321516      -3.22208571
Na      23.62619370      10.17177722      57.24436152      -0.00356092       0.00950748      -0.03654452      -3.34633780
Na      35.96202576      16.98391909       9.14000183      -0.05542798      -0.01902551       0.07114416      -3.33262014
Na      12.88820010       9.79856757      51.44516888      -0.02508287       0.01128761       0.01788576      -3.10017133
Na      38.08522264       0.81013955      45.74584018      -0.01845920       0.02570742      -0.00432855      -3.23844624
Na      28.19502788      40.08356081      43.65640861      -0.00441748      -0.01712516       0.05393688      -3.28085351
Na      44.70336728      50.88036110      40.39224919       0.07707177      -0.00757224      -0.00983286      -3.25330234
Na      14.23812895      19.31906202      22.27791838       0.06332687       0.02147997       0.00033767      -3.29521465
Na      36.22875306      22.94024608      30.61498831       0.03619533      -0.00838556      -0.04424307      -3.38134694
Na      48.84279924      42.72644964      29.26887235      -0.01691601      -0.01610293      -0.01674086      -3.18680167
Na      18.18087566      57.64178469      24.84299435       0.03494335      -0.02767572      -0.06609865      -3.12873459
Na      48.34117947      19.98483280       7.84639077       0.08168890      -0.01662048      -0.04156429      -3.30019951
Na      48.98774853      10.10813771      56.94176962       0.00551616      -0.01259250      -0.05055377      -3.31488442
Na      35.38753538      27.85093893      20.80428038      -0.08751772       0.07050445       0.08352142      -3.21136832
Na      13.21560681      50.68833975      47.95762838       0.02766644       0.05416770       0.02081974      -3.42169929
Na      26.91217172      40.85711983      40.22325651       0.00769383      -0.03888418       0.02122391      -3.32639837
Na      23.12578225      35.45326731      49.44546960      -0.00900324      -0.09756891      -0.03202837      -3.39683342
Na       0.84297351      15.52927630      35.72938769      -0.00486339      -0.01641113      -0.00414994      -3.29213738
Na      27.50247235      29.36724031      47.54992018      -0.01033340      -0.02491616      -0.00660222      -3.31325912
Na      22.46245235      31.92445971      42.73161502      -0.00687341      -0.01287673       0.04320044      -3.26384878
Na      31.29333756      23.00222149       6.79871969       0.03871522      -0.08044346       0.06850476      -3.26194406
Na      41.51924399      50.41849145      29.55688531       0.05124016       0.05361531      -0.00266619      -3.22338676
Na      45.00733210      57.79029339      29.08947362       0.03129536      -0.03726233      -0.00955469      -3.49193478
Na      37.21640011       6.00901194      55.37247627      -0.01877251      -0.02924607       0.02321278      -3.32216501
Na      47.46043524      40.22022497      31.42528361       0.02273749       0.01548662      -0.02631830      -3.22944832
Na      38.67493438      34.31144574      31.14359841       0.03185469       0.07004331      -0.01816031      -3.41883302
Na      18.61054872       2.74800607      42.33541399       0.04003384      -0.11179474       0.09603413      -3.17119026
Na      55.53300795      36.63402411      11.71456689       0.00162735       0.02196246      -0.05145930      -3.14315844
Na      31.02329836      22.11560590      15.63055067      -0.06684418       0.07333317       0.01891468      -3.34517860
Na      19.34689438      34.83556907      17.97228959      -0.00487974      -0.06377542      -0.05718205      -3.31457376
Na      26.30965639      18.03068113      19.17250185       0.05104135      -0.02874261      -0.00195881      -3.40151477
Na      25.97998365      24.24679453       3.19554695      -0.03862526      -0.00342003      -0.00034045      -3.36448526
Na      54.24782186      14.49822686       9.43803105       0.01292072      -0.00870467      -0.01743245      -3.29663563
Na      49.99357092      24.38283021      37.64736423      -0.05631090       0.02575983      -0.00059545      -3.26290393
Na      25.66888471      18.40560840      41.71077758       0.04035728      -0.01639185       0.02384615      -3.30690742
Na      29.41474858      40.79843415       3.37195960       0.05375842      -0.06686601       0.06670619      -3.29147291
Na      10.05214652      48.02403028       8.67791770       0.04315365       0.00848910       0.01300666      -3.34686399
Na      34.10556930      20.86710276      57.05603072      -0.06815755       0.00337436       0.03361910      -3.21867442
Na      44.08048787      17.91415643       1.02721758      -0.07087824      -0.03274585      -0.00049761      -3.25728440
Na      46.49876944      47.14014618       9.90847829       0.03964278       0.01182806       0.10227072      -3.16001153
Na      45.78157257      41.34380268      21.42924057       0.02143509      -0.02759672      -0.00455834      -3.20322776
Na      52.04717182      11.69879330      32.33939162      -0.03373528       0.00276988       0.01235982      -3.35298777
Na      26.21044738      43.82698658      42.80780024       0.03976984       0.01542222      -0.02090079      -3.34509635
Na      16.81783510      54.15112607      40.16084237      -0.09501623       0.01425130       0.08071412      -3.20653248
Na      52.42278177       1.67430959       5.80035549      -0.04925012       0.02973335      -0.02838030      -3.36724830
Na      58.17669956      30.31359191      25.71504880       0.00594515       0.02939791      -0.01051051      -3.27483797
Na      51.29429574      13.48827235      55.57950661      -0.00029446       0.00568774      -0.04272736      -3.17203188
Na      30.98668180      48.09042337       4.38853586      -0.03306225      -0.01404996      -0.08139603      -3.19239616
Na      34.05610167      16.07893977      32.33572410      -0.02801550       0.03798240       0.10845534      -3.10434270
Na      40.34214445      56.90080124      20.69759240       0.06993247      -0.03422845      -0.03566987      -3.17827439
Cl      33.38359829      18.24533120      20.02279032       0.03228605      -0.01773581      -0.19538595      -3.39880610
Cl      -0.18307751       9.32801433      24.37302096      -0.02696097      -0.07449605       0.07253321      -3.47208071
Cl      30.02019402       6.31682548      49.48800041       0.03392798      -0.01838286      -0.02507034      -3.53671694
Cl       6.73899757      25.60172743      40.21031498      -0.02318824       0.02257422      -0.03148780      -3.31268740
Cl      33.37477120       8.13149980      31.58221516       0.01772648       0.06798810       0.01250504      -3.56859374
Cl      44.31012773       2.24180936      23.38982151       0.06205934       0.01185407      -0.02211365      -3.56248403
Cl      30.56004500      25.85247391       0.90341320      -0.00962149       0.00396541       0.01024386      -3.49645782
Cl      58.41490670       2.28905898      48.15368202      -0.01357350      -0.02861703       0.00774493      -3.52296972
Cl      49.30750869       7.46867578      50.56080734      -0.01947764       0.08612981       0.04854468      -3.47887707
Cl      24.68024920       6.54928841      39.13594974      -0.09895086       0.05624043      -0.02733333      -3.35641742
Cl      26.28198910      24.37492363      56.73010354       0.03716894      -0.01008747       0.03222711      -3.63277864
Cl      39.85119317      51.12708602      18.76081484      -0.01429429      -0.02858065      -0.05584393      -3.28428936
Cl      20.40415951      33.28147905      14.58520811      -0.05335325       0.01592583      -0.01417346      -3.44021893
Cl      49.84661148      55.05692665       0.98831325      -0.01260151      -0.01375142      -0.05639689      -3.61602640
Cl      10.32447003       2.12416704      14.56010594      -0.01457320      -0.02435426       0.01662776      -3.50028634
Cl      41.02711206      34.14170671      50.64989210       0.05450607       0.01124159       0.00220569      -3.37335157
Cl      18.10846345      41.57168252      56.35212524      -0.03442016       0.01196302      -0.00833866      -3.58151650
Cl      40.42635945      30.25570631      35.19059463       0.02022764      -0.01930577       0.02506111      -3.48248839
Cl      47.00789065      43.50430808      36.90860478       0.11852296       0.00572465      -0.10444163      -3.42256618
Cl      17.80651964      40.25860692       4.77339734      -0.05703439      -0.08861868      -0.03390850      -3.53279662
Cl      17.97373586      39.51593436       8.45046206      -0.09135193       0.07485224       0.05400890      -3.52646255
Cl      58.03955069      13.12240218      56.06113015       0.01718879       0.00745298      -0.01914119      -3.48180437
Cl       7.83037422      14.61690936      51.95155561      -0.02885925       0.03540113       0.05829797      -3.51605392
Cl      17.39382099      37.39653383      56.73668705      -0.04244878       0.02267748      -0.01130917      -3.58638287
Cl      12.59340794      48.49847083      46.03394512       0.06337421       0.01942690      -0.01783544      -3.51169443
Cl      22.35884367       3.98505579      51.06467989      -0.02853543      -0.01631868       0.04522452      -3.49152827
Cl       6.85831182      51.91799291      57.14205562      -0.00891225      -0.03503818      -0.03342163      -3.60686469
Cl      52.31679667       3.27126420      54.84758981       0.13573934       0.02915120       0.09228911      -3.58798528
Cl      26.37489464      45.65934905      25.42937697       0.01978004      -0.02714024      -0.00867717      -3.46430230
Cl      47.07793406      29.14778008      30.89345243       0.02087775       0.09749175      -0.02243815      -3.43896317
Cl      16.97098559      19.35359509       1.77442114       0.00286087       0.13601093      -0.01348968      -3.49981332
Cl      57.45538594       5.72825713      56.49158356      -0.04643618      -0.04319803       0.01515843      -3.54388237
Cl      21.86783143      50.21961561       3.11185915      -0.02222038      -0.00530856       0.01987951      -3.45018554
Cl       4.93712940      48.87266716      54.64879400       0.01753895      -0.02373315      -0.08903781      -3.35208893
Cl      53.00094973      17.56059437      18.11111470       0.02174193       0.03677925      -0.01381099      -3.47890735
Cl      21.81239599      58.64056763      28.77949386      -0.03825041      -0.01051646      -0.04234479      -3.56585383
Cl      48.57207718      30.67499945      25.41358365       0.01859080      -0.05842417       0.05443038      -3.57329178
Cl      31.11793953      20.38072064      23.59382866       0.01317475       0.00819411      -0.00843963      -3.50872874
Cl      11.62413736      12.06493273      52.33156535      -0.01814153      -0.03951988      -0.01241065      -3.54481030
Cl      27.90085948      57.80660003       1.07702810      -0.02425783       0.02293072       0.00568123      -3.37198448
Cl      39.11290835      35.15016352      28.42704823       0.03335269      -0.02089765       0.03172027      -3.58070016
Cl      58.27782497      57.14290029      20.08989434       0.00783481      -0.03857098       0.04166386      -3.55600238
Cl       9.26297065      53.68750991      30.66930943      -0.02253314      -0.00572548      -0.05791445      -3.38100338
Cl      28.39274879      37.62449775      45.36096766      -0.03195375       0.08063918       0.05153103      -3.50392747
Cl      13.73149410      38.88574664      34.32314997      -0.02971358      -0.02081635       0.06126155      -3.42129636
Cl      51.08994310      40.05565420       5.76692314      -0.06408911       0.06237387      -0.05088574      -3.47125411
Cl      39.28495875      42.31920136      11.90868852       0.00263209      -0.02204574      -0.02117351      -3.52582860
Cl      15.97297260       2.09051806      13.06493904      -0.03236041      -0.01762858       0.02591230      -3.46063995
Cl      54.70019029      41.61547592      47.45728707      -0.03447128       0.05333114      -0.04881591      -3.45600843
Cl      36.16273534      29.06547399      18.42072275       0.02607560       0.00162223       0.03742622      -3.58036351
Na       5.22296021      38.48474172      48.59714404       0.04212884      -0.01388040      -0.01321512      -3.22208548
Na      23.62619345      10.17177739      13.34875958      -0.00356057       0.00950688      -0.03654412      -3.34633756
Na      35.96202561      16.98391907      23.77186913      -0.05542845      -0.01902597       0.07114235      -3.33262014
Na      12.88820006       9.79856743       7.54956723      -0.02508326       0.01128646       0.01788326      -3.10017133
Na      38.08522241       0.81013982       1.85023854      -0.01845910       0.02570888      -0.00432566      -3.23844528
Na      28.19502820      40.08356069      58.28827669      -0.00441738      -0.01712600       0.05393724      -3.28085303
Na      44.70336728      50.88036133      55.02411690       0.07707261      -0.00757213      -0.00983260      -3.25330305
Na      14.23812889      19.31906190      36.90978548       0.06332500       0.02148141       0.00033380      -3.29521465
Na      36.22875293      22.94024613      45.24685536       0.03619549      -0.00838265      -0.04424680      -3.38134766
Na      48.84279908      42.72644959      43.90073946      -0.01691572      -0.01610207      -0.01673716      -3.18680215
Na      18.18087567      57.64178462      39.47486135       0.03494323      -0.02767545      -0.06609756      -3.12873459
Na      48.34117956      19.98483288      22.47825785       0.08168882      -0.01661996      -0.04156514      -3.30019927
Na      48.98774864      10.10813748      13.04616813       0.00551575      -0.01258977      -0.05055472      -3.31488442
Na      35.38753538      27.85093892      35.43614729      -0.08751716       0.07050074       0.08352377      -3.21136832
Na      13.21560671      50.68833973       4.06202714       0.02766825       0.05416747       0.02082295      -3.42169905
Na      26.91217180      40.85711994      54.85512404       0.00769210      -0.03888341       0.02121256      -3.32639813
Na      23.12578235      35.45326727       5.54986844      -0.00900441      -0.09756873      -0.03202921      -3.39683342
Na       0.84297359      15.52927652      50.36125504      -0.00486332      -0.01640991      -0.00414669      -3.29213762
Na      27.50247222      29.36724022       3.65431896      -0.01033404      -0.02491621      -0.00660525      -3.31325912
Na      22.46245224      31.92445986      57.36348284      -0.00687295      -0.01287498       0.04319716      -3.26384878
Na      31.29333755      23.00222163      21.43058665       0.03871637      -0.08044231       0.06850506      -3.26194334
Na      41.51924392      50.41849144      44.18875239       0.05123898       0.05361320      -0.00266290      -3.22338700
Na      45.00733217      57.79029341      43.72134075       0.03129464      -0.03726333      -0.00955407      -3.49193478
Na      37.21639997       6.00901212      11.47687473      -0.01877049      -0.02924692       0.02320985      -3.32216525
Na      47.46043539      40.22022495      46.05715068       0.02273954       0.01548781      -0.02632412      -3.22944927
Na      38.67493448      34.31144587      45.77546527       0.03185641       0.07004559      -0.01816372      -3.41883230
Na      18.61054861       2.74800602      56.96728114       0.04003485      -0.11179401       0.09603505      -3.17118883
Na      55.53300788      36.63402392      26.34643389       0.00163302       0.02196574      -0.05145323      -3.14315724
Na      31.02329833      22.11560590      30.26241763      -0.06684373       0.07333325       0.01891501      -3.34517837
Na      19.34689444      34.83556912      32.60415651      -0.00488322      -0.06377620      -0.05718166      -3.31457376
Na      26.30965625      18.03068100      33.80436889       0.05104170      -0.02874131      -0.00195324      -3.40151525
Na      25.97998367      24.24679461      17.82741436      -0.03862457      -0.00342018      -0.00034006      -3.36448526
Na      54.24782190      14.49822691      24.06989820       0.01292083      -0.00870560      -0.01743399      -3.29663563
Na      49.99357099      24.38283020      52.27923129      -0.05631112       0.02575864      -0.00059544      -3.26290369
Na      25.66888484      18.40560828      56.34264506       0.04035728      -0.01638997       0.02384824      -3.30690765
Na      29.41474867      40.79843411      18.00382674       0.05375824      -0.06686523       0.06670842      -3.29147291
Na      10.05214655      48.02403041      23.30978482       0.04315267       0.00848886       0.01300830      -3.34686446
Na      34.10556927      20.86710247      13.16042979      -0.06815776       0.00337746       0.03361955      -3.21867442
Na      44.08048768      17.91415693      15.65908482      -0.07087948      -0.03274793      -0.00049917      -3.25728393
Na      46.49876971      47.14014616      24.54034547       0.03964246       0.01182834       0.10226960      -3.16001153
Na      45.78157245      41.34380280      36.06110751       0.02143504      -0.02759739      -0.00455926      -3.20322776
Na      52.04717154      11.69879343      46.97125887      -0.03373551       0.00276987       0.01235630      -3.35298800
Na      26.21044693      43.82698683      57.43966793       0.03976998       0.01542281      -0.02089992      -3.34509587
Na      16.81783531      54.15112599      54.79270957      -0.09501603       0.01425008       0.08071448      -3.20653224
Na      52.42278169       1.67430951      20.43222273      -0.04925047       0.02973261      -0.02837850      -3.36724949
Na      58.17669958      30.31359195      40.34691571       0.00594547       0.02939786      -0.01050884      -3.27483773
Na      51.29429565      13.48827243      11.68390510      -0.00029479       0.00568761      -0.04272765      -3.17203188
Na      30.98668194      48.09042349      19.02040275      -0.03306687      -0.01405030      -0.08139582      -3.19239569
Na      34.05610161      16.07893969      46.96759102      -0.02801508       0.03798134       0.10845484      -3.10434341
Na      40.34214432      56.90080122      35.32945911       0.06993279      -0.03422988      -0.03567582      -3.17827415
Cl      33.38359843      18.24533119      34.65465743       0.03228613      -0.01773591      -0.19538701      -3.39880538
Cl      -0.18307750       9.32801447      39.00488792      -0.02695983      -0.07449666       0.07253414      -3.47208023
Cl      30.02019369       6.31682556       5.59239886       0.03392637      -0.01838420      -0.02507356      -3.53671694
Cl       6.73899746      25.60172735      54.84218235      -0.02318834       0.02257487      -0.03148814      -3.31268644
Cl      33.37477118       8.13149979      46.21408212       0.01772678       0.06798798       0.01250609      -3.56859326
Cl      44.31012782       2.24180927      38.02168831       0.06205779       0.01185519      -0.02210595      -3.56248546
Cl      30.56004532      25.85247375      15.53528060      -0.00962085       0.00396506       0.01024472      -3.49645829
Cl      58.41490663       2.28905894       4.25808086      -0.01357479      -0.02861741       0.00774419      -3.52297091
Cl      49.30750873       7.46867589       6.66520624      -0.01947746       0.08613162       0.04854127      -3.47887731
Cl      24.68024919       6.54928829      53.76781725      -0.09895320       0.05623687      -0.02734229      -3.35641956
Cl      26.28198899      24.37492334      12.83450206       0.03717360      -0.01008718       0.03222407      -3.63277793
Cl      39.85119299      51.12708613      33.39268169      -0.01429431      -0.02858021      -0.05584485      -3.28428888
Cl      20.40415943      33.28147898      29.21707514      -0.05335175       0.01592675      -0.01417324      -3.44021988
Cl      49.84661140      55.05692676      15.62018075      -0.01260187      -0.01375083      -0.05639726      -3.61602640
Cl      10.32447011       2.12416708      29.19197293      -0.01457578      -0.02435423       0.01663016      -3.50028610
Cl      41.02711201      34.14170658       6.75429092       0.05450708       0.01123987       0.00219839      -3.37335086
Cl      18.10846333      41.57168216      12.45652366      -0.03441907       0.01196289      -0.00833259      -3.58151817
Cl      40.42635951      30.25570607      49.82246169       0.02022782      -0.01930528       0.02506034      -3.48248792
Cl      47.00789045      43.50430810      51.54047132       0.11852450       0.00572409      -0.10444087      -3.42256618
Cl      17.80651961      40.25860686      19.40526453      -0.05703573      -0.08861804      -0.03390498      -3.53279614
Cl      17.97373591      39.51593437      23.08232910      -0.09135269       0.07485189       0.05401015      -3.52646208
Cl      58.03955069      13.12240223      12.16552840       0.01718882       0.00745063      -0.01914199      -3.48180318
Cl       7.83037411      14.61690927       8.05595457      -0.02885970       0.03540094       0.05829776      -3.51605272
Cl      17.39382070      37.39653350      12.84108552      -0.04244538       0.02267786      -0.01130836      -3.58638167
Cl      12.59340786      48.49847079       2.13834388       0.06337376       0.01942401      -0.01783103      -3.51169491
Cl      22.35884364       3.98505569       7.16907849      -0.02853738      -0.01631808       0.04521999      -3.49152803
Cl       6.85831188      51.91799237      13.24645351      -0.00891208      -0.03503758      -0.03341942      -3.60686541
Cl      52.31679684       3.27126425      10.95198830       0.13574052       0.02915011       0.09229511      -3.58798456
Cl      26.37489471      45.65934911      40.06124416       0.01977761      -0.02714345      -0.00868122      -3.46430230
Cl      47.07793406      29.14778003      45.52531945       0.02087904       0.09749177      -0.02243932      -3.43896198
Cl      16.97098548      19.35359526      16.40628816       0.00286197       0.13601159      -0.01348940      -3.49981380
Cl      57.45538595       5.72825698      12.59598248      -0.04643810      -0.04319839       0.01516006      -3.54388332
Cl      21.86783134      50.21961567      17.74372680      -0.02222038      -0.00530865       0.01987963      -3.45018554
Cl       4.93712942      48.87266706      10.75319299       0.01753821      -0.02373434      -0.08903895      -3.35208774
Cl      53.00094966      17.56059426      32.74298194       0.02174193       0.03677799      -0.01380907      -3.47890687
Cl      21.81239604      58.64056765      43.41136094      -0.03824957      -0.01051624      -0.04234751      -3.56585288
Cl      48.57207727      30.67499973      40.04545081       0.01858949      -0.05842431       0.05442843      -3.57328963
Cl      31.11793945      20.38072072      38.22569579       0.01317312       0.00819344      -0.00844099      -3.50872946
Cl      11.62413746      12.06493252       8.43596439      -0.01814302      -0.03951874      -0.01241441      -3.54481053
Cl      27.90085940      57.80659984      15.70889546      -0.02425724       0.02293146       0.00568034      -3.37198448
Cl      39.11290846      35.15016368      43.05891532       0.03335445      -0.02090286       0.03171922      -3.58069944
Cl      58.27782491      57.14290009      34.72176132       0.00783692      -0.03857042       0.04166678      -3.55600119
Cl       9.26297066      53.68750995      45.30117656      -0.02253449      -0.00572505      -0.05791935      -3.38100123
Cl      28.39274881      37.62449763       1.46536602      -0.03195333       0.08064052       0.05153405      -3.50392771
Cl      13.73149408      38.88574675      48.95501652      -0.02971404      -0.02081766       0.06126566      -3.42129731
Cl      51.08994306      40.05565425      20.39879036      -0.06409010       0.06237379      -0.05088573      -3.47125411
Cl      39.28495854      42.31920132      26.54055546       0.00263233      -0.02204598      -0.02117371      -3.52582884
Cl      15.97297263       2.09051803      27.69680592      -0.03236018      -0.01762829       0.02591287      -3.46063995
Cl      54.70019021      41.61547571       3.56168609      -0.03447268       0.05333101      -0.04881798      -3.45600891
Cl      36.16273539      29.06547405      33.05258958       0.02607542       0.00162201       0.03742589      -3.58036423
Na       5.22296015      38.48474185       4.70154303       0.04212925      -0.01388192      -0.01321225      -3.22208571
Na      23.62619348      10.17177738      27.98062659      -0.00355998       0.00950680      -0.03654557      -3.34633756
Na      35.96202564      16.98391912      38.40373576      -0.05542901      -0.01902542       0.07114500      -3.33261991
Na      12.88820005       9.79856745      22.18143455      -0.02508257       0.01128599       0.01788095      -3.10017133
Na      38.08522267       0.81013957      16.48210621      -0.01845909       0.02570843      -0.00432659      -3.23844504
Na      28.19502812      40.08356081      14.39267487      -0.00441748      -0.01712656       0.05393676      -3.28085303
Na      44.70336737      50.88036103      11.12851523       0.07707279      -0.00757164      -0.00983433      -3.25330257
Na      14.23812896      19.31906199      51.54165221       0.06332637       0.02148104       0.00033561      -3.29521394
Na      36.22875282      22.94024602       1.35125344       0.03619505      -0.00838464      -0.04424477      -3.38134766
Na      48.84279947      42.72644955       0.00513769      -0.01691447      -0.01610053      -0.01673970      -3.18680239
Na      18.18087574      57.64178459      54.10672850       0.03494354      -0.02767545      -0.06609795      -3.12873483
Na      48.34117963      19.98483294      37.11012475       0.08169174      -0.01661488      -0.04156721      -3.30019927
Na      48.98774865      10.10813747      27.67803513       0.00551572      -0.01258992      -0.05055586      -3.31488419
Na      35.38753550      27.85093889      50.06801445      -0.08751655       0.07050234       0.08351943      -3.21136832
Na      13.21560677      50.68833968      18.69389443       0.02766719       0.05416873       0.02082179      -3.42169833
Na      26.91217182      40.85711988      10.95952239       0.00769159      -0.03888547       0.02121798      -3.32639813
Na      23.12578230      35.45326734      20.18173567      -0.00900427      -0.09756887      -0.03202925      -3.39683366
Na       0.84297334      15.52927629       6.46565362      -0.00486382      -0.01640874      -0.00414463      -3.29213667
Na      27.50247234      29.36724032      18.28618628      -0.01033394      -0.02491618      -0.00660425      -3.31325889
Na      22.46245214      31.92445973      13.46788133      -0.00687297      -0.01287490       0.04319615      -3.26384854
Na      31.29333768      23.00222171      36.06245375       0.03871470      -0.08044404       0.06850447      -3.26194453
Na      41.51924426      50.41849129       0.29315059       0.05123937       0.05361439      -0.00266924      -3.22338676
Na      45.00733204      57.79029332      58.35320832       0.03129646      -0.03726266      -0.00955302      -3.49193478
Na      37.21640002       6.00901207      26.10874170      -0.01877086      -0.02924706       0.02320936      -3.32216477
Na      47.46043531      40.22022497       2.16154906       0.02273826       0.01548732      -0.02631999      -3.22944903
Na      38.67493441      34.31144553       1.87986368       0.03185469       0.07004292      -0.01816023      -3.41883302
Na      18.61054874       2.74800619      13.07168010       0.04003480      -0.11179465       0.09603386      -3.17118979
Na      55.53300781      36.63402411      40.97830100       0.00163016       0.02195936      -0.05145827      -3.14315748
Na      31.02329834      22.11560587      44.89428468      -0.06684399       0.07333294       0.01891535      -3.34517956
Na      19.34689437      34.83556909      47.23602365      -0.00488068      -0.06377531      -0.05718207      -3.31457400
Na      26.30965630      18.03068113      48.43623571       0.05104137      -0.02874402      -0.00196120      -3.40151525
Na      25.97998376      24.24679460      32.45928153      -0.03862499      -0.00341942      -0.00034112      -3.36448503
Na      54.24782173      14.49822676      38.70176489       0.01292098      -0.00870430      -0.01742837      -3.29663539
Na      49.99357099      24.38283024       8.38363032      -0.05631108       0.02575920      -0.00059485      -3.26290393
Na      25.66888474      18.40560838      12.44704365       0.04035820      -0.01639142       0.02384456      -3.30690765
Na      29.41474866      40.79843437      32.63569388       0.05375715      -0.06686658       0.06671033      -3.29147339
Na      10.05214666      48.02403031      37.94165186       0.04315239       0.00848898       0.01300819      -3.34686375
Na      34.10556932      20.86710243      27.79229677      -0.06815755       0.00337709       0.03361898      -3.21867442
Na      44.08048768      17.91415692      30.29095191      -0.07087887      -0.03274761      -0.00049942      -3.25728393
Na      46.49876940      47.14014619      39.17221217       0.03964603       0.01182808       0.10227330      -3.16001034
Na      45.78157253      41.34380277      50.69297483       0.02143653      -0.02759719      -0.00455774      -3.20322728
Na      52.04717178      11.69879325       3.07565732      -0.03373471       0.00276935       0.01235779      -3.35298824
Na      26.21044728      43.82698686      13.54406634       0.03976962       0.01542108      -0.02090295      -3.34509516
Na      16.81783508      54.15112608      10.89710841      -0.09501691       0.01425006       0.08071570      -3.20653248
Na      52.42278184       1.67430966      35.06408927      -0.04924970       0.02973364      -0.02838175      -3.36724830
Na      58.17669963      30.31359188      54.97878319       0.00594524       0.02939584      -0.01050646      -3.27483702
Na      51.29429563      13.48827243      26.31577202      -0.00029476       0.00568761      -0.04272798      -3.17203188
Na      30.98668192      48.09042344      33.65226963      -0.03306058      -0.01405028      -0.08139789      -3.19239640
Na      34.05610121      16.07893941       3.07199008      -0.02801527       0.03798217       0.10845505      -3.10434294
Na      40.34214447      56.90080115      49.96132647       0.06993258      -0.03422937      -0.03567448      -3.17827487
Cl      33.38359811      18.24533121      49.28652424       0.03228597      -0.01773599      -0.19538657      -3.39880514
Cl      -0.18307736       9.32801425      53.63675518      -0.02696276      -0.07449564       0.07252900      -3.47207975
Cl      30.02019383       6.31682554      20.22426607       0.03392671      -0.01838429      -0.02507486      -3.53671694
Cl       6.73899763      25.60172744      10.94658095      -0.02318846       0.02257488      -0.03148736      -3.31268644
Cl      33.37477118       8.13149979       2.31848125       0.01772561       0.06798778       0.01250430      -3.56859374
Cl      44.31012777       2.24180940      52.65355564       0.06205900       0.01185451      -0.02211493      -3.56248450
Cl      30.56004540      25.85247373      30.16714759      -0.00962034       0.00396467       0.01024471      -3.49645901
Cl      58.41490675       2.28905884      18.88994811      -0.01357436      -0.02861764       0.00774448      -3.52297068
Cl      49.30750869       7.46867586      21.29707344      -0.01947721       0.08613090       0.04854193      -3.47887754
Cl      24.68024900       6.54928843       9.87221589      -0.09895334       0.05623856      -0.02733922      -3.35641861
Cl      26.28198895      24.37492340      27.46636906       0.03717429      -0.01008765       0.03222267      -3.63277793
Cl      39.85119319      51.12708606      48.02454877      -0.01429450      -0.02858034      -0.05584312      -3.28428936
Cl      20.40415933      33.28147914      43.84894216      -0.05335167       0.01592640      -0.01417363      -3.44021893
Cl      49.84661141      55.05692678      30.25204780      -0.01260059      -0.01375053      -0.05639756      -3.61602783
Cl      10.32446992       2.12416709      43.82384035      -0.01457374      -0.02435411       0.01662584      -3.50028396
Cl      41.02711203      34.14170665      21.38615805       0.05450619       0.01124063       0.00220039      -3.37335086
Cl      18.10846333      41.57168214      27.08839074      -0.03441852       0.01196160      -0.00833010      -3.58151841
Cl      40.42635942      30.25570613       5.92686046       0.02022887      -0.01930511       0.02505909      -3.48248768
Cl      47.00789051      43.50430832       7.64487027       0.11852264       0.00572307      -0.10444417      -3.42256618
Cl      17.80651948      40.25860675      34.03713132      -0.05703054      -0.08862096      -0.03391383      -3.53279591
Cl      17.97373577      39.51593438      37.71419639      -0.09135181       0.07485208       0.05401188      -3.52646255
Cl      58.03955071      13.12240229      26.79739546       0.01718808       0.00745023      -0.01914117      -3.48180461
Cl       7.83037419      14.61690922      22.68782163      -0.02885963       0.03540111       0.05829794      -3.51605225
Cl      17.39382066      37.39653356      27.47295251      -0.04244480       0.02267758      -0.01130775      -3.58638167
Cl      12.59340785      48.49847090      16.77021109       0.06337388       0.01942438      -0.01782940      -3.51169586
Cl      22.35884365       3.98505573      21.80094564      -0.02853669      -0.01631716       0.04522068      -3.49152803
Cl       6.85831192      51.91799242      27.87832061      -0.00891349      -0.03503755      -0.03341960      -3.60686541
Cl      52.31679687       3.27126425      25.58385525       0.13574083       0.02915085       0.09229900      -3.58798456
Cl      26.37489451      45.65934924      54.69311134       0.01977893      -0.02714100      -0.00868013      -3.46430326
Cl      47.07793399      29.14778001       1.62971783       0.02087736       0.09748971      -0.02244289      -3.43896246
Cl      16.97098546      19.35359523      31.03815508       0.00286184       0.13601147      -0.01348762      -3.49981356
Cl      57.45538590       5.72825698      27.22784941      -0.04643673      -0.04319805       0.01515832      -3.54388285
Cl      21.86783136      50.21961558      32.37559359      -0.02222183      -0.00530762       0.01987644      -3.45018554
Cl       4.93712936      48.87266713      25.38506013       0.01753813      -0.02373347      -0.08903782      -3.35208774
Cl      53.00094975      17.56059445      47.37484859       0.02174101       0.03677830      -0.01380519      -3.47890687
Cl      21.81239607      58.64056750      58.04322861      -0.03825513      -0.01051979      -0.04234469      -3.56585383
Cl      48.57207711      30.67499960      54.67731748       0.01859035      -0.05842471       0.05442808      -3.57329178
Cl      31.11793945      20.38072061      52.85756260       0.01317407       0.00819336      -0.00844054      -3.50872922
Cl      11.62413741      12.06493257      23.06783134      -0.01814250      -0.03951904      -0.01241311      -3.54481077
Cl      27.90085949      57.80659978      30.34076248      -0.02425730       0.02293110       0.00567883      -3.37198472
Cl      39.11290837      35.15016346      57.69078301       0.03335366      -0.02089808       0.03171715      -3.58069897
Cl      58.27782488      57.14290001      49.35362815       0.00783684      -0.03856882       0.04166982      -3.55600238
Cl       9.26297070      53.68750995       1.40557511      -0.02253348      -0.00572496      -0.05791469      -3.38100219
Cl      28.39274876      37.62449781      16.09723362      -0.03195307       0.08064156       0.05153479      -3.50392771
Cl      13.73149410      38.88574674       5.05941565      -0.02971383      -0.02081651       0.06126365      -3.42129683
Cl      51.08994311      40.05565418      35.03065734      -0.06408863       0.06237426      -0.05088655      -3.47125316
Cl      39.28495886      42.31920137      41.17242262       0.00263148      -0.02204663      -0.02117717      -3.52582765
Cl      15.97297264       2.09051804      42.32867307      -0.03236157      -0.01762843       0.02591174      -3.46064019
Cl      54.70019021      41.61547589      18.19355313      -0.03447225       0.05333131      -0.04881760      -3.45600843
Cl      36.16273545      29.06547408      47.68445653       0.02607519       0.00162113       0.03742938      -3.58036351
Na       5.22296020      53.11660842      19.33341037       0.04213108      -0.01387908      -0.01321193      -3.22208500
Na      23.62619350      24.80364440      42.61249335      -0.00356159       0.00950769      -0.03653936      -3.34633899
Na      35.96202557      31.61578588      53.03560340      -0.05542617      -0.01902213       0.07114757      -3.33261967
Na      12.88820015      24.43043437      36.81330129      -0.02508395       0.01128481       0.01788256      -3.10017157
Na      38.08522281      15.44200689      31.11397332      -0.01845917       0.02570859      -0.00432549      -3.23844528
Na      28.19502800      54.71542786      29.02454197      -0.00441706      -0.01712546       0.05393732      -3.28085351
Na      44.70336729       6.98476016      25.76038235       0.07707235      -0.00757531      -0.00983376      -3.25330210
Na      14.23812881      33.95092873       7.64605153       0.06332609       0.02148370       0.00033668      -3.29521489
Na      36.22875291      37.57211342      15.98312123       0.03619472      -0.00838206      -0.04424490      -3.38134670
Na      48.84279933      57.35831705      14.63700555      -0.01691354      -0.01611113      -0.01674018      -3.18680167
Na      18.18087600      13.74618273      10.21112700       0.03494271      -0.02767608      -0.06609803      -3.12873530
Na      48.34117963      34.61669998      51.74199187       0.08168802      -0.01661626      -0.04156604      -3.30020070
Na      48.98774871      24.74000451      42.30990217       0.00551660      -0.01258903      -0.05055315      -3.31488442
Na      35.38753545      42.48280591       6.17241328      -0.08751485       0.07049851       0.08352147      -3.21136832
Na      13.21560655       6.79273885      33.32576141       0.02766948       0.05416715       0.02082396      -3.42169881
Na      26.91217188      55.48898764      25.59138934       0.00769284      -0.03888249       0.02122045      -3.32639861
Na      23.12578223      50.08513426      34.81360265      -0.00900258      -0.09756899      -0.03202807      -3.39683270
Na       0.84297360      30.16114343      21.09752062      -0.00486321      -0.01641036      -0.00414481      -3.29213738
Na      27.50247238      43.99910727      32.91805319      -0.01033476      -0.02491659      -0.00660366      -3.31325912
Na      22.46245233      46.55632649      28.09974849      -0.00687317      -0.01287694       0.04319458      -3.26384783
Na      31.29333767      37.63408864      50.69432081       0.03871546      -0.08044619       0.06850332      -3.26194477
Na      41.51924378       6.52289048      14.92501846       0.05123973       0.05361428      -0.00266660      -3.22338676
Na      45.00733219      13.89469159      14.45760645       0.03129658      -0.03726037      -0.00955535      -3.49193525
Na      37.21639981      20.64087917      40.74060863      -0.01876919      -0.02924526       0.02320924      -3.32216525
Na      47.46043502      54.85209207      16.79341633       0.02273927       0.01548826      -0.02632382      -3.22944880
Na      38.67493443      48.94331303      16.51173128       0.03185494       0.07004389      -0.01816142      -3.41883183
Na      18.61054889      17.37987343      27.70354714       0.04003533      -0.11179438       0.09603595      -3.17118907
Na      55.53300787      51.26589130      55.61016878       0.00163374       0.02196429      -0.05145150      -3.14315772
Na      31.02329842      36.74747290       0.99868345      -0.06684320       0.07333229       0.01891456      -3.34517884
Na      19.34689430      49.46743630       3.34042284      -0.00488263      -0.06378165      -0.05718062      -3.31457353
Na      26.30965641      32.66254796       4.54063493       0.05104157      -0.02873961      -0.00195750      -3.40151501
Na      25.97998356      38.87866143      47.09114851      -0.03862389      -0.00342244      -0.00034110      -3.36448622
Na      54.24782173      29.13009382      53.33363228       0.01292117      -0.00870654      -0.01743307      -3.29663444
Na      49.99357105      39.01469701      23.01549728      -0.05631245       0.02575801      -0.00059552      -3.26290393
Na      25.66888470      33.03747566      27.07891066       0.04035777      -0.01638911       0.02384411      -3.30690765
Na      29.41474835      55.43030187      47.26756100       0.05375910      -0.06686705       0.06670231      -3.29147363
Na      10.05214646       4.12842929      52.57351916       0.04315211       0.00848618       0.01300157      -3.34686327
Na      34.10556938      35.49896936      42.42416344      -0.06815735       0.00337457       0.03361876      -3.21867466
Na      44.08048767      32.54602381      44.92281885      -0.07087980      -0.03274643      -0.00049741      -3.25728512
Na      46.49876969       3.24454495      53.80407942       0.03964291       0.01182662       0.10226935      -3.16001225
Na      45.78157224      55.97566987       6.79737322       0.02144358      -0.02758940      -0.00455519      -3.20322824
Na      52.04717179      26.33066043      17.70752483      -0.03373474       0.00276977       0.01235756      -3.35298777
Na      26.21044741      -0.06861476      28.17593334       0.03976883       0.01542277      -0.02090253      -3.34509516
Na      16.81783493      10.25552460      25.52897564      -0.09501503       0.01425284       0.08071370      -3.20653248
Na      52.42278188      16.30617726      49.69595672      -0.04924922       0.02973100      -0.02838284      -3.36724854
Na      58.17669948      44.94545883      11.08318189       0.00594515       0.02939613      -0.01050974      -3.27483797
Na      51.29429570      28.12013939      40.94763897      -0.00029366       0.00568710      -0.04272831      -3.17203212
Na      30.98668167       4.19482206      48.28413687      -0.03305879      -0.01404525      -0.08139688      -3.19239616
Na      34.05610166      30.71080700      17.70385704      -0.02801639       0.03797985       0.10845424      -3.10434318
Na      40.34214398      13.00519922       6.06572529       0.06993318      -0.03422175      -0.03567389      -3.17827535
Cl      33.38359821      32.87719840       5.39092335       0.03228625      -0.01773702      -0.19538628      -3.39880657
Cl      -0.18307753      23.95988140       9.74115392      -0.02696059      -0.07449545       0.07253158      -3.47207975
Cl      30.02019387      20.94869250      34.85613313       0.03392625      -0.01838211      -0.02507239      -3.53671575
Cl       6.73899770      40.23359419      25.57844801      -0.02318837       0.02257528      -0.03148416      -3.31268620
Cl      33.37477118      22.76336696      16.95034811       0.01772623       0.06798975       0.01250521      -3.56859398
Cl      44.31012791      16.87367656       8.75795446       0.06205973       0.01185517      -0.02211253      -3.56248498
Cl      30.56004549      40.48434054      44.79901465      -0.00962159       0.00396565       0.01024555      -3.49645710
Cl      58.41490652      16.92092653      33.52181499      -0.01357640      -0.02861874       0.00774264      -3.52296972
Cl      49.30750862      22.10054305      35.92894027      -0.01947926       0.08612459       0.04854616      -3.47887754
Cl      24.68024915      21.18115554      24.50408304      -0.09895628       0.05623509      -0.02734019      -3.35641742
Cl      26.28198911      39.00679060      42.09823599       0.03717046      -0.01008211       0.03222353      -3.63277864
Cl      39.85119287       7.23148523       4.12894803      -0.01429232      -0.02857866      -0.05584486      -3.28429008
Cl      20.40415957      47.91334656      -0.04666048      -0.05335479       0.01592968      -0.01417322      -3.44021869
Cl      49.84661161      11.16132582      44.88391469      -0.01260123      -0.01375097      -0.05639590      -3.61602616
Cl      10.32447007      16.75603474      -0.07176215      -0.01457488      -0.02435448       0.01662853      -3.50028467
Cl      41.02711209      48.77357354      36.01802507       0.05450931       0.01124176       0.00220129      -3.37335205
Cl      18.10846349      56.20354967      41.72025718      -0.03442011       0.01196191      -0.00833088      -3.58151722
Cl      40.42635945      44.88757318      20.55872771       0.02022789      -0.01930339       0.02505865      -3.48248696
Cl      47.00789004      58.13617570      22.27673784       0.11851791       0.00571199      -0.10444427      -3.42256522
Cl      17.80651933      54.89047395      48.66899811      -0.05703061      -0.08862133      -0.03390868      -3.53279662
Cl      17.97373588      54.14780141      52.34606311      -0.09135172       0.07485217       0.05401122      -3.52646399
Cl      58.03955059      27.75426928      41.42926220       0.01718932       0.00745186      -0.01914513      -3.48180389
Cl       7.83037408      29.24877612      37.31968901      -0.02885954       0.03540201       0.05829531      -3.51605392
Cl      17.39382080      52.02840070      42.10481946      -0.04244852       0.02267751      -0.01130977      -3.58638215
Cl      12.59340792       4.60286960      31.40207842       0.06337446       0.01942418      -0.01783383      -3.51169538
Cl      22.35884349      18.61692312      36.43281276      -0.02853747      -0.01631759       0.04522122      -3.49152923
Cl       6.85831174       8.02239117      42.51018750      -0.00891232      -0.03504147      -0.03342152      -3.60686445
Cl      52.31679676      17.90313116      40.21572256       0.13574326       0.02915258       0.09229384      -3.58798528
Cl      26.37489472       1.76374774      10.79751048       0.01977902      -0.02714406      -0.00867970      -3.46430182
Cl      47.07793408      43.77964697      16.26158529       0.02087777       0.09748824      -0.02244303      -3.43896246
Cl      16.97098536      33.98546236      45.67002227       0.00286229       0.13601102      -0.01348758      -3.49981260
Cl      57.45538589      20.36012390      41.85971662      -0.04643627      -0.04319918       0.01515722      -3.54388452
Cl      21.86783136       6.32401441      47.00746099      -0.02222247      -0.00530804       0.01987696      -3.45018506
Cl       4.93712953       4.97706588      40.01692741       0.01753915      -0.02373443      -0.08903871      -3.35208821
Cl      53.00094980      32.19246125       3.47924711       0.02174058       0.03677497      -0.01381112      -3.47890687
Cl      21.81239628      14.74496575      14.14762713      -0.03825458      -0.01051782      -0.04234448      -3.56585312
Cl      48.57207756      45.30686667      10.78171658       0.01859123      -0.05841960       0.05443043      -3.57329106
Cl      31.11793950      35.01258767       8.96196154       0.01317622       0.00818983      -0.00844072      -3.50872779
Cl      11.62413755      26.69679934      37.69969865      -0.01814389      -0.03951794      -0.01241704      -3.54481173
Cl      27.90085961      13.91099823      44.97262964      -0.02425619       0.02292871       0.00567821      -3.37198544
Cl      39.11290835      49.78203051      13.79518127       0.03335372      -0.02090324       0.03171953      -3.58070016
Cl      58.27782498      13.24729852       5.45802716       0.00783521      -0.03857288       0.04166460      -3.55600166
Cl       9.26297076       9.79190861      16.03744260      -0.02253264      -0.00572105      -0.05791475      -3.38100314
Cl      28.39274885      52.25636503      30.72910066      -0.03196058       0.08062979       0.05153092      -3.50392771
Cl      13.73149439      53.51761389      19.69128298      -0.02971408      -0.02081770       0.06126608      -3.42129660
Cl      51.08994309      54.68752141      49.66252434      -0.06408869       0.06236381      -0.05088729      -3.47125554
Cl      39.28495869      56.95106872      55.80428989       0.00263242      -0.02204450      -0.02117592      -3.52582812
Cl      15.97297284      16.72238536      56.96054086      -0.03235952      -0.01762840       0.02591094      -3.46063995
Cl      54.70019091      56.24734280      32.82542083      -0.03447217       0.05333312      -0.04881404      -3.45600700
Cl      36.16273552      43.69734101       3.78885519       0.02607617       0.00162053       0.03742641      -3.58036351
Na       5.22296022      53.11660823      33.96527749       0.04213048      -0.01387785      -0.01321424      -3.22208452
Na      23.62619375      24.80364422      57.24436151      -0.00355940       0.00950686      -0.03654543      -3.34633803
Na      35.96202567      31.61578596       9.14000195      -0.05542719      -0.01902313       0.07114488      -3.33261967
Na      12.88820005      24.43043450      51.44516892      -0.02508245       0.01128631       0.01788630      -3.10017109
Na      38.08522285      15.44200693      45.74584022      -0.01845882       0.02570655      -0.00432744      -3.23844624
Na      28.19502789      54.71542796      43.65640884      -0.00441660      -0.01712579       0.05393730      -3.28085351
Na      44.70336728       6.98476011      40.39224925       0.07707127      -0.00757478      -0.00983394      -3.25330114
Na      14.23812885      33.95092871      22.27791843       0.06332702       0.02148300       0.00033766      -3.29521489
Na      36.22875301      37.57211344      30.61498835       0.03619459      -0.00838389      -0.04424357      -3.38134718
Na      48.84279930      57.35831716      29.26887254      -0.01691279      -0.01611083      -0.01674145      -3.18680143
Na      18.18087596      13.74618271      24.84299386       0.03494242      -0.02767568      -0.06610020      -3.12873507
Na      48.34117954      34.61669978       7.84639068       0.08168758      -0.01661874      -0.04156322      -3.30020046
Na      48.98774846      24.74000490      56.94176959       0.00551644      -0.01259300      -0.05055389      -3.31488490
Na      35.38753530      42.48280601      20.80428038      -0.08751526       0.07049899       0.08352098      -3.21136856
Na      13.21560668       6.79273875      47.95762849       0.02766616       0.05416698       0.02081900      -3.42169905
Na      26.91217184      55.48898756      40.22325657       0.00769474      -0.03888290       0.02122259      -3.32639885
Na      23.12578221      50.08513420      49.44546952      -0.00900291      -0.09756908      -0.03202809      -3.39683270
Na       0.84297353      30.16114341      35.72938755      -0.00486302      -0.01641400      -0.00415088      -3.29213738
Na      27.50247246      43.99910732      47.54992025      -0.01033502      -0.02491590      -0.00660489      -3.31325912
Na      22.46245248      46.55632650      42.73161493      -0.00687328      -0.01287961       0.04320128      -3.26384854
Na      31.29333764      37.63408868       6.79871968       0.03871428      -0.08044658       0.06850386      -3.26194477
Na      41.51924390       6.52289042      29.55688544       0.05123995       0.05361597      -0.00266558      -3.22338653
Na      45.00733214      13.89469163      29.08947337       0.03129638      -0.03726019      -0.00955609      -3.49193525
Na      37.21640001      20.64087906      55.37247604      -0.01877188      -0.02924533       0.02321257      -3.32216501
Na      47.46043514      54.85209207      31.42528346       0.02273849       0.01548751      -0.02631710      -3.22944880
Na      38.67493434      48.94331297      31.14359839       0.03185511       0.07004390      -0.01816054      -3.41883183
Na      18.61054889      17.37987330      42.33541410       0.04003404      -0.11179493       0.09603465      -3.17119026
Na      55.53300799      51.26589154      11.71456689       0.00163094       0.02196509      -0.05145541      -3.14315748
Na      31.02329833      36.74747304      15.63055067      -0.06684312       0.07333171       0.01891505      -3.34517956
Na      19.34689437      49.46743615      17.97228962      -0.00488234      -0.06378151      -0.05718029      -3.31457305
Na      26.30965638      32.66254800      19.17250210       0.05104158      -0.02874009      -0.00195809      -3.40151501
Na      25.97998368      38.87866141       3.19554699      -0.03862450      -0.00342276      -0.00034038      -3.36448598
Na      54.24782177      29.13009369       9.43803104       0.01292098      -0.00870523      -0.01743235      -3.29663515
Na      49.99357099      39.01469705      37.64736416      -0.05631202       0.02575849      -0.00059687      -3.26290393
Na      25.66888476      33.03747564      41.71077747       0.04035718      -0.01638902       0.02384702      -3.30690765
Na      29.41474819      55.43030181       3.37195973       0.05376025      -0.06686631       0.06670410      -3.29147363
Na      10.05214647       4.12842929       8.67791784       0.04315126       0.00848572       0.01300668      -3.34686399
Na      34.10556923      35.49896971      57.05603065      -0.06815752       0.00337491       0.03361909      -3.21867442
Na      44.08048789      32.54602330       1.02721759      -0.07087937      -0.03274722      -0.00049786      -3.25728440
Na      46.49876945       3.24454515       9.90847829       0.03964256       0.01182595       0.10227019      -3.16001272
Na      45.78157212      55.97567008      21.42924054       0.02144517      -0.02759239      -0.00455909      -3.20322824
Na      52.04717188      26.33066038      32.33939163      -0.03373422       0.00276968       0.01235941      -3.35298705
Na      26.21044734      -0.06861482      42.80780025       0.03976783       0.01542315      -0.02090332      -3.34509587
Na      16.81783496      10.25552463      40.16084246      -0.09501545       0.01425350       0.08071327      -3.20653176
Na      52.42278186      16.30617727       5.80035544      -0.04924983       0.02973089      -0.02838046      -3.36724877
Na      58.17669948      44.94545884      25.71504888       0.00594503       0.02939678      -0.01051011      -3.27483797
Na      51.29429568      28.12013931      55.57950661      -0.00029442       0.00568601      -0.04272769      -3.17203188
Na      30.98668178       4.19482203       4.38853600      -0.03306183      -0.01404588      -0.08139445      -3.19239616
Na      34.05610177      30.71080699      32.33572416      -0.02801611       0.03797985       0.10845393      -3.10434270
Na      40.34214389      13.00519915      20.69759243       0.06993374      -0.03422049      -0.03567028      -3.17827535
Cl      33.38359835      32.87719839      20.02279046       0.03228694      -0.01773711      -0.19538677      -3.39880610
Cl      -0.18307761      23.95988144      24.37302101      -0.02696032      -0.07449520       0.07253271      -3.47208047
Cl      30.02019405      20.94869232      49.48800036       0.03392861      -0.01838186      -0.02507003      -3.53671694
Cl       6.73899761      40.23359411      40.21031491      -0.02318684       0.02257504      -0.03148601      -3.31268764
Cl      33.37477122      22.76336701      31.58221513       0.01772683       0.06798999       0.01250538      -3.56859398
Cl      44.31012782      16.87367662      23.38982154       0.06206407       0.01185703      -0.02210958      -3.56248283
Cl      30.56004495      40.48434067       0.90341316      -0.00962163       0.00396577       0.01024394      -3.49645853
Cl      58.41490656      16.92092642      48.15368196      -0.01357377      -0.02861744       0.00774482      -3.52296948
Cl      49.30750861      22.10054289      50.56080727      -0.01947680       0.08613242       0.04854292      -3.47887754
Cl      24.68024918      21.18115563      39.13594983      -0.09895355       0.05623804      -0.02733319      -3.35641694
Cl      26.28198913      39.00679050      56.73010345       0.03716863      -0.01008272       0.03222690      -3.63277888
Cl      39.85119320       7.23148514      18.76081498      -0.01429302      -0.02857929      -0.05584430      -3.28429008
Cl      20.40415942      47.91334610      14.58520828      -0.05335416       0.01592808      -0.01417357      -3.44021893
Cl      49.84661124      11.16132565       0.98831322      -0.01260048      -0.01375120      -0.05639706      -3.61602664
Cl      10.32447024      16.75603455      14.56010584      -0.01457546      -0.02435366       0.01662828      -3.50028515
Cl      41.02711206      48.77357374      50.64989222       0.05450619       0.01124173       0.00220573      -3.37335134
Cl      18.10846378      56.20354981      56.35212509      -0.03442007       0.01196321      -0.00833019      -3.58151698
Cl      40.42635953      44.88757322      35.19059462       0.02022713      -0.01930482       0.02506046      -3.48248768
Cl      47.00789009      58.13617571      36.90860504       0.11851798       0.00571220      -0.10444357      -3.42256451
Cl      17.80651930      54.89047414       4.77339725      -0.05703127      -0.08862106      -0.03390986      -3.53279614
Cl      17.97373581      54.14780147       8.45046188      -0.09135117       0.07485283       0.05400776      -3.52646351
Cl      58.03955061      27.75426923      56.06113016       0.01718890       0.00745336      -0.01914124      -3.48180485
Cl       7.83037417      29.24877623      51.95155557      -0.02885893       0.03540310       0.05829792      -3.51605415
Cl      17.39382105      52.02840098      56.73668696      -0.04244783       0.02267774      -0.01130857      -3.58638167
Cl      12.59340786       4.60286970      46.03394530       0.06337436       0.01942541      -0.01783489      -3.51169372
Cl      22.35884361      18.61692322      51.06468001      -0.02853531      -0.01631686       0.04522509      -3.49152946
Cl       6.85831191       8.02239150      57.14205557      -0.00891306      -0.03503997      -0.03342092      -3.60686398
Cl      52.31679662      17.90313113      54.84758993       0.13574038       0.02915160       0.09228803      -3.58798552
Cl      26.37489477       1.76374776      25.42937739       0.01978008      -0.02714283      -0.00867826      -3.46430230
Cl      47.07793417      43.77964709      30.89345243       0.02087751       0.09748843      -0.02244142      -3.43896317
Cl      16.97098562      33.98546223       1.77442119       0.00286216       0.13601184      -0.01349037      -3.49981332
Cl      57.45538586      20.36012411      56.49158368      -0.04643853      -0.04319809       0.01515932      -3.54388285
Cl      21.86783155       6.32401455       3.11185909      -0.02222101      -0.00530848       0.01987859      -3.45018482
Cl       4.93712953       4.97706606      54.64879403       0.01753913      -0.02373431      -0.08903755      -3.35208797
Cl      53.00094962      32.19246117      18.11111466       0.02174037       0.03677659      -0.01381059      -3.47890735
Cl      21.81239625      14.74496569      28.77949414      -0.03825490      -0.01051820      -0.04234370      -3.56585336
Cl      48.57207762      45.30686656      25.41358364       0.01859133      -0.05841991       0.05443011      -3.57329130
Cl      31.11793955      35.01258770      23.59382848       0.01317543       0.00818948      -0.00843954      -3.50872779
Cl      11.62413741      26.69679965      52.33156542      -0.01814191      -0.03951930      -0.01240984      -3.54481006
Cl      27.90085956      13.91099837       1.07702820      -0.02425719       0.02293015       0.00568094      -3.37198448
Cl      39.11290834      49.78203039      28.42704828       0.03335318      -0.02090328       0.03172024      -3.58070016
Cl      58.27782494      13.24729847      20.08989461       0.00783512      -0.03857281       0.04166285      -3.55600095
Cl       9.26297078       9.79190868      30.66930959      -0.02253263      -0.00572077      -0.05791144      -3.38100290
Cl      28.39274894      52.25636493      45.36096769      -0.03196115       0.08062980       0.05152914      -3.50392652
Cl      13.73149446      53.51761392      34.32315008      -0.02971384      -0.02081757       0.06126396      -3.42129636
Cl      51.08994313      54.68752128       5.76692314      -0.06408916       0.06236377      -0.05088698      -3.47125483
Cl      39.28495880      56.95106866      11.90868853       0.00263130      -0.02204403      -0.02117428      -3.52582860
Cl      15.97297269      16.72238546      13.06493872      -0.03235927      -0.01762729       0.02591204      -3.46063924
Cl      54.70019078      56.24734280      47.45728798      -0.03447124       0.05333428      -0.04881242      -3.45600724
Cl      36.16273549      43.69734100      18.42072268       0.02607602       0.00162052       0.03742645      -3.58036327
Na       5.22296022      53.11660835      48.59714439       0.04213035      -0.01387805      -0.01321431      -3.22208428
Na      23.62619348      24.80364441      13.34875950      -0.00356108       0.00950731      -0.03654408      -3.34633803
Na      35.96202549      31.61578592      23.77186925      -0.05542780      -0.01902329       0.07114299      -3.33261967
Na      12.88820008      24.43043438       7.54956726      -0.02508316       0.01128554       0.01788280      -3.10017133
Na      38.08522268      15.44200732       1.85023853      -0.01845879       0.02570888      -0.00432534      -3.23844552
Na      28.19502807      54.71542778      58.28827685      -0.00441603      -0.01712568       0.05393776      -3.28085303
Na      44.70336723       6.98476027      55.02411685       0.07707798      -0.00757313      -0.00983485      -3.25330234
Na      14.23812879      33.95092867      36.90978547       0.06332598       0.02148426       0.00033577      -3.29521465
Na      36.22875294      37.57211349      45.24685537       0.03619527      -0.00838099      -0.04424744      -3.38134789
Na      48.84279945      57.35831711      43.90073964      -0.01691471      -0.01611203      -0.01673753      -3.18680167
Na      18.18087595      13.74618261      39.47486086       0.03494377      -0.02767496      -0.06609891      -3.12873507
Na      48.34117958      34.61669999      22.47825770       0.08168741      -0.01661802      -0.04156449      -3.30020022
Na      48.98774854      24.74000466      13.04616800       0.00551647      -0.01259272      -0.05055490      -3.31488442
Na      35.38753529      42.48280601      35.43614731      -0.08751530       0.07049765       0.08352354      -3.21136785
Na      13.21560667       6.79273879       4.06202730       0.02766809       0.05416742       0.02082193      -3.42169833
Na      26.91217204      55.48898747      54.85512406       0.00769342      -0.03888094       0.02121225      -3.32639861
Na      23.12578225      50.08513408       5.54986831      -0.00900380      -0.09756949      -0.03202876      -3.39683270
Na       0.84297360      30.16114350      50.36125493      -0.00486272      -0.01641084      -0.00414694      -3.29213762
Na      27.50247225      43.99910728       3.65431910      -0.01033485      -0.02491714      -0.00660519      -3.31325889
Na      22.46245227      46.55632645      57.36348292      -0.00687311      -0.01287812       0.04319774      -3.26384807
Na      31.29333767      37.63408865      21.43058675       0.03871545      -0.08044556       0.06850450      -3.26194453
Na      41.51924387       6.52289041      44.18875257       0.05123900       0.05361434      -0.00266216      -3.22338724
Na      45.00733221      13.89469153      43.72134065       0.03129613      -0.03726069      -0.00955384      -3.49193645
Na      37.21639988      20.64087919      11.47687447      -0.01877046      -0.02924511       0.02320963      -3.32216501
Na      47.46043519      54.85209206      46.05715051       0.02273872       0.01548852      -0.02632405      -3.22944975
Na      38.67493445      48.94331300      45.77546538       0.03185661       0.07004539      -0.01816372      -3.41883183
Na      18.61054894      17.37987324      56.96728133       0.04003533      -0.11179465       0.09603508      -3.17118931
Na      55.53300788      51.26589147      26.34643403       0.00163322       0.02196606      -0.05145317      -3.14315724
Na      31.02329827      36.74747310      30.26241765      -0.06684262       0.07333216       0.01891518      -3.34517932
Na      19.34689439      49.46743614      32.60415652      -0.00488265      -0.06378135      -0.05718047      -3.31457257
Na      26.30965622      32.66254791      33.80436906       0.05104174      -0.02874034      -0.00196084      -3.40151501
Na      25.97998375      38.87866159      17.82741439      -0.03862409      -0.00342309      -0.00033978      -3.36448598
Na      54.24782183      29.13009373      24.06989810       0.01292065      -0.00870530      -0.01743289      -3.29663515
Na      49.99357095      39.01469704      52.27923124      -0.05631213       0.02575808      -0.00059621      -3.26290417
Na      25.66888473      33.03747567      56.34264513       0.04035642      -0.01638634       0.02384972      -3.30690813
Na      29.41474831      55.43030183      18.00382708       0.05375759      -0.06686673       0.06670612      -3.29147339
Na      10.05214636       4.12842931      23.30978493       0.04315354       0.00848557       0.01300375      -3.34686446
Na      34.10556931      35.49896932      13.16042977      -0.06815861       0.00337448       0.03361896      -3.21867442
Na      44.08048771      32.54602370      15.65908485      -0.07087939      -0.03274753      -0.00049854      -3.25728416
Na      46.49876969       3.24454511      24.54034534       0.03964233       0.01182601       0.10226917      -3.16001272
Na      45.78157219      55.97567006      36.06110746       0.02144259      -0.02759007      -0.00455562      -3.20322847
Na      52.04717178      26.33066048      46.97125892      -0.03373528       0.00276960       0.01235608      -3.35298824
Na      26.21044706      -0.06861477      57.43966789       0.03976953       0.01542521      -0.02089976      -3.34509540
Na      16.81783510      10.25552449      54.79270971      -0.09501462       0.01425258       0.08071556      -3.20653176
Na      52.42278187      16.30617724      20.43222263      -0.04925015       0.02973064      -0.02837899      -3.36724854
Na      58.17669951      44.94545882      40.34691581       0.00594541       0.02939466      -0.01050533      -3.27483773
Na      51.29429566      28.12013938      11.68390506      -0.00029455       0.00568607      -0.04272817      -3.17203188
Na      30.98668182       4.19482201      19.02040295      -0.03306145      -0.01404566      -0.08139406      -3.19239616
Na      34.05610172      30.71080688      46.96759117      -0.02801616       0.03797938       0.10845388      -3.10434318
Na      40.34214388      13.00519935      35.32945950       0.06993336      -0.03422193      -0.03567550      -3.17827487
Cl      33.38359837      32.87719837      34.65465754       0.03228630      -0.01773679      -0.19538720      -3.39880753
Cl      -0.18307753      23.95988149      39.00488791      -0.02695856      -0.07449584       0.07253374      -3.47208023
Cl      30.02019378      20.94869239       5.59239893       0.03392676      -0.01838376      -0.02507408      -3.53671646
Cl       6.73899742      40.23359416      54.84218225      -0.02318751       0.02257555      -0.03148658      -3.31268716
Cl      33.37477122      22.76336701      46.21408204       0.01772707       0.06798980       0.01250729      -3.56859374
Cl      44.31012804      16.87367656      38.02168863       0.06205902       0.01185386      -0.02211564      -3.56248617
Cl      30.56004525      40.48434054      15.53528056      -0.00962092       0.00396596       0.01024430      -3.49645901
Cl      58.41490639      16.92092647       4.25808073      -0.01357545      -0.02861899       0.00774492      -3.52297020
Cl      49.30750866      22.10054298       6.66520613      -0.01947669       0.08613425       0.04854009      -3.47887754
Cl      24.68024923      21.18115551      53.76781736      -0.09895822       0.05623353      -0.02734317      -3.35641956
Cl      26.28198905      39.00679042      12.83450211       0.03717288      -0.01008114       0.03222403      -3.63277864
Cl      39.85119292       7.23148506      33.39268206      -0.01429307      -0.02857910      -0.05584498      -3.28428960
Cl      20.40415947      47.91334616      29.21707537      -0.05335443       0.01592815      -0.01417406      -3.44021893
Cl      49.84661145      11.16132574      15.62018082      -0.01260060      -0.01375232      -0.05639651      -3.61602640
Cl      10.32447025      16.75603462      29.19197288      -0.01457481      -0.02435423       0.01662961      -3.50028586
Cl      41.02711196      48.77357343       6.75429098       0.05450728       0.01124033       0.00219857      -3.37335110
Cl      18.10846365      56.20354972      12.45652346      -0.03441948       0.01196302      -0.00833249      -3.58151722
Cl      40.42635951      44.88757308      49.82246163       0.02022705      -0.01930431       0.02505977      -3.48248744
Cl      47.00789004      58.13617569      51.54047183       0.11851788       0.00571270      -0.10444333      -3.42256451
Cl      17.80651922      54.89047421      19.40526452      -0.05703270      -0.08862045      -0.03390569      -3.53279614
Cl      17.97373582      54.14780159      23.08232881      -0.09135175       0.07485242       0.05400819      -3.52646351
Cl      58.03955062      27.75426921      12.16552839       0.01718995       0.00745394      -0.01914237      -3.48180366
Cl       7.83037410      29.24877622       8.05595454      -0.02885937       0.03540242       0.05829819      -3.51605368
Cl      17.39382074      52.02840073      12.84108547      -0.04244576       0.02267723      -0.01130814      -3.58638215
Cl      12.59340773       4.60286954       2.13834397       0.06337413       0.01942441      -0.01783113      -3.51169491
Cl      22.35884353      18.61692300       7.16907855      -0.02853706      -0.01631700       0.04522061      -3.49152923
Cl       6.85831181       8.02239117      13.24645348      -0.00891182      -0.03504040      -0.03341910      -3.60686445
Cl      52.31679662      17.90313120      10.95198826       0.13574138       0.02915183       0.09229471      -3.58798456
Cl      26.37489481       1.76374772      40.06124440       0.01977937      -0.02714515      -0.00868095      -3.46430159
Cl      47.07793414      43.77964707      45.52531936       0.02087931       0.09748796      -0.02244315      -3.43896246
Cl      16.97098545      33.98546245      16.40628813       0.00286282       0.13601129      -0.01348959      -3.49981356
Cl      57.45538586      20.36012396      12.59598253      -0.04643831      -0.04319945       0.01516013      -3.54388356
Cl      21.86783137       6.32401447      17.74372678      -0.02222148      -0.00530797       0.01987814      -3.45018506
Cl       4.93712945       4.97706585      10.75319303       0.01753791      -0.02373507      -0.08903930      -3.35208774
Cl      53.00094961      32.19246133      32.74298195       0.02174046       0.03677483      -0.01380805      -3.47890639
Cl      21.81239611      14.74496568      43.41136114      -0.03825436      -0.01051618      -0.04234657      -3.56585264
Cl      48.57207731      45.30686655      40.04545091       0.01859109      -0.05842011       0.05442765      -3.57329082
Cl      31.11793943      35.01258770      38.22569579       0.01317461       0.00819080      -0.00844249      -3.50872779
Cl      11.62413745      26.69679949       8.43596437      -0.01814241      -0.03951932      -0.01241337      -3.54481053
Cl      27.90085967      13.91099828      15.70889550      -0.02425734       0.02292973       0.00568052      -3.37198448
Cl      39.11290836      49.78203036      43.05891523       0.03335350      -0.02090326       0.03171951      -3.58070016
Cl      58.27782490      13.24729841      34.72176171       0.00783352      -0.03857368       0.04165952      -3.55600071
Cl       9.26297082       9.79190868      45.30117665      -0.02253336      -0.00572145      -0.05791804      -3.38100171
Cl      28.39274886      52.25636458       1.46536601      -0.03195738       0.08063841       0.05153380      -3.50392795
Cl      13.73149446      53.51761406      48.95501674      -0.02971425      -0.02081868       0.06126679      -3.42129683
Cl      51.08994305      54.68752139      20.39879031      -0.06408969       0.06236543      -0.05088647      -3.47125363
Cl      39.28495871      56.95106866      26.54055546       0.00263302      -0.02204496      -0.02117476      -3.52582765
Cl      15.97297273      16.72238538      27.69680572      -0.03235880      -0.01762776       0.02591252      -3.46063948
Cl      54.70019077      56.24734236       3.56168651      -0.03447168       0.05333218      -0.04881615      -3.45600748
Cl      36.16273549      43.69734105      33.05258959       0.02607582       0.00162035       0.03742623      -3.58036423
Na       5.22296017      53.11660851       4.70154329       0.04213040      -0.01387866      -0.01321272      -3.22208500
Na      23.62619346      24.80364436      27.98062651      -0.00356069       0.00950748      -0.03654539      -3.34633827
Na      35.96202566      31.61578598      38.40373589      -0.05542856      -0.01902301       0.07114588      -3.33262014
Na      12.88820005      24.43043436      22.18143449      -0.02508273       0.01128532       0.01788139      -3.10017133
Na      38.08522285      15.44200690      16.48210618      -0.01845997       0.02570912      -0.00432297      -3.23844528
Na      28.19502801      54.71542785      14.39267490      -0.00441504      -0.01712492       0.05393902      -3.28085351
Na      44.70336726       6.98476012      11.12851518       0.07707249      -0.00757451      -0.00983347      -3.25330210
Na      14.23812885      33.95092867      51.54165235       0.06332633       0.02148385       0.00033537      -3.29521441
Na      36.22875284      37.57211337       1.35125334       0.03619448      -0.00838301      -0.04424528      -3.38134742
Na      48.84279938      57.35831709       0.00513804      -0.01691388      -0.01611051      -0.01674061      -3.18680215
Na      18.18087607      13.74618253      54.10672800       0.03494347      -0.02767692      -0.06609510      -3.12873483
Na      48.34117963      34.61669995      37.11012457       0.08168726      -0.01662023      -0.04156161      -3.30020046
Na      48.98774859      24.74000455      27.67803515       0.00551748      -0.01259300      -0.05055605      -3.31488395
Na      35.38753544      42.48280609      50.06801435      -0.08751535       0.07049941       0.08351903      -3.21136856
Na      13.21560673       6.79273880      18.69389456       0.02766708       0.05416785       0.02082145      -3.42169833
Na      26.91217194      55.48898750      10.95952246       0.00769376      -0.03888239       0.02121842      -3.32639861
Na      23.12578227      50.08513425      20.18173554      -0.00900374      -0.09756925      -0.03202928      -3.39683270
Na       0.84297336      30.16114340       6.46565354      -0.00486280      -0.01641099      -0.00414483      -3.29213738
Na      27.50247239      43.99910732      18.28618629      -0.01033493      -0.02491692      -0.00660416      -3.31325889
Na      22.46245232      46.55632655      13.46788126      -0.00687341      -0.01287711       0.04319559      -3.26384783
Na      31.29333784      37.63408868      36.06245380       0.03871121      -0.08044797       0.06850280      -3.26194525
Na      41.51924425       6.52289007       0.29315067       0.05123930       0.05361540      -0.00266805      -3.22338700
Na      45.00733226      13.89469171      58.35320813       0.03129617      -0.03726088      -0.00955179      -3.49193525
Na      37.21639984      20.64087923      26.10874151      -0.01877046      -0.02924527       0.02320924      -3.32216477
Na      47.46043506      54.85209208       2.16154890       0.02273865       0.01548804      -0.02632017      -3.22944927
Na      38.67493448      48.94331282       1.87986374       0.03185499       0.07004391      -0.01816098      -3.41883230
Na      18.61054888      17.37987346      13.07168032       0.04003504      -0.11179508       0.09603396      -3.17118979
Na      55.53300778      51.26589155      40.97830105       0.00163252       0.02196460      -0.05145339      -3.14315724
Na      31.02329822      36.74747310      44.89428466      -0.06684403       0.07333276       0.01891645      -3.34517956
Na      19.34689434      49.46743603      47.23602358      -0.00488277      -0.06378204      -0.05718016      -3.31457305
Na      26.30965636      32.66254797      48.43623586       0.05104165      -0.02874134      -0.00196115      -3.40151525
Na      25.97998376      38.87866162      32.45928154      -0.03862426      -0.00342178      -0.00033982      -3.36448526
Na      54.24782176      29.13009371      38.70176492       0.01292105      -0.00870429      -0.01742773      -3.29663444
Na      49.99357101      39.01469714       8.38363026      -0.05631216       0.02575781      -0.00059509      -3.26290417
Na      25.66888475      33.03747565      12.44704360       0.04035738      -0.01638762       0.02384567      -3.30690813
Na      29.41474830      55.43030190      32.63569392       0.05375668      -0.06686679       0.06670881      -3.29147387
Na      10.05214652       4.12842929      37.94165206       0.04315162       0.00848636       0.01300722      -3.34686399
Na      34.10556930      35.49896928      27.79229669      -0.06815873       0.00337425       0.03361854      -3.21867442
Na      44.08048763      32.54602377      30.29095192      -0.07087925      -0.03274717      -0.00049894      -3.25728393
Na      46.49876958       3.24454517      39.17221226       0.03964392       0.01182441       0.10227062      -3.16001153
Na      45.78157212      55.97567012      50.69297487       0.02144326      -0.02759037      -0.00455466      -3.20322800
Na      52.04717180      26.33066035       3.07565739      -0.03373497       0.00276948       0.01235805      -3.35298824
Na      26.21044736      -0.06861476      13.54406619       0.03976939       0.01542329      -0.02090234      -3.34509540
Na      16.81783491      10.25552461      10.89710852      -0.09501576       0.01425311       0.08071629      -3.20653224
Na      52.42278185      16.30617738      35.06408923      -0.04924986       0.02973073      -0.02838253      -3.36724830
Na      58.17669965      44.94545883      54.97878323       0.00594617       0.02939473      -0.01050600      -3.27483797
Na      51.29429576      28.12013940      26.31577206      -0.00029393       0.00568485      -0.04273052      -3.17203188
Na      30.98668172       4.19482204      33.65226973      -0.03306098      -0.01404661      -0.08139601      -3.19239616
Na      34.05610114      30.71080642       3.07199008      -0.02801609       0.03798223       0.10845502      -3.10434294
Na      40.34214399      13.00519917      49.96132695       0.06993363      -0.03422115      -0.03567496      -3.17827535
Cl      33.38359815      32.87719839      49.28652437       0.03228662      -0.01773711      -0.19538689      -3.39880610
Cl      -0.18307741      23.95988142      53.63675514      -0.02696240      -0.07449466       0.07252860      -3.47207999
Cl      30.02019387      20.94869243      20.22426602       0.03392702      -0.01838416      -0.02507414      -3.53671718
Cl       6.73899767      40.23359420      10.94658098      -0.02318742       0.02257567      -0.03148623      -3.31268644
Cl      33.37477108      22.76336697       2.31848121       0.01772599       0.06798978       0.01250469      -3.56859374
Cl      44.31012780      16.87367652      52.65355553       0.06206395       0.01185687      -0.02211206      -3.56248426
Cl      30.56004535      40.48434057      30.16714769      -0.00962180       0.00396675       0.01024015      -3.49645925
Cl      58.41490664      16.92092647      18.88994803      -0.01357553      -0.02861844       0.00774441      -3.52297091
Cl      49.30750863      22.10054296      21.29707326      -0.01947670       0.08613463       0.04853991      -3.47887802
Cl      24.68024907      21.18115564       9.87221600      -0.09895411       0.05623575      -0.02733998      -3.35641789
Cl      26.28198892      39.00679041      27.46636910       0.03717317      -0.01008235       0.03222310      -3.63277864
Cl      39.85119293       7.23148516      48.02454907      -0.01429375      -0.02857984      -0.05584250      -3.28429008
Cl      20.40415921      47.91334622      43.84894227      -0.05335285       0.01592888      -0.01417445      -3.44021869
Cl      49.84661149      11.16132574      30.25204778      -0.01259904      -0.01375120      -0.05639739      -3.61602783
Cl      10.32447022      16.75603460      43.82384032      -0.01457515      -0.02435289       0.01662555      -3.50028396
Cl      41.02711203      48.77357347      21.38615809       0.05450734       0.01124193       0.00219894      -3.37335205
Cl      18.10846360      56.20354974      27.08839055      -0.03441963       0.01196216      -0.00833070      -3.58151770
Cl      40.42635938      44.88757320       5.92686053       0.02022810      -0.01930395       0.02505859      -3.48248696
Cl      47.00789004      58.13617576       7.64487084       0.11851745       0.00571153      -0.10444601      -3.42256403
Cl      17.80651931      54.89047400      34.03713130      -0.05702979      -0.08862159      -0.03391231      -3.53279567
Cl      17.97373575      54.14780149      37.71419606      -0.09135167       0.07485224       0.05401150      -3.52646399
Cl      58.03955062      27.75426926      26.79739534       0.01718903       0.00745203      -0.01914159      -3.48180485
Cl       7.83037417      29.24877618      22.68782162      -0.02885938       0.03540269       0.05829801      -3.51605368
Cl      17.39382070      52.02840079      27.47295247      -0.04244584       0.02267733      -0.01130778      -3.58638215
Cl      12.59340785       4.60286973      16.77021135       0.06337397       0.01942419      -0.01783284      -3.51169491
Cl      22.35884352      18.61692311      21.80094563      -0.02853695      -0.01631711       0.04522154      -3.49152875
Cl       6.85831180       8.02239121      27.87832055      -0.00891204      -0.03504037      -0.03341869      -3.60686445
Cl      52.31679672      17.90313120      25.58385525       0.13574167       0.02915193       0.09229703      -3.58798456
Cl      26.37489457       1.76374784      54.69311177       0.01977874      -0.02714461      -0.00868102      -3.46430302
Cl      47.07793413      43.77964702       1.62971788       0.02087854       0.09748711      -0.02244502      -3.43896174
Cl      16.97098541      33.98546240      31.03815512       0.00286261       0.13601153      -0.01348713      -3.49981284
Cl      57.45538592      20.36012386      27.22784944      -0.04643851      -0.04319827       0.01515948      -3.54388356
Cl      21.86783128       6.32401448      32.37559363      -0.02222254      -0.00530769       0.01987464      -3.45018482
Cl       4.93712943       4.97706584      25.38506013       0.01753807      -0.02373503      -0.08903743      -3.35208821
Cl      53.00094966      32.19246146      47.37484862       0.02173965       0.03677510      -0.01380529      -3.47890687
Cl      21.81239636      14.74496572      58.04322880      -0.03825518      -0.01051820      -0.04234367      -3.56585288
Cl      48.57207725      45.30686668      54.67731748       0.01859106      -0.05841703       0.05442792      -3.57329202
Cl      31.11793948      35.01258773      52.85756267       0.01317387       0.00818998      -0.00844040      -3.50872779
Cl      11.62413741      26.69679952      23.06783135      -0.01814219      -0.03951920      -0.01241258      -3.54481053
Cl      27.90085957      13.91099828      30.34076252      -0.02425710       0.02292972       0.00567880      -3.37198520
Cl      39.11290833      49.78203042      57.69078306       0.03335415      -0.02090382       0.03171683      -3.58069873
Cl      58.27782476      13.24729830      49.35362829       0.00783347      -0.03857166       0.04166255      -3.55600142
Cl       9.26297079       9.79190873       1.40557510      -0.02253139      -0.00572136      -0.05791204      -3.38100338
Cl      28.39274887      52.25636494      16.09723365      -0.03195959       0.08063052       0.05153315      -3.50392699
Cl      13.73149441      53.51761391       5.05941584      -0.02971377      -0.02081709       0.06126361      -3.42129683
Cl      51.08994306      54.68752135      35.03065739      -0.06408863       0.06236358      -0.05088786      -3.47125363
Cl      39.28495878      56.95106853      41.17242268       0.00263324      -0.02204511      -0.02117741      -3.52582693
Cl      15.97297274      16.72238543      42.32867283      -0.03236087      -0.01762822       0.02591003      -3.46063948
Cl      54.70019070      56.24734264      18.19355352      -0.03447115       0.05333251      -0.04881856      -3.45600748
Cl      36.16273547      43.69734094      47.68445651       0.02607558       0.00161927       0.03743032      -3.58036327
