6400
Lattice="58.527468 0.0 0.0 0.0 58.527468 0.0 0.0 0.0 58.527468" Properties=species:S:1:pos:R:3:forces:R:3:energies:R:1 energy=-21660.22265625 stress="0.004177646245807409 -0.0003771102346945554 0.00021800497779622674 -0.0003771102346945554 0.003317400114610791 0.00041164743015542626 0.00021800497779622674 0.00041164743015542626 0.006138966418802738" free_energy=-21660.22265625 pbc="T T T"
Na      19.85482756       9.22100726      19.33341023       0.04487915      -0.01534520      -0.01146145      -1.18341959
Na      38.25806026      39.43551157      42.61249343      -0.00570365       0.00921500      -0.03678940      -1.27358699
Na      50.59389254      46.24765289      53.03560345      -0.05274139      -0.01803242       0.07178774      -1.25611663
Na      27.52006697      39.06230157      36.81330143      -0.02632302       0.01433525       0.01783822      -1.03911686
Na      52.71709019      30.07387395      31.11397340      -0.01848938       0.02869391      -0.00272832      -1.16594744
Na      42.82689521      10.81982685      29.02454196      -0.00343401      -0.01881398       0.05289951      -1.22163796
Na       0.80776546      21.61662706      25.76038229       0.07712722      -0.00875572      -0.01173138      -1.18864667
Na      28.86999576      48.58279602       7.64605130       0.06369066       0.02127271      -0.00262017      -1.24549651
Na      50.86062020      52.20398023      15.98312125       0.03504296      -0.01228500      -0.04374028      -1.32131600
Na       4.94719801      13.46271562      14.63700541      -0.01630969      -0.01363511      -0.01715734      -1.16918087
Na      32.81274306      28.37804989      10.21112696       0.03780407      -0.02662862      -0.07024147      -1.10307395
Na       4.44557843      49.24856707      51.74199185       0.08457139      -0.01693118      -0.04402551      -1.22851765
Na       5.09214740      39.37187165      42.30990222       0.00651246      -0.01314694      -0.05081754      -1.25594616
Na      50.01940352      57.11467354       6.17241303      -0.08964460       0.07089407       0.08429554      -1.16375899
Na      27.84747375      21.42460592      33.32576144       0.02695557       0.05512658       0.02226750      -1.38379741
Na      41.54403863      11.59338588      25.59138959       0.00822987      -0.04112198       0.01814683      -1.24673605
Na      37.75764926       6.18953306      34.81360272      -0.01099023      -0.09854394      -0.02999238      -1.30422902
Na      15.47484129      44.79301031      21.09752060      -0.00329315      -0.01597754      -0.00310769      -1.23727334
Na      42.13433978       0.10350567      32.91805296      -0.00926041      -0.02737801      -0.00990974      -1.24766588
Na      37.09431898       2.66072520      28.09974807      -0.00901705      -0.01542001       0.03859933      -1.24622583
Na      45.92520424      52.26595570      50.69432075       0.03741620      -0.08309895       0.06305099      -1.21957898
Na      56.15111139      21.15475726      14.92501822       0.04864879       0.05360268       0.00004517      -1.20907640
Na       1.11173055      28.52655869      14.45760640       0.03015734      -0.03767687      -0.01153904      -1.40401816
Na      51.84826695      35.27274599      40.74060878      -0.01780334      -0.02945592       0.02390068      -1.26923513
Na       3.56483389      10.95649127      16.79341614       0.02094323       0.01489802      -0.02420364      -1.20583689
Na      53.30680141       5.04771163      16.51173141       0.03070245       0.06943673      -0.01677435      -1.36267233
Na      33.24241593      32.01174042      27.70354724       0.04307631      -0.10990652       0.09727960      -1.14941108
Na      11.63740631       7.37028970      55.61016842      -0.00235011       0.02337108      -0.05062590      -1.13219178
Na      45.65516530      51.37933989       0.99868361      -0.06298986       0.07219926       0.02160507      -1.28227758
Na      33.97876143       5.57183515       3.34042295      -0.00364852      -0.06044562      -0.05624677      -1.26266944
Na      40.94152366      47.29441520       4.54063479       0.05183201      -0.02498168      -0.00118059      -1.35231137
Na      40.61185074      53.51052864      47.09114871      -0.03938864      -0.00174874       0.00325575      -1.30939114
Na      10.35222102      43.76196075      53.33363221       0.01040076      -0.00722530      -0.01942766      -1.23267460
Na       6.09796970      53.64656408      23.01549725      -0.05200675       0.02367671      -0.00341208      -1.16137564
Na      40.30075201      47.66934249      27.07891049       0.03829338      -0.01932434       0.02266533      -1.26006985
Na      44.04661569      11.53470016      47.26756110       0.05600351      -0.06824578       0.06977718      -1.25874805
Na      24.68401339      18.76029623      52.57351918       0.04609990       0.00819131       0.01243844      -1.28974485
Na      48.73743627      50.13083642      42.42416337      -0.06471616       0.00073499       0.03622020      -1.17976046
Na       0.18488592      47.17789141      44.92281894      -0.07000548      -0.03368184      -0.00028550      -1.20172584
Na       2.60316836      17.87641215      53.80407930       0.03860449       0.01011164       0.10221675      -1.11785543
Na       1.88597088      12.08006857       6.79737310       0.02281053      -0.02499611      -0.00832663      -1.14849985
Na       8.15157044      40.96252727      17.70752479      -0.03203035       0.00309515       0.01785022      -1.27845740
Na      40.84231410      14.56325273      28.17593328       0.04054205       0.01735920      -0.01854578      -1.30760992
Na      31.44970186      24.88739152      25.52897576      -0.09549703       0.01157780       0.08263375      -1.15354168
Na       8.52718073      30.93804436      49.69595683      -0.05022743       0.02754674      -0.02704614      -1.31728077
Na      14.28109822       1.04985710      11.08318166       0.00634189       0.02909820      -0.01019151      -1.21386230
Na       7.39869469      42.75200678      40.94763916      -0.00009788       0.00927200      -0.04414663      -1.13764155
Na      45.61854897      18.82668944      48.28413711      -0.03401779      -0.01453386      -0.08100247      -1.18395078
Na      48.68796904      45.34267421      17.70385728      -0.02771921       0.04031469       0.11050191      -1.05262423
Na      54.97401075      27.63706628       6.06572553       0.06882913      -0.03583927      -0.03662502      -1.16658890
Cl      48.01546498      47.50906555       5.39092331       0.03342314      -0.01742591      -0.19539131      -4.64189100
Cl      14.44878964      38.59174816       9.74115447      -0.02635973      -0.07383694       0.07197569      -4.74177074
Cl      44.65206093      35.58055952      34.85613311       0.03539765      -0.01320161      -0.02175495      -4.85831690
Cl      21.37086512      54.86546150      25.57844816      -0.02536357       0.02753536      -0.03309564      -4.54522228
Cl      48.00663839      37.39523381      16.95034805       0.01821006       0.06819377       0.01137598      -4.96492910
Cl       0.41452614      31.50554378       8.75795428       0.06327685       0.01053655      -0.02392681      -4.85111618
Cl      45.19191192      55.11620852      44.79901456      -0.01076333       0.00332347       0.00892452      -4.87588930
Cl      14.51930464      31.55279309      33.52181463      -0.01458380      -0.03003691       0.00493242      -4.84151173
Cl       5.41190733      36.73240983      35.92894042      -0.02092025       0.09018074       0.05276186      -4.75690794
Cl      39.31211582      35.81302240      24.50408320      -0.09907220       0.05827744      -0.02589200      -4.55963421
Cl      40.91385623      53.63865802      42.09823574       0.03957083      -0.01114331       0.03180997      -4.97570944
Cl      54.48306018      21.86335159       4.12894786      -0.01692171      -0.03058002      -0.05777922      -4.57716322
Cl      35.03602654       4.01774469      -0.04666068      -0.05344405       0.01682425      -0.01334367      -4.72311878
Cl       5.95101001      25.79319276      44.88391485      -0.00932898      -0.01553524      -0.05776837      -5.00194550
Cl      24.95633710      31.38790167      -0.07176206      -0.01604316      -0.02558710       0.02068119      -4.85765028
Cl      55.65897977       4.87797202      36.01802535       0.05525807       0.00725278       0.00430564      -4.64363813
Cl      32.74033012      12.30794826      41.72025739      -0.03439716       0.00955236      -0.00942640      -4.94810915
Cl      55.05822718       0.99197103      20.55872677       0.02062591      -0.01774524       0.02786539      -4.78875923
Cl       3.11228940      14.24057449      22.27673758       0.11854513       0.00534466      -0.10387492      -4.64776182
Cl      32.43838643      10.99487279      48.66899822      -0.05856824      -0.09004468      -0.03156503      -4.84191608
Cl      32.60560325      10.25220043      52.34606315      -0.09461758       0.07473223       0.05332788      -4.82332611
Cl      14.14394957      42.38613604      41.42926218       0.01935568       0.00837629      -0.01939514      -4.79641342
Cl      22.46224122      43.88064312      37.31968897      -0.02882897       0.03476135       0.05792336      -4.81339359
Cl      32.02568794       8.13279984      42.10481955      -0.04309046       0.02290245      -0.01253884      -4.92758465
Cl      27.22527494      19.23473678      31.40207831       0.06295387       0.01938584      -0.01610759      -4.87657928
Cl      36.99071055      33.24879002      36.43281286      -0.03181000      -0.02030949       0.04600793      -4.82362747
Cl      21.49017871      22.65425831      42.51018740      -0.00792821      -0.03409589      -0.03109741      -5.00510788
Cl       8.42119548      32.53499843      40.21572244       0.13624078       0.03111396       0.09163050      -4.95990515
Cl      41.00676201      16.39561519      10.79751011       0.02032811      -0.02407945      -0.00952246      -4.75998020
Cl       3.18233342      58.41151460      16.26158529       0.01848570       0.09663930      -0.02079927      -4.67535591
Cl      31.60285251      48.61732936      45.67002211       0.00295227       0.13775663      -0.01384081      -4.80300808
Cl      13.55978448      34.99199103      41.85971695      -0.04541455      -0.04145043       0.01244266      -4.81946325
Cl      36.49969816      20.95588141      47.00746102      -0.02402766      -0.00351172       0.01743154      -4.81551123
Cl      19.56899658      19.60893287      40.01692744       0.01308805      -0.02671578      -0.08996081      -4.66216564
Cl       9.10534872      46.82432839       3.47924725       0.02504691       0.03441341      -0.01548907      -4.83569145
Cl      36.44426319      29.37683262      14.14762723      -0.03850807      -0.01182003      -0.04123762      -4.89428616
Cl       4.67647577       1.41126555      10.78171611       0.01700198      -0.05977968       0.05505761      -4.91935921
Cl      45.74980628      49.64445478       8.96196166       0.01148330       0.00870085      -0.00763177      -4.83961678
Cl      26.25600458      41.32866621      37.69969869      -0.01791925      -0.03923037      -0.01069553      -4.79815054
Cl      42.53272673      28.54286528      44.97262966      -0.02823109       0.02328944       0.00666383      -4.68420458
Cl      53.74477570       5.88642908      13.79518129       0.03205057      -0.02405720       0.02909889      -4.96361732
Cl      14.38222275      27.87916566       5.45802693       0.00995416      -0.03825654       0.04537133      -4.88074827
Cl      23.89483802      24.42377555      16.03744267      -0.02380414      -0.00337473      -0.06114445      -4.73894358
Cl      43.02461574       8.36076353      30.72910057      -0.03644482       0.08659115       0.04950301      -4.85335064
Cl      28.36336114       9.62201276      19.69128290      -0.02562264      -0.02212820       0.06003029      -4.72941399
Cl       7.19434189      10.79192016      49.66252427      -0.06068889       0.06241842      -0.05240488      -4.69973135
Cl      53.91682548      13.05546757      55.80428987       0.00358358      -0.02350531      -0.01635160      -4.84757614
Cl      30.60483984      31.35425233      56.96054086      -0.03206242      -0.01596482       0.02384248      -4.74745369
Cl      10.80458935      12.35174188      32.82542006      -0.03397518       0.05366373      -0.05248076      -4.74267054
Cl      50.79460262      58.32920858       3.78885495       0.02410148       0.00081653       0.03615685      -4.90441990
Na      19.85482770       9.22100708      33.96527740       0.04487832      -0.01534345      -0.01146410      -1.18341994
Na      38.25806048      39.43551121      57.24436149      -0.00570317       0.00921566      -0.03679488      -1.27358627
Na      50.59389262      46.24765291       9.14000204      -0.05274255      -0.01803383       0.07178483      -1.25611687
Na      27.52006696      39.06230176      51.44516896      -0.02632223       0.01433679       0.01784191      -1.03911626
Na      52.71709025      30.07387399      45.74584021      -0.01849044       0.02869146      -0.00272931      -1.16594815
Na      42.82689506      10.81982681      43.65640879      -0.00343378      -0.01881384       0.05289923      -1.22163892
Na       0.80776537      21.61662705      40.39224929       0.07712676      -0.00875592      -0.01173033      -1.18864620
Na      28.86999575      48.58279591      22.27791830       0.06369278       0.02127267      -0.00262040      -1.24549615
Na      50.86062023      52.20398015      30.61498818       0.03504194      -0.01228589      -0.04373980      -1.32131577
Na       4.94719809      13.46271556      29.26887245      -0.01630958      -0.01363433      -0.01715951      -1.16918063
Na      32.81274317      28.37805005      24.84299390       0.03780401      -0.02662792      -0.07024468      -1.10307395
Na       4.44557827      49.24856687       7.84639075       0.08457080      -0.01693169      -0.04402445      -1.22851729
Na       5.09214722      39.37187198      56.94176961       0.00651246      -0.01314736      -0.05081855      -1.25594640
Na      50.01940342      57.11467356      20.80428010      -0.08964214       0.07089235       0.08429673      -1.16376019
Na      27.84747369      21.42460594      47.95762851       0.02695143       0.05512669       0.02226354      -1.38379765
Na      41.54403861      11.59338574      40.22325656       0.00823118      -0.04112081       0.01815304      -1.24673581
Na      37.75764914       6.18953308      49.44546958      -0.01098988      -0.09854323      -0.02999097      -1.30422831
Na      15.47484127      44.79301049      35.72938780      -0.00329335      -0.01598032      -0.00311209      -1.23727345
Na      42.13433974       0.10350565      47.54992009      -0.00926044      -0.02737770      -0.00991107      -1.24766612
Na      37.09431897       2.66072518      42.73161506      -0.00901676      -0.01542332       0.03860570      -1.24622655
Na      45.92520424      52.26595560       6.79871961       0.03741646      -0.08309857       0.06305175      -1.21957898
Na      56.15111140      21.15475730      29.55688524       0.04865001       0.05360310       0.00004618      -1.20907605
Na       1.11173049      28.52655871      29.08947341       0.03015945      -0.03767526      -0.01153998      -1.40401757
Na      51.84826682      35.27274573      55.37247620      -0.01780500      -0.02945543       0.02390433      -1.26923466
Na       3.56483392      10.95649130      31.42528334       0.02094265       0.01489764      -0.02419954      -1.20583677
Na      53.30680135       5.04771161      31.14359845       0.03070360       0.06943730      -0.01677321      -1.36267233
Na      33.24241584      32.01174031      42.33541424       0.04307411      -0.10990833       0.09727846      -1.14941192
Na      11.63740654       7.37028975      11.71456698      -0.00235131       0.02336930      -0.05063016      -1.13219190
Na      45.65516514      51.37933996      15.63055062      -0.06299044       0.07219955       0.02160652      -1.28227711
Na      33.97876151       5.57183505      17.97228971      -0.00364859      -0.06044661      -0.05624671      -1.26266909
Na      40.94152355      47.29441522      19.17250193       0.05183163      -0.02498437      -0.00118213      -1.35231102
Na      40.61185062      53.51052872       3.19554711      -0.03938910      -0.00174760       0.00325775      -1.30939114
Na      10.35222097      43.76196084       9.43803088       0.01040104      -0.00722414      -0.01942777      -1.23267519
Na       6.09796963      53.64656400      37.64736410      -0.05200711       0.02367773      -0.00341240      -1.16137552
Na      40.30075192      47.66934262      41.71077750       0.03829329      -0.01932438       0.02266890      -1.26007032
Na      44.04661569      11.53470007       3.37195965       0.05600261      -0.06824510       0.06978106      -1.25874734
Na      24.68401332      18.76029625       8.67791789       0.04609824       0.00819124       0.01244407      -1.28974557
Na      48.73743634      50.13083686      57.05603068      -0.06472331       0.00073504       0.03622046      -1.17975986
Na       0.18488616      47.17789090       1.02721783      -0.07000501      -0.03368300      -0.00028791      -1.20172620
Na       2.60316824      17.87641229       9.90847822       0.03860547       0.01011098       0.10221988      -1.11785531
Na       1.88597091      12.08006861      21.42924049       0.02281047      -0.02499636      -0.00832913      -1.14850044
Na       8.15157037      40.96252725      32.33939162      -0.03202965       0.00309604       0.01785148      -1.27845693
Na      40.84231412      14.56325254      42.80780021       0.04054217       0.01736046      -0.01854342      -1.30761099
Na      31.44970194      24.88739153      40.16084250      -0.09549757       0.01157774       0.08263469      -1.15354156
Na       8.52718083      30.93804448       5.80035542      -0.05022819       0.02754555      -0.02704321      -1.31728077
Na      14.28109824       1.04985707      25.71504875       0.00634103       0.02909807      -0.01019129      -1.21386218
Na       7.39869467      42.75200655      55.57950670      -0.00009842       0.00927202      -0.04414682      -1.13764167
Na      45.61854892      18.82668924       4.38853604      -0.03401738      -0.01453046      -0.08099951      -1.18395030
Na      48.68796885      45.34267433      32.33572425      -0.02771829       0.04031580       0.11050183      -1.05262387
Na      54.97401067      27.63706632      20.69759274       0.06882811      -0.03583708      -0.03663218      -1.16658902
Cl      48.01546482      47.50906557      20.02279012       0.03342128      -0.01742633      -0.19539160      -4.64189053
Cl      14.44878963      38.59174814      24.37302144      -0.02636051      -0.07383688       0.07197563      -4.74177122
Cl      44.65206065      35.58055977      49.48800011       0.03539974      -0.01320097      -0.02175230      -4.85831738
Cl      21.37086512      54.86546154      40.21031515      -0.02536207       0.02753393      -0.03309681      -4.54522419
Cl      48.00663841      37.39523383      31.58221511       0.01821105       0.06819462       0.01137627      -4.96492863
Cl       0.41452607      31.50554381      23.38982146       0.06327710       0.01053694      -0.02392434      -4.85111475
Cl      45.19191179      55.11620884       0.90341326      -0.01076509       0.00332155       0.00892290      -4.87588978
Cl      14.51930473      31.55279302      48.15368167      -0.01458424      -0.03003876       0.00493285      -4.84151173
Cl       5.41190733      36.73240982      50.56080740      -0.02091984       0.09018101       0.05276190      -4.75690794
Cl      39.31211595      35.81302258      39.13595000      -0.09906808       0.05827958      -0.02588499      -4.55963230
Cl      40.91385619      53.63865803      56.73010329       0.03956993      -0.01114443       0.03181375      -4.97570944
Cl      54.48306023      21.86335151      18.76081475      -0.01692354      -0.03057984      -0.05777717      -4.57716274
Cl      35.03602657       4.01774425      14.58520812      -0.05344404       0.01682331      -0.01334464      -4.72311926
Cl       5.95100986      25.79319250       0.98831334      -0.00932657      -0.01553653      -0.05776966      -5.00194645
Cl      24.95633719      31.38790133      14.56010600      -0.01604336      -0.02558713       0.02068095      -4.85765028
Cl      55.65897975       4.87797216      50.64989264       0.05525497       0.00725283       0.00430883      -4.64363766
Cl      32.74033049      12.30794848      56.35212505      -0.03439740       0.00955394      -0.00942514      -4.94810820
Cl      55.05822695       0.99197102      35.19059384       0.02062525      -0.01774612       0.02786672      -4.78875971
Cl       3.11228954      14.24057447      36.90860500       0.11854699       0.00534536      -0.10386939      -4.64776230
Cl      32.43838654      10.99487305       4.77339717      -0.05857010      -0.09004322      -0.03156521      -4.84191561
Cl      32.60560302      10.25220045       8.45046206      -0.09461577       0.07473245       0.05332394      -4.82332325
Cl      14.14394964      42.38613605      56.06112995       0.01935613       0.00837824      -0.01939137      -4.79641438
Cl      22.46224125      43.88064316      51.95155559      -0.02882816       0.03476161       0.05792607      -4.81339312
Cl      32.02568801       8.13279997      56.73668691      -0.04309007       0.02290174      -0.01253722      -4.92758322
Cl      27.22527491      19.23473675      46.03394521       0.06295492       0.01938594      -0.01610811      -4.87657690
Cl      36.99071063      33.24879016      51.06467984      -0.03180813      -0.02030915       0.04601314      -4.82362700
Cl      21.49017903      22.65425859      57.14205558      -0.00792754      -0.03409573      -0.03109719      -5.00510693
Cl       8.42119535      32.53499853      54.84758977       0.13623980       0.03111322       0.09161831      -4.95990658
Cl      41.00676210      16.39561514      25.42937695       0.02032869      -0.02407753      -0.00952021      -4.75998020
Cl       3.18233351      58.41151465      30.89345236       0.01848514       0.09663922      -0.02079615      -4.67535591
Cl      31.60285257      48.61732928       1.77442121       0.00295394       0.13775748      -0.01384253      -4.80300856
Cl      13.55978422      34.99199117      56.49158429      -0.04541172      -0.04145572       0.01244514      -4.81946230
Cl      36.49969829      20.95588162       3.11185910      -0.02402644      -0.00351111       0.01743218      -4.81551027
Cl      19.56899659      19.60893296      54.64879402       0.01308775      -0.02671667      -0.08996110      -4.66216421
Cl       9.10534861      46.82432839      18.11111471       0.02504790       0.03441339      -0.01548831      -4.83569145
Cl      36.44426326      29.37683262      28.77949419      -0.03850943      -0.01182097      -0.04123660      -4.89428616
Cl       4.67647591       1.41126560      25.41358313       0.01700204      -0.05978009       0.05505786      -4.91935921
Cl      45.74980621      49.64445477      23.59382852       0.01148212       0.00870108      -0.00763126      -4.83961678
Cl      26.25600446      41.32866645      52.33156532      -0.01791690      -0.03923244      -0.01068908      -4.79814959
Cl      42.53272647      28.54286545       1.07702839      -0.02823024       0.02328980       0.00666069      -4.68420315
Cl      53.74477579       5.88642904      28.42704831       0.03204179      -0.02405467       0.02909931      -4.96361828
Cl      14.38222275      27.87916549      20.08989431       0.00995427      -0.03825696       0.04536982      -4.88074827
Cl      23.89483801      24.42377561      30.66930968      -0.02380493      -0.00337356      -0.06114072      -4.73894310
Cl      43.02461564       8.36076345      45.36096763      -0.03644459       0.08659150       0.04950440      -4.85334921
Cl      28.36336109       9.62201285      34.32315011      -0.02562250      -0.02212819       0.06002602      -4.72941303
Cl       7.19434188      10.79192024       5.76692301      -0.06068917       0.06241626      -0.05240525      -4.69973135
Cl      53.91682561      13.05546740      11.90868845       0.00358478      -0.02350655      -0.01635131      -4.84757519
Cl      30.60483981      31.35425241      13.06493886      -0.03206281      -0.01596497       0.02384274      -4.74745321
Cl      10.80458930      12.35174202      47.45728714      -0.03397386       0.05366481      -0.05248097      -4.74267006
Cl      50.79460251      58.32920866      18.42072241       0.02410082       0.00081748       0.03615659      -4.90442085
Na      19.85482751       9.22100720      48.59714411       0.04488078      -0.01534301      -0.01146235      -1.18341947
Na      38.25806024      39.43551151      13.34875961      -0.00570366       0.00921506      -0.03679396      -1.27358580
Na      50.59389249      46.24765307      23.77186917      -0.05274346      -0.01803440       0.07178240      -1.25611687
Na      27.52006685      39.06230154       7.54956720      -0.02632325       0.01433544       0.01783786      -1.03911710
Na      52.71708987      30.07387438       1.85023865      -0.01849033       0.02869345      -0.00272659      -1.16594791
Na      42.82689530      10.81982674      58.28827670      -0.00343430      -0.01881412       0.05289956      -1.22163820
Na       0.80776538      21.61662708      55.02411689       0.07712737      -0.00875482      -0.01172897      -1.18864679
Na      28.86999575      48.58279579      36.90978534       0.06369119       0.02127459      -0.00262126      -1.24549580
Na      50.86062031      52.20398023      45.24685533       0.03504260      -0.01228298      -0.04374266      -1.32131624
Na       4.94719801      13.46271552      43.90073946      -0.01631275      -0.01363546      -0.01715492      -1.16918111
Na      32.81274304      28.37804988      39.47486097       0.03780477      -0.02662682      -0.07024334      -1.10307407
Na       4.44557824      49.24856685      22.47825783       0.08457170      -0.01693273      -0.04402399      -1.22851753
Na       5.09214735      39.37187172      13.04616819       0.00651225      -0.01314654      -0.05082110      -1.25594640
Na      50.01940346      57.11467343      35.43614710      -0.08964534       0.07089408       0.08429867      -1.16375899
Na      27.84747376      21.42460596       4.06202722       0.02695410       0.05512655       0.02226581      -1.38379717
Na      41.54403865      11.59338588      54.85512404       0.00822886      -0.04112077       0.01813944      -1.24673605
Na      37.75764920       6.18953298       5.54986838      -0.01099030      -0.09854372      -0.02999337      -1.30422831
Na      15.47484133      44.79301050      50.36125505      -0.00329407      -0.01597818      -0.00310979      -1.23727298
Na      42.13433969       0.10350549       3.65431870      -0.00926092      -0.02737692      -0.00991229      -1.24766612
Na      37.09431908       2.66072524      57.36348267      -0.00901628      -0.01542141       0.03860203      -1.24622631
Na      45.92520430      52.26595570      21.43058663       0.03741774      -0.08309905       0.06305168      -1.21957850
Na      56.15111146      21.15475713      44.18875225       0.04864803       0.05360172       0.00005126      -1.20907676
Na       1.11173053      28.52655863      43.72134057       0.03015744      -0.03767648      -0.01153795      -1.40401793
Na      51.84826717      35.27274610      11.47687457      -0.01780743      -0.02945559       0.02390410      -1.26923513
Na       3.56483383      10.95649119      46.05715025       0.02094411       0.01489872      -0.02420484      -1.20583725
Na      53.30680146       5.04771159      45.77546548       0.03070308       0.06943824      -0.01677627      -1.36267292
Na      33.24241595      32.01174034      56.96728135       0.04307584      -0.10990787       0.09727965      -1.14941072
Na      11.63740648       7.37028968      26.34643388      -0.00235075       0.02337129      -0.05062892      -1.13219166
Na      45.65516512      51.37933987      30.26241765      -0.06299102       0.07219984       0.02160662      -1.28227711
Na      33.97876154       5.57183505      32.60415669      -0.00364831      -0.06044637      -0.05624587      -1.26266932
Na      40.94152349      47.29441522      33.80436904       0.05183204      -0.02498299      -0.00118501      -1.35231113
Na      40.61185076      53.51052882      17.82741459      -0.03938925      -0.00174767       0.00325566      -1.30939114
Na      10.35222102      43.76196080      24.06989807       0.01039978      -0.00722418      -0.01942913      -1.23267555
Na       6.09796967      53.64656413      52.27923118      -0.05200693       0.02367753      -0.00341213      -1.16137540
Na      40.30075190      47.66934251      56.34264493       0.03829303      -0.01932230       0.02267120      -1.26007056
Na      44.04661574      11.53470000      18.00382682       0.05600247      -0.06824392       0.06978308      -1.25874758
Na      24.68401336      18.76029632      23.30978508       0.04609888       0.00819053       0.01244020      -1.28974557
Na      48.73743616      50.13083654      13.16042974      -0.06471629       0.00073478       0.03621912      -1.17975986
Na       0.18488596      47.17789140      15.65908494      -0.07000535      -0.03368325      -0.00028703      -1.20172536
Na       2.60316829      17.87641230      24.54034528       0.03860471       0.01011119       0.10221732      -1.11785531
Na       1.88597086      12.08006863      36.06110736       0.02280946      -0.02499655      -0.00832737      -1.14850044
Na       8.15157031      40.96252747      46.97125891      -0.03203046       0.00309487       0.01784976      -1.27845740
Na      40.84231391      14.56325274      57.43966789       0.04054224       0.01736184      -0.01854300      -1.30761063
Na      31.44970219      24.88739141      54.79270979      -0.09549741       0.01157739       0.08263668      -1.15354156
Na       8.52718064      30.93804437      20.43222268      -0.05022863       0.02754539      -0.02704222      -1.31728101
Na      14.28109823       1.04985719      40.34691570       0.00634197       0.02910055      -0.01019353      -1.21386230
Na       7.39869461      42.75200672      11.68390521      -0.00009891       0.00926858      -0.04414929      -1.13764167
Na      45.61854894      18.82668938      19.02040296      -0.03401823      -0.01453188      -0.08099897      -1.18395007
Na      48.68796898      45.34267412      46.96759123      -0.02771931       0.04031382       0.11050180      -1.05262482
Na      54.97401073      27.63706651      35.32945968       0.06882916      -0.03584045      -0.03662816      -1.16658831
Cl      48.01546502      47.50906558      34.65465739       0.03342181      -0.01742733      -0.19539320      -4.64189005
Cl      14.44878959      38.59174829      39.00488838      -0.02635744      -0.07383795       0.07198025      -4.74177074
Cl      44.65206056      35.58055946       5.59239869       0.03539770      -0.01320110      -0.02175523      -4.85831642
Cl      21.37086494      54.86546147      54.84218242      -0.02536297       0.02753423      -0.03309685      -4.54522324
Cl      48.00663823      37.39523374      46.21408205       0.01821124       0.06819321       0.01137532      -4.96492863
Cl       0.41452622      31.50554374      38.02168846       0.06327549       0.01053693      -0.02391708      -4.85111713
Cl      45.19191189      55.11620850      15.53528068      -0.01076397       0.00332196       0.00892451      -4.87589025
Cl      14.51930463      31.55279311       4.25808030      -0.01458441      -0.03003745       0.00493215      -4.84151268
Cl       5.41190733      36.73240966       6.66520625      -0.02091914       0.09018423       0.05275637      -4.75690794
Cl      39.31211606      35.81302243      53.76781729      -0.09907119       0.05827658      -0.02589241      -4.55963469
Cl      40.91385609      53.63865791      12.83450173       0.03956925      -0.01114433       0.03181298      -4.97570992
Cl      54.48306018      21.86335151      33.39268162      -0.01692300      -0.03057926      -0.05777666      -4.57716274
Cl      35.03602651       4.01774422      29.21707516      -0.05344424       0.01682351      -0.01334502      -4.72311926
Cl       5.95100995      25.79319270      15.62018089      -0.00932540      -0.01553683      -0.05776884      -5.00194693
Cl      24.95633721      31.38790133      29.19197296      -0.01604372      -0.02558670       0.02068231      -4.85765076
Cl      55.65897976       4.87797191       6.75429140       0.05525567       0.00725187       0.00430003      -4.64363766
Cl      32.74033003      12.30794821      12.45652352      -0.03439686       0.00955378      -0.00942800      -4.94810820
Cl      55.05822703       0.99197093      49.82246070       0.02062583      -0.01774652       0.02786772      -4.78875971
Cl       3.11228930      14.24057446      51.54047166       0.11854703       0.00534621      -0.10386923      -4.64776230
Cl      32.43838641      10.99487290      19.40526437      -0.05857138      -0.09004266      -0.03156155      -4.84191608
Cl      32.60560306      10.25220044      23.08232904      -0.09461616       0.07473228       0.05332565      -4.82332420
Cl      14.14394945      42.38613594      12.16552821       0.01935669       0.00837707      -0.01939078      -4.79641342
Cl      22.46224122      43.88064311       8.05595452      -0.02882845       0.03476148       0.05792516      -4.81339169
Cl      32.02568783       8.13279985      12.84108549      -0.04309025       0.02290236      -0.01253759      -4.92758417
Cl      27.22527479      19.23473679       2.13834384       0.06295478       0.01938275      -0.01610435      -4.87657642
Cl      36.99071057      33.24879000       7.16907849      -0.03180905      -0.02030782       0.04600991      -4.82362747
Cl      21.49017880      22.65425830      13.24645339      -0.00792891      -0.03409766      -0.03109575      -5.00510788
Cl       8.42119544      32.53499839      10.95198825       0.13624087       0.03111388       0.09162451      -4.95990562
Cl      41.00676212      16.39561535      40.06124412       0.02032923      -0.02408064      -0.00952350      -4.75997972
Cl       3.18233334      58.41151462      45.52531929       0.01848775       0.09664030      -0.02079734      -4.67535496
Cl      31.60285243      48.61732927      16.40628825       0.00295253       0.13775727      -0.01384341      -4.80300903
Cl      13.55978437      34.99199108      12.59598295      -0.04541219      -0.04145673       0.01244650      -4.81946230
Cl      36.49969809      20.95588156      17.74372674      -0.02402673      -0.00351065       0.01743197      -4.81551075
Cl      19.56899653      19.60893281      10.75319299       0.01308676      -0.02671715      -0.08996218      -4.66216421
Cl       9.10534866      46.82432822      32.74298210       0.02504702       0.03441238      -0.01548476      -4.83569098
Cl      36.44426317      29.37683259      43.41136119      -0.03850915      -0.01182043      -0.04123788      -4.89428616
Cl       4.67647567       1.41126559      40.04545047       0.01700203      -0.05977989       0.05505519      -4.91935921
Cl      45.74980623      49.64445473      38.22569584       0.01148110       0.00870101      -0.00763312      -4.83961773
Cl      26.25600453      41.32866649       8.43596433      -0.01791744      -0.03923293      -0.01069157      -4.79814911
Cl      42.53272672      28.54286525      15.70889555      -0.02823139       0.02328942       0.00666426      -4.68420553
Cl      53.74477571       5.88642910      43.05891531       0.03205135      -0.02405699       0.02910068      -4.96361685
Cl      14.38222272      27.87916538      34.72176133       0.00995507      -0.03825642       0.04537329      -4.88074780
Cl      23.89483798      24.42377558      45.30117665      -0.02380579      -0.00337513      -0.06114792      -4.73894119
Cl      43.02461575       8.36076334       1.46536604      -0.03644508       0.08659183       0.04950303      -4.85335016
Cl      28.36336110       9.62201282      48.95501659      -0.02562194      -0.02212818       0.06002794      -4.72941351
Cl       7.19434188      10.79192022      20.39879026      -0.06068925       0.06241615      -0.05240519      -4.69973183
Cl      53.91682567      13.05546740      26.54055546       0.00358422      -0.02350663      -0.01635060      -4.84757614
Cl      30.60483980      31.35425239      27.69680582      -0.03206281      -0.01596459       0.02384291      -4.74745321
Cl      10.80458927      12.35174164       3.56168590      -0.03397495       0.05366354      -0.05248253      -4.74267006
Cl      50.79460259      58.32920874      33.05258910       0.02410125       0.00081598       0.03615656      -4.90442133
Na      19.85482751       9.22100732       4.70154310       0.04487987      -0.01534357      -0.01146089      -1.18341994
Na      38.25806031      39.43551154      27.98062660      -0.00570276       0.00921562      -0.03679556      -1.27358580
Na      50.59389275      46.24765314      38.40373577      -0.05274374      -0.01803302       0.07178502      -1.25611675
Na      27.52006688      39.06230158      22.18143457      -0.02632232       0.01433557       0.01783603      -1.03911674
Na      52.71709023      30.07387412      16.48210628      -0.01849084       0.02869307      -0.00272802      -1.16594756
Na      42.82689523      10.81982681      14.39267501      -0.00343383      -0.01881429       0.05289955      -1.22163785
Na       0.80776542      21.61662706      11.12851521       0.07712732      -0.00875563      -0.01173041      -1.18864679
Na      28.86999587      48.58279590      51.54165220       0.06369066       0.02127326      -0.00262120      -1.24549603
Na      50.86061976      52.20397997       1.35125344       0.03504257      -0.01228509      -0.04373988      -1.32131600
Na       4.94719824      13.46271566       0.00513777      -0.01631150      -0.01363717      -0.01715626      -1.16918063
Na      32.81274324      28.37804987      54.10672825       0.03780453      -0.02662697      -0.07024369      -1.10307372
Na       4.44557836      49.24856692      37.11012464       0.08457276      -0.01692873      -0.04402458      -1.22851682
Na       5.09214732      39.37187165      27.67803513       0.00651337      -0.01314618      -0.05082225      -1.25594616
Na      50.01940356      57.11467348      50.06801408      -0.08964638       0.07089369       0.08429684      -1.16375852
Na      27.84747377      21.42460594      18.69389453       0.02695328       0.05512746       0.02226422      -1.38379693
Na      41.54403854      11.59338582      10.95952247       0.00823044      -0.04112198       0.01814667      -1.24673605
Na      37.75764917       6.18953301      20.18173560      -0.01099093      -0.09854364      -0.02999338      -1.30422854
Na      15.47484103      44.79301035       6.46565370      -0.00329395      -0.01597771      -0.00310796      -1.23727310
Na      42.13433986       0.10350553      18.28618608      -0.00926061      -0.02737707      -0.00991170      -1.24766564
Na      37.09431903       2.66072512      13.46788113      -0.00901683      -0.01542106       0.03860111      -1.24622607
Na      45.92520436      52.26595571      36.06245371       0.03741562      -0.08309908       0.06305084      -1.21957922
Na      56.15111147      21.15475687       0.29315045       0.04864892       0.05360109       0.00004582      -1.20907700
Na       1.11173060      28.52655872      58.35320819       0.03015650      -0.03767680      -0.01153654      -1.40401769
Na      51.84826706      35.27274606      26.10874154      -0.01780414      -0.02945604       0.02390081      -1.26923466
Na       3.56483365      10.95649131       2.16154882       0.02094393       0.01489783      -0.02420012      -1.20583701
Na      53.30680150       5.04771155       1.87986374       0.03070288       0.06943626      -0.01677328      -1.36267257
Na      33.24241584      32.01174041      13.07168033       0.04307574      -0.10990724       0.09727857      -1.14941096
Na      11.63740640       7.37028988      40.97830094      -0.00235574       0.02336664      -0.05063500      -1.13219154
Na      45.65516506      51.37933992      44.89428477      -0.06299084       0.07219978       0.02160736      -1.28227782
Na      33.97876151       5.57183496      47.23602363      -0.00364960      -0.06044695      -0.05624519      -1.26266932
Na      40.94152353      47.29441527      48.43623565       0.05183200      -0.02498484      -0.00118573      -1.35231137
Na      40.61185085      53.51052888      32.45928174      -0.03938843      -0.00174692       0.00325774      -1.30939102
Na      10.35222090      43.76196075      38.70176490       0.01040219      -0.00722257      -0.01942406      -1.23267460
Na       6.09796977      53.64656407       8.38363025      -0.05200721       0.02367669      -0.00341105      -1.16137528
Na      40.30075199      47.66934249      12.44704348       0.03829399      -0.01932304       0.02266714      -1.26006961
Na      44.04661569      11.53470014      32.63569407       0.05600146      -0.06824649       0.06978239      -1.25874734
Na      24.68401339      18.76029625      37.94165198       0.04609894       0.00819189       0.01244436      -1.28974545
Na      48.73743621      50.13083643      27.79229667      -0.06471631       0.00073536       0.03621832      -1.17975986
Na       0.18488586      47.17789142      30.29095199      -0.07000474      -0.03368250      -0.00028777      -1.20172536
Na       2.60316825      17.87641229      39.17221225       0.03860579       0.01010929       0.10222048      -1.11785460
Na       1.88597098      12.08006863      50.69297482       0.02280992      -0.02499603      -0.00832622      -1.14850020
Na       8.15157048      40.96252721       3.07565734      -0.03203010       0.00309473       0.01785057      -1.27845705
Na      40.84231407      14.56325269      13.54406622       0.04054230       0.01736021      -0.01854517      -1.30760980
Na      31.44970192      24.88739150      10.89710865      -0.09549756       0.01157779       0.08263502      -1.15354168
Na       8.52718071      30.93804450      35.06408934      -0.05022723       0.02754585      -0.02704610      -1.31728053
Na      14.28109817       1.04985711      54.97878315       0.00634113       0.02909695      -0.01018937      -1.21386194
Na       7.39869466      42.75200671      26.31577218      -0.00009855       0.00927021      -0.04414989      -1.13764203
Na      45.61854896      18.82668926      33.65226994      -0.03401773      -0.01453109      -0.08100252      -1.18395019
Na      48.68796842      45.34267366       3.07199024      -0.02772003       0.04031426       0.11050133      -1.05262458
Na      54.97401074      27.63706623      49.96132682       0.06882846      -0.03583830      -0.03662815      -1.16658902
Cl      48.01546490      47.50906546      49.28652431       0.03342270      -0.01742472      -0.19539037      -4.64188957
Cl      14.44878977      38.59174822      53.63675545      -0.02636069      -0.07383768       0.07197507      -4.74177170
Cl      44.65206083      35.58055965      20.22426592       0.03539744      -0.01320256      -0.02175629      -4.85831738
Cl      21.37086509      54.86546148      10.94658103      -0.02536368       0.02753448      -0.03309680      -4.54522276
Cl      48.00663815      37.39523385       2.31848105       0.01821070       0.06819424       0.01137418      -4.96492863
Cl       0.41452605      31.50554368      52.65355580       0.06327774       0.01054085      -0.02392482      -4.85111523
Cl      45.19191186      55.11620852      30.16714771      -0.01076546       0.00332219       0.00891948      -4.87589121
Cl      14.51930476      31.55279299      18.88994767      -0.01458596      -0.03003778       0.00493125      -4.84151316
Cl       5.41190730      36.73240963      21.29707345      -0.02091959       0.09018375       0.05275733      -4.75690794
Cl      39.31211586      35.81302252       9.87221624      -0.09907070       0.05827745      -0.02588925      -4.55963326
Cl      40.91385613      53.63865790      27.46636880       0.03956979      -0.01114507       0.03180910      -4.97570944
Cl      54.48306031      21.86335153      48.02454867      -0.01692222      -0.03057942      -0.05777609      -4.57716322
Cl      35.03602650       4.01774426      43.84894208      -0.05344228       0.01682414      -0.01334429      -4.72311878
Cl       5.95100983      25.79319274      30.25204786      -0.00932573      -0.01553615      -0.05776892      -5.00194693
Cl      24.95633713      31.38790139      43.82384034      -0.01604338      -0.02558612       0.02067781      -4.85764933
Cl      55.65897978       4.87797203      21.38615820       0.05525560       0.00725283       0.00430454      -4.64363766
Cl      32.74033014      12.30794811      27.08839058      -0.03439635       0.00955259      -0.00942543      -4.94810867
Cl      55.05822700       0.99197098       5.92685960       0.02062592      -0.01774570       0.02786585      -4.78875923
Cl       3.11228930      14.24057448       7.64487050       0.11854516       0.00534457      -0.10387404      -4.64776182
Cl      32.43838637      10.99487277      34.03713127      -0.05856762      -0.09004418      -0.03156889      -4.84191561
Cl      32.60560300      10.25220050      37.71419636      -0.09461648       0.07473284       0.05332910      -4.82332563
Cl      14.14394949      42.38613603      26.79739506       0.01935571       0.00837618      -0.01939154      -4.79641294
Cl      22.46224119      43.88064306      22.68782161      -0.02882827       0.03476149       0.05792598      -4.81339169
Cl      32.02568784       8.13279987      27.47295240      -0.04309011       0.02290243      -0.01253684      -4.92758465
Cl      27.22527490      19.23473682      16.77021121       0.06295485       0.01938191      -0.01610174      -4.87657833
Cl      36.99071054      33.24879003      21.80094563      -0.03180883      -0.02030781       0.04600948      -4.82362652
Cl      21.49017874      22.65425837      27.87832042      -0.00792947      -0.03409704      -0.03109547      -5.00510788
Cl       8.42119548      32.53499847      25.58385540       0.13624075       0.03111364       0.09162805      -4.95990658
Cl      41.00676183      16.39561540      54.69311123       0.02033450      -0.02408023      -0.00952184      -4.75998020
Cl       3.18233331      58.41151442       1.62971755       0.01848540       0.09663865      -0.02080001      -4.67535496
Cl      31.60285234      48.61732924      31.03815518       0.00295220       0.13775578      -0.01384047      -4.80300808
Cl      13.55978429      34.99199119      27.22784982      -0.04541216      -0.04145584       0.01244614      -4.81946278
Cl      36.49969816      20.95588174      32.37559369      -0.02402681      -0.00351005       0.01742934      -4.81551075
Cl      19.56899652      19.60893289      25.38506007       0.01308746      -0.02671671      -0.08996038      -4.66216612
Cl       9.10534869      46.82432856      47.37484872       0.02504656       0.03441349      -0.01548254      -4.83569098
Cl      36.44426323      29.37683250      58.04322899      -0.03850932      -0.01182112      -0.04123700      -4.89428616
Cl       4.67647558       1.41126594      54.67731723       0.01700306      -0.05977990       0.05505602      -4.91935968
Cl      45.74980619      49.64445476      52.85756262       0.01148207       0.00870031      -0.00763288      -4.83961678
Cl      26.25600447      41.32866646      23.06783134      -0.01791758      -0.03923316      -0.01069012      -4.79815006
Cl      42.53272669      28.54286526      30.34076263      -0.02823105       0.02328938       0.00666366      -4.68420553
Cl      53.74477585       5.88642907      57.69078325       0.03204282      -0.02405451       0.02909604      -4.96361637
Cl      14.38222272      27.87916532      49.35362825       0.00995292      -0.03825613       0.04537072      -4.88074827
Cl      23.89483811      24.42377568       1.40557512      -0.02380497      -0.00337701      -0.06114420      -4.73894405
Cl      43.02461578       8.36076351      16.09723366      -0.03644519       0.08659175       0.04950354      -4.85335064
Cl      28.36336117       9.62201276       5.05941572      -0.02562249      -0.02212880       0.06002745      -4.72941399
Cl       7.19434175      10.79192011      35.03065725      -0.06068850       0.06241885      -0.05240536      -4.69973183
Cl      53.91682560      13.05546736      41.17242256       0.00358460      -0.02350643      -0.01635292      -4.84757423
Cl      30.60483981      31.35425237      42.32867278      -0.03206388      -0.01596520       0.02384251      -4.74745321
Cl      10.80458926      12.35174201      18.19355325      -0.03397561       0.05366264      -0.05248666      -4.74267054
Cl      50.79460257      58.32920868      47.68445619       0.02410264       0.00081599       0.03615894      -4.90442181
Na      19.85482750      23.85287420      19.33341017       0.04488066      -0.01534474      -0.01146095      -1.18341947
Na      38.25806034      54.06737819      42.61249345      -0.00570245       0.00921724      -0.03679131      -1.27358699
Na      50.59389283       2.35205163      53.03560332      -0.05274373      -0.01802894       0.07178801      -1.25611746
Na      27.52006676      53.69416870      36.81330130      -0.02632402       0.01433749       0.01783894      -1.03911746
Na      52.71709003      44.70574083      31.11397325      -0.01849116       0.02868990      -0.00272928      -1.16594696
Na      42.82689525      25.45169379      29.02454200      -0.00343439      -0.01881476       0.05289964      -1.22163773
Na       0.80776546      36.24849401      25.76038263       0.07712740      -0.00875589      -0.01173178      -1.18864655
Na      28.86999598       4.68719457       7.64605134       0.06369141       0.02127258      -0.00262054      -1.24549615
Na      50.86062023       8.30837920      15.98312113       0.03504193      -0.01228613      -0.04373892      -1.32131588
Na       4.94719795      28.09458268      14.63700536      -0.01630972      -0.01363965      -0.01715729      -1.16918063
Na      32.81274305      43.00991668      10.21112693       0.03780422      -0.02663127      -0.07023911      -1.10307384
Na       4.44557839       5.35296584      51.74199191       0.08457243      -0.01693318      -0.04402398      -1.22851777
Na       5.09214751      54.00373864      42.30990218       0.00651252      -0.01314602      -0.05081774      -1.25594664
Na      50.01940259      13.21907185       6.17241323      -0.08964282       0.07089218       0.08429495      -1.16375995
Na      27.84747364      36.05647285      33.32576135       0.02695529       0.05512811       0.02226787      -1.38379836
Na      41.54403858      26.22525292      25.59138958       0.00822957      -0.04112199       0.01814713      -1.24673605
Na      37.75764925      20.82140025      34.81360243      -0.01099073      -0.09854475      -0.02999182      -1.30422831
Na      15.47484086       0.89740843      21.09752106      -0.00329354      -0.01597283      -0.00310517      -1.23727369
Na      42.13433942      14.73537321      32.91805316      -0.00926066      -0.02737750      -0.00990940      -1.24766660
Na      37.09431922      17.29259283      28.09974837      -0.00901767      -0.01542196       0.03860040      -1.24622560
Na      45.92520434       8.37035448      50.69432073       0.03741889      -0.08309607       0.06305100      -1.21957791
Na      56.15111124      35.78662425      14.92501824       0.04864991       0.05359907       0.00004604      -1.20907712
Na       1.11173056      43.15842572      14.45760639       0.03015825      -0.03767882      -0.01153935      -1.40401769
Na      51.84826688      49.90461319      40.74060881      -0.01780669      -0.02945517       0.02390367      -1.26923478
Na       3.56483390      25.58835820      16.79341624       0.02094279       0.01489804      -0.02420458      -1.20583701
Na      53.30680156      19.67957910      16.51173125       0.03070292       0.06943742      -0.01677465      -1.36267233
Na      33.24241575      46.64360733      27.70354715       0.04307719      -0.10990770       0.09727962      -1.14941072
Na      11.63740637      22.00215710      55.61016860      -0.00234936       0.02337056      -0.05062680      -1.13219190
Na      45.65516539       7.48373882       0.99868362      -0.06298939       0.07220107       0.02160594      -1.28227735
Na      33.97876158      20.20370237       3.34042279      -0.00364891      -0.06044851      -0.05624682      -1.26266956
Na      40.94152373       3.39881356       4.54063462       0.05183189      -0.02498270      -0.00118123      -1.35231137
Na      40.61185083       9.61492729      47.09114870      -0.03938846      -0.00174504       0.00325683      -1.30939102
Na      10.35222089      58.39382841      53.33363224       0.01040223      -0.00722456      -0.01942690      -1.23267484
Na       6.09796973       9.75096314      23.01549727      -0.05200632       0.02367756      -0.00341023      -1.16137600
Na      40.30075180       3.77374109      27.07891072       0.03829426      -0.01932500       0.02266623      -1.26006985
Na      44.04661566      26.16656716      47.26756113       0.05600275      -0.06824589       0.06977733      -1.25874686
Na      24.68401345      33.39216332      52.57351919       0.04610034       0.00819369       0.01243779      -1.28974509
Na      48.73743628       6.23523528      42.42416340      -0.06471539       0.00073736       0.03622030      -1.17976022
Na       0.18488589       3.28229024      44.92281858      -0.07000620      -0.03368133      -0.00028624      -1.20172536
Na       2.60316832      32.50827903      53.80407930       0.03860455       0.01011308       0.10221707      -1.11785519
Na       1.88597089      26.71193559       6.79737308       0.02281088      -0.02499359      -0.00832602      -1.14850020
Na       8.15157097      55.59439472      17.70752474      -0.03203132       0.00309760       0.01785067      -1.27845752
Na      40.84231412      29.19511966      28.17593326       0.04054169       0.01735829      -0.01854530      -1.30761003
Na      31.44970185      39.51925852      25.52897564      -0.09549801       0.01157421       0.08263308      -1.15354204
Na       8.52718060      45.56991144      49.69595685      -0.05022840       0.02754252      -0.02704555      -1.31728053
Na      14.28109814      15.68172486      11.08318171       0.00634136       0.02909878      -0.01019167      -1.21386254
Na       7.39869501      57.38387320      40.94763930      -0.00009630       0.00927454      -0.04414576      -1.13764071
Na      45.61854895      33.45855573      48.28413693      -0.03401687      -0.01453581      -0.08100180      -1.18395066
Na      48.68796835       1.44707240      17.70385636      -0.02771651       0.04031761       0.11050430      -1.05262351
Na      54.97401082      42.26893288       6.06572553       0.06882793      -0.03583915      -0.03662620      -1.16658878
Cl      48.01546487       3.61346424       5.39092328       0.03342387      -0.01742762      -0.19539109      -4.64189100
Cl      14.44878956      53.22361539       9.74115452      -0.02635889      -0.07383721       0.07197450      -4.74177074
Cl      44.65206103      50.21242649      34.85613311       0.03539697      -0.01320157      -0.02175472      -4.85831690
Cl      21.37086473      10.96986031      25.57844793      -0.02536277       0.02753799      -0.03309513      -4.54522276
Cl      48.00663848      52.02710094      16.95034810       0.01820945       0.06819476       0.01137564      -4.96493053
Cl       0.41452618      46.13741063       8.75795441       0.06327746       0.01054058      -0.02392446      -4.85111570
Cl      45.19191232      11.22060707      44.79901464      -0.01076343       0.00332114       0.00892296      -4.87588882
Cl      14.51930447      46.18465949      33.52181474      -0.01458154      -0.03003102       0.00493079      -4.84151173
Cl       5.41190743      51.36427700      35.92894010      -0.02091825       0.09018326       0.05276068      -4.75690842
Cl      39.31211587      50.44488957      24.50408317      -0.09907220       0.05827661      -0.02589193      -4.55963326
Cl      40.91385613       9.74305665      42.09823587       0.03956889      -0.01115073       0.03180884      -4.97570944
Cl      54.48306040      36.49521885       4.12894767      -0.01692228      -0.03058087      -0.05777718      -4.57716179
Cl      35.03602653      18.64961238      -0.04666059      -0.05344315       0.01682371      -0.01334510      -4.72311831
Cl       5.95100998      40.42505993      44.88391484      -0.00932520      -0.01553923      -0.05776841      -5.00194693
Cl      24.95633720      46.01976861      -0.07176216      -0.01604307      -0.02558173       0.02068117      -4.85765123
Cl      55.65897977      19.50983957      36.01802539       0.05525725       0.00725224       0.00430523      -4.64363813
Cl      32.74033013      26.93981527      41.72025734      -0.03439709       0.00955298      -0.00942644      -4.94810915
Cl      55.05822676      15.62383909      20.55872750       0.02062698      -0.01775062       0.02786612      -4.78875828
Cl       3.11228938      28.87244150      22.27673765       0.11854447       0.00534422      -0.10387476      -4.64776230
Cl      32.43838631      25.62673994      48.66899826      -0.05856932      -0.09004428      -0.03156599      -4.84191656
Cl      32.60560321      24.88406753      52.34606314      -0.09461693       0.07473199       0.05332717      -4.82332659
Cl      14.14394958      57.01800361      41.42926192       0.01935646       0.00837613      -0.01939133      -4.79641151
Cl      22.46224134      58.51251124      37.31968892      -0.02882867       0.03475644       0.05792445      -4.81339407
Cl      32.02568797      22.76466680      42.10481963      -0.04309139       0.02290184      -0.01253879      -4.92758417
Cl      27.22527503      33.86660385      31.40207826       0.06295389       0.01938605      -0.01610549      -4.87657785
Cl      36.99071037      47.88065709      36.43281269      -0.03180900      -0.02030599       0.04600938      -4.82362890
Cl      21.49017882      37.28612531      42.51018720      -0.00792845      -0.03409350      -0.03109820      -5.00510693
Cl       8.42119543      47.16686522      40.21572250       0.13624242       0.03111543       0.09163067      -4.95990562
Cl      41.00676205      31.02748235      10.79751018       0.02032908      -0.02408259      -0.00952372      -4.75998068
Cl       3.18233328      14.51591293      16.26158539       0.01848675       0.09663817      -0.02079736      -4.67535400
Cl      31.60285237       4.72172806      45.67002222       0.00295299       0.13775563      -0.01384149      -4.80300903
Cl      13.55978450      49.62385808      41.85971697      -0.04541240      -0.04145714       0.01244457      -4.81946421
Cl      36.49969830      35.58774839      47.00746112      -0.02402983      -0.00351507       0.01743251      -4.81551123
Cl      19.56899647      34.24079994      40.01692737       0.01308665      -0.02671683      -0.08996079      -4.66216183
Cl       9.10534859       2.92872691       3.47924719       0.02504762       0.03441294      -0.01548821      -4.83569050
Cl      36.44426299      44.00869923      14.14762726      -0.03850618      -0.01181249      -0.04123736      -4.89428568
Cl       4.67647642      16.04313249      10.78171666       0.01700319      -0.05978026       0.05505744      -4.91935921
Cl      45.74980632       5.74885347       8.96196177       0.01148237       0.00870466      -0.00763125      -4.83961773
Cl      26.25600472      55.96053393      37.69969863      -0.01791806      -0.03923119      -0.01069705      -4.79814816
Cl      42.53272659      43.17473228      44.97262960      -0.02823105       0.02329104       0.00666448      -4.68420458
Cl      53.74477574      20.51829632      13.79518137       0.03204980      -0.02405803       0.02909958      -4.96361685
Cl      14.38222272      42.51103285       5.45802686       0.00995382      -0.03825545       0.04537189      -4.88074875
Cl      23.89483796      39.05564264      16.03744266      -0.02380546      -0.00337165      -0.06114465      -4.73894310
Cl      43.02461573      22.99263057      30.72910049      -0.03644378       0.08659402       0.04950331      -4.85335159
Cl      28.36336115      24.25387976      19.69128294      -0.02562266      -0.02212801       0.06003019      -4.72941446
Cl       7.19434198      25.42378723      49.66252424      -0.06069116       0.06241678      -0.05240551      -4.69973135
Cl      53.91682559      27.68733455      55.80428984       0.00358322      -0.02350375      -0.01635198      -4.84757614
Cl      30.60483987      45.98611929      56.96054086      -0.03206272      -0.01596395       0.02384141      -4.74745369
Cl      10.80458932      26.98360884      32.82541980      -0.03397463       0.05366465      -0.05248003      -4.74267006
Cl      50.79460228      14.43360713       3.78885516       0.02410091       0.00081435       0.03615793      -4.90441942
Na      19.85482760      23.85287416      33.96527724       0.04487939      -0.01534448      -0.01146308      -1.18341970
Na      38.25806055      54.06737801      57.24436154      -0.00570261       0.00921525      -0.03679682      -1.27358651
Na      50.59389278       2.35205167       9.14000203      -0.05274476      -0.01803077       0.07178513      -1.25611746
Na      27.52006675      53.69416881      51.44516889      -0.02632428       0.01433923       0.01784038      -1.03911734
Na      52.71709004      44.70574088      45.74584007      -0.01849323       0.02868927      -0.00272607      -1.16594803
Na      42.82689500      25.45169385      43.65640877      -0.00343560      -0.01881422       0.05289935      -1.22163844
Na       0.80776542      36.24849388      40.39224931       0.07712521      -0.00875656      -0.01172819      -1.18864608
Na      28.86999599       4.68719457      22.27791829       0.06369241       0.02127131      -0.00261991      -1.24549615
Na      50.86062025       8.30837917      30.61498813       0.03504124      -0.01228717      -0.04373731      -1.32131529
Na       4.94719803      28.09458268      29.26887239      -0.01630804      -0.01363929      -0.01715878      -1.16918063
Na      32.81274315      43.00991697      24.84299379       0.03780455      -0.02663007      -0.07024183      -1.10307348
Na       4.44557823       5.35296576       7.84639080       0.08457189      -0.01693461      -0.04402220      -1.22851729
Na       5.09214752      54.00373860      56.94176963       0.00651247      -0.01314604      -0.05081837      -1.25594676
Na      50.01940261      13.21907187      20.80428035      -0.08964320       0.07089154       0.08429526      -1.16376019
Na      27.84747364      36.05647268      47.95762843       0.02695238       0.05512682       0.02226397      -1.38379884
Na      41.54403856      26.22525284      40.22325658       0.00823174      -0.04112163       0.01815338      -1.24673569
Na      37.75764912      20.82140024      49.44546952      -0.01099026      -0.09854440      -0.02999185      -1.30422807
Na      15.47484087       0.89740845      35.72938811      -0.00329403      -0.01597556      -0.00311136      -1.23727393
Na      42.13433940      14.73537330      47.54992019      -0.00926113      -0.02737851      -0.00990990      -1.24766731
Na      37.09431928      17.29259294      42.73161507      -0.00901596      -0.01542159       0.03859794      -1.24622679
Na      45.92520430       8.37035448       6.79871965       0.03741889      -0.08309561       0.06305171      -1.21957791
Na      56.15111141      35.78662414      29.55688535       0.04864828       0.05359910       0.00004595      -1.20907640
Na       1.11173049      43.15842566      29.08947341       0.03016010      -0.03767657      -0.01153946      -1.40401745
Na      51.84826676      49.90461295      55.37247625      -0.01780623      -0.02945603       0.02390422      -1.26923418
Na       3.56483393      25.58835822      31.42528332       0.02094271       0.01489689      -0.02420089      -1.20583665
Na      53.30680145      19.67957906      31.14359842       0.03070244       0.06943687      -0.01677326      -1.36267257
Na      33.24241578      46.64360728      42.33541412       0.04307478      -0.10990937       0.09728061      -1.14941180
Na      11.63740652      22.00215715      11.71456696      -0.00235094       0.02337045      -0.05063003      -1.13219202
Na      45.65516527       7.48373901      15.63055057      -0.06299037       0.07220124       0.02160566      -1.28227711
Na      33.97876151      20.20370228      17.97228952      -0.00364899      -0.06044880      -0.05624738      -1.26266932
Na      40.94152366       3.39881350      19.17250184       0.05183193      -0.02498332      -0.00118250      -1.35231125
Na      40.61185074       9.61492723       3.19554712      -0.03938970      -0.00174554       0.00325668      -1.30939102
Na      10.35222093      58.39382839       9.43803098       0.01040188      -0.00722412      -0.01942653      -1.23267531
Na       6.09796979       9.75096312      37.64736417      -0.05200765       0.02367763      -0.00341150      -1.16137552
Na      40.30075181       3.77374118      41.71077768       0.03829364      -0.01932573       0.02266899      -1.26007009
Na      44.04661559      26.16656704       3.37195962       0.05600228      -0.06824432       0.06978199      -1.25874722
Na      24.68401345      33.39216336       8.67791784       0.04610007       0.00819339       0.01244371      -1.28974581
Na      48.73743636       6.23523565      57.05603068      -0.06472363       0.00073514       0.03621950      -1.17976010
Na       0.18488616       3.28228970       1.02721743      -0.07000588      -0.03368163      -0.00028736      -1.20172453
Na       2.60316819      32.50827906       9.90847839       0.03860610       0.01011362       0.10221839      -1.11785519
Na       1.88597085      26.71193568      21.42924040       0.02281123      -0.02499525      -0.00832974      -1.14850020
Na       8.15157095      55.59439481      32.33939169      -0.03203044       0.00309855       0.01785372      -1.27845681
Na      40.84231409      29.19511949      42.80780017       0.04054184       0.01735948      -0.01854305      -1.30761075
Na      31.44970188      39.51925848      40.16084245      -0.09549759       0.01157894       0.08263370      -1.15354145
Na       8.52718066      45.56991154       5.80035544      -0.05022722       0.02754121      -0.02704166      -1.31728089
Na      14.28109817      15.68172479      25.71504885       0.00634113       0.02909893      -0.01019420      -1.21386254
Na       7.39869499      57.38387319      55.57950710      -0.00009651       0.00927482      -0.04414480      -1.13764095
Na      45.61854888      33.45855598       4.38853601      -0.03401751      -0.01453514      -0.08099930      -1.18394995
Na      48.68796834       1.44707249      32.33572338      -0.02771835       0.04031649       0.11050385      -1.05262303
Na      54.97401068      42.26893293      20.69759276       0.06882709      -0.03583734      -0.03663243      -1.16658878
Cl      48.01546491       3.61346426      20.02279028       0.03342158      -0.01742734      -0.19539233      -4.64189053
Cl      14.44878952      53.22361549      24.37302158      -0.02635965      -0.07383695       0.07197510      -4.74177217
Cl      44.65206087      50.21242649      49.48800036       0.03540041      -0.01320066      -0.02175144      -4.85831785
Cl      21.37086469      10.96986033      40.21031485      -0.02536197       0.02753767      -0.03309504      -4.54522419
Cl      48.00663841      52.02710090      31.58221519       0.01821110       0.06819508       0.01137579      -4.96493053
Cl       0.41452615      46.13741058      23.38982155       0.06327786       0.01054120      -0.02392308      -4.85111523
Cl      45.19191171      11.22060709       0.90341305      -0.01076336       0.00332084       0.00892351      -4.87589073
Cl      14.51930454      46.18465954      48.15368169      -0.01458173      -0.03003214       0.00493190      -4.84151173
Cl       5.41190749      51.36427693      50.56080702      -0.02091902       0.09018312       0.05276103      -4.75690842
Cl      39.31211605      50.44488978      39.13594995      -0.09906951       0.05827943      -0.02588449      -4.55963230
Cl      40.91385633       9.74305678      56.73010348       0.03956910      -0.01115325       0.03181254      -4.97570944
Cl      54.48306047      36.49521890      18.76081450      -0.01692335      -0.03058148      -0.05777631      -4.57716227
Cl      35.03602646      18.64961180      14.58520818      -0.05344350       0.01682251      -0.01334518      -4.72311926
Cl       5.95100985      40.42505981       0.98831331      -0.00932474      -0.01554061      -0.05776856      -5.00194836
Cl      24.95633720      46.01976838      14.56010590      -0.01604301      -0.02558050       0.02068077      -4.85765266
Cl      55.65897970      19.50983972      50.64989275       0.05525485       0.00725189       0.00430959      -4.64363766
Cl      32.74033053      26.93981552      56.35212515      -0.03439655       0.00955464      -0.00942398      -4.94810820
Cl      55.05822676      15.62383927      35.19059444       0.02062449      -0.01775223       0.02786859      -4.78875971
Cl       3.11228949      28.87244140      36.90860490       0.11854498       0.00534416      -0.10387117      -4.64776230
Cl      32.43838644      25.62674015       4.77339717      -0.05857112      -0.09004317      -0.03156556      -4.84191656
Cl      32.60560297      24.88406751       8.45046208      -0.09461484       0.07473279       0.05332378      -4.82332420
Cl      14.14394949      57.01800373      56.06112972       0.01935559       0.00837608      -0.01939532      -4.79641247
Cl      22.46224133      58.51251117      51.95155558      -0.02882898       0.03475615       0.05792498      -4.81339359
Cl      32.02568798      22.76466694      56.73668698      -0.04308953       0.02290249      -0.01253676      -4.92758322
Cl      27.22527502      33.86660410      46.03394512       0.06295454       0.01938695      -0.01610929      -4.87657595
Cl      36.99071051      47.88065708      51.06467998      -0.03180803      -0.02030636       0.04601336      -4.82362843
Cl      21.49017919      37.28612550      57.14205560      -0.00792969      -0.03409472      -0.03109668      -5.00510645
Cl       8.42119526      47.16686529      54.84758984       0.13624132       0.03111595       0.09161852      -4.95990753
Cl      41.00676215      31.02748221      25.42937696       0.02032884      -0.02408196      -0.00952232      -4.75998116
Cl       3.18233346      14.51591309      30.89345240       0.01848499       0.09663883      -0.02079695      -4.67535496
Cl      31.60285253       4.72172774       1.77442126       0.00295179       0.13775520      -0.01384401      -4.80300903
Cl      13.55978430      49.62385826      56.49158422      -0.04541241      -0.04145679       0.01244494      -4.81946230
Cl      36.49969832      35.58774862       3.11185916      -0.02402975      -0.00351457       0.01743300      -4.81551027
Cl      19.56899664      34.24080022      54.64879402       0.01308585      -0.02671717      -0.08996065      -4.66216421
Cl       9.10534837       2.92872705      18.11111467       0.02504721       0.03441115      -0.01548954      -4.83569050
Cl      36.44426310      44.00869934      28.77949410      -0.03850716      -0.01181346      -0.04123544      -4.89428568
Cl       4.67647641      16.04313255      25.41358375       0.01700246      -0.05977988       0.05505826      -4.91935968
Cl      45.74980634       5.74885342      23.59382881       0.01148138       0.00870508      -0.00762942      -4.83961773
Cl      26.25600461      55.96053417      52.33156539      -0.01791739      -0.03923197      -0.01069012      -4.79814625
Cl      42.53272637      43.17473263       1.07702805      -0.02823163       0.02329135       0.00666559      -4.68420458
Cl      53.74477571      20.51829632      28.42704841       0.03204959      -0.02405717       0.02910115      -4.96361732
Cl      14.38222271      42.51103289      20.08989429       0.00995493      -0.03825586       0.04537323      -4.88074875
Cl      23.89483800      39.05564266      30.66930970      -0.02380514      -0.00337193      -0.06114353      -4.73894405
Cl      43.02461574      22.99263056      45.36096757      -0.03644389       0.08659451       0.04950493      -4.85334969
Cl      28.36336111      24.25387989      34.32315009      -0.02562258      -0.02212658       0.06002683      -4.72941351
Cl       7.19434193      25.42378719       5.76692298      -0.06069089       0.06241582      -0.05240680      -4.69973087
Cl      53.91682565      27.68733445      11.90868847       0.00358375      -0.02350336      -0.01635167      -4.84757566
Cl      30.60483979      45.98611928      13.06493879      -0.03206272      -0.01596433       0.02384213      -4.74745417
Cl      10.80458927      26.98360899      47.45728708      -0.03397313       0.05366513      -0.05248050      -4.74267006
Cl      50.79460222      14.43360707      18.42072269       0.02410079       0.00081503       0.03615747      -4.90442038
Na      19.85482756      23.85287414      48.59714416       0.04488035      -0.01534405      -0.01146207      -1.18341935
Na      38.25806036      54.06737823      13.34875950      -0.00570241       0.00921640      -0.03679544      -1.27358627
Na      50.59389272       2.35205166      23.77186923      -0.05274471      -0.01803092       0.07178362      -1.25611758
Na      27.52006670      53.69416869       7.54956717      -0.02632540       0.01433833       0.01783705      -1.03911746
Na      52.71708978      44.70574115       1.85023848      -0.01849137       0.02868950      -0.00272918      -1.16594756
Na      42.82689530      25.45169383      58.28827679      -0.00343440      -0.01881553       0.05289976      -1.22163749
Na       0.80776542      36.24849407      55.02411694       0.07712729      -0.00875577      -0.01172938      -1.18864655
Na      28.86999601       4.68719450      36.90978540       0.06369043       0.02127312      -0.00262330      -1.24549615
Na      50.86062026       8.30837925      45.24685533       0.03503940      -0.01228558      -0.04374212      -1.32131648
Na       4.94719804      28.09458261      43.90073927      -0.01631047      -0.01363942      -0.01715457      -1.16918063
Na      32.81274303      43.00991658      39.47486085       0.03780289      -0.02663351      -0.07024104      -1.10307372
Na       4.44557821       5.35296573      22.47825781       0.08457237      -0.01693423      -0.04402269      -1.22851753
Na       5.09214745      54.00373868      13.04616814       0.00651168      -0.01314535      -0.05081966      -1.25594616
Na      50.01940254      13.21907193      35.43614730      -0.08964362       0.07088917       0.08429842      -1.16376090
Na      27.84747361      36.05647288       4.06202715       0.02695351       0.05512716       0.02226629      -1.38379812
Na      41.54403867      26.22525300      54.85512412       0.00822922      -0.04111957       0.01814090      -1.24673569
Na      37.75764921      20.82140015       5.54986832      -0.01099055      -0.09854469      -0.02999211      -1.30422831
Na      15.47484098       0.89740855      50.36125542      -0.00329416      -0.01597307      -0.00310725      -1.23727357
Na      42.13433933      14.73537319       3.65431897      -0.00926138      -0.02737769      -0.00991022      -1.24766612
Na      37.09431929      17.29259280      57.36348284      -0.00901791      -0.01542255       0.03860305      -1.24622595
Na      45.92520435       8.37035453      21.43058663       0.03741932      -0.08309489       0.06305173      -1.21957755
Na      56.15111141      35.78662423      44.18875227       0.04864991       0.05359760       0.00005068      -1.20907736
Na       1.11173057      43.15842572      43.72134057       0.03015747      -0.03767872      -0.01153816      -1.40401828
Na      51.84826710      49.90461313      11.47687464      -0.01780545      -0.02945525       0.02390215      -1.26923537
Na       3.56483388      25.58835811      46.05715040       0.02094428       0.01489872      -0.02420554      -1.20583713
Na      53.30680148      19.67957903      45.77546551       0.03070334       0.06943734      -0.01677594      -1.36267304
Na      33.24241569      46.64360718      56.96728128       0.04307489      -0.10990953       0.09728062      -1.14941025
Na      11.63740651      22.00215713      26.34643394      -0.00235058       0.02337140      -0.05062920      -1.13219166
Na      45.65516521       7.48373896      30.26241771      -0.06299080       0.07220118       0.02160764      -1.28227711
Na      33.97876148      20.20370218      32.60415657      -0.00364952      -0.06044903      -0.05624597      -1.26266956
Na      40.94152361       3.39881353      33.80436890       0.05183183      -0.02498211      -0.00117836      -1.35231149
Na      40.61185081       9.61492736      17.82741446      -0.03938797      -0.00174532       0.00325788      -1.30939078
Na      10.35222090      58.39382838      24.06989812       0.01040106      -0.00722416      -0.01942820      -1.23267555
Na       6.09796980       9.75096324      52.27923124      -0.05200782       0.02367720      -0.00341060      -1.16137576
Na      40.30075186       3.77374106      56.34264506       0.03829233      -0.01932305       0.02267100      -1.26007056
Na      44.04661572      26.16656705      18.00382685       0.05600160      -0.06824365       0.06978346      -1.25874710
Na      24.68401336      33.39216345      23.30978501       0.04609940       0.00819282       0.01244044      -1.28974581
Na      48.73743635       6.23523527      13.16042974      -0.06472266       0.00073636       0.03622073      -1.17976010
Na       0.18488596       3.28229018      15.65908454      -0.07000636      -0.03368157      -0.00028706      -1.20172465
Na       2.60316826      32.50827911      24.54034547       0.03860483       0.01011393       0.10221718      -1.11785519
Na       1.88597086      26.71193573      36.06110740       0.02280938      -0.02499349      -0.00832815      -1.14850032
Na       8.15157089      55.59439476      46.97125889      -0.03203063       0.00309785       0.01785068      -1.27845740
Na      40.84231398      29.19511951      57.43966794       0.04054339       0.01736091      -0.01854110      -1.30761039
Na      31.44970209      39.51925843      54.79270973      -0.09549656       0.01157840       0.08263469      -1.15354252
Na       8.52718056      45.56991148      20.43222277      -0.05022905       0.02754097      -0.02704265      -1.31728125
Na      14.28109813      15.68172481      40.34691583       0.00634304       0.02910011      -0.01019406      -1.21386254
Na       7.39869491      57.38387321      11.68390550      -0.00009619       0.00927396      -0.04414682      -1.13764095
Na      45.61854890      33.45855589      19.02040299      -0.03401710      -0.01453479      -0.08100010      -1.18394995
Na      48.68796824       1.44707224      46.96759041      -0.02771855       0.04031581       0.11050270      -1.05262327
Na      54.97401077      42.26893301      35.32945946       0.06882798      -0.03583946      -0.03662924      -1.16658819
Cl      48.01546505       3.61346427      34.65465741       0.03342235      -0.01742804      -0.19539236      -4.64189053
Cl      14.44878952      53.22361547      39.00488854      -0.02635994      -0.07383683       0.07197419      -4.74177122
Cl      44.65206072      50.21242636       5.59239880       0.03539792      -0.01320159      -0.02175597      -4.85831690
Cl      21.37086452      10.96986023      54.84218222      -0.02536327       0.02753896      -0.03309579      -4.54522324
Cl      48.00663835      52.02710090      46.21408206       0.01821198       0.06819658       0.01137802      -4.96493053
Cl       0.41452620      46.13741057      38.02168857       0.06327622       0.01053935      -0.02392805      -4.85111713
Cl      45.19191182      11.22060703      15.53528049      -0.01076320       0.00332049       0.00892324      -4.87589025
Cl      14.51930445      46.18465960       4.25808043      -0.01458256      -0.03003226       0.00493071      -4.84151268
Cl       5.41190749      51.36427686       6.66520589      -0.02091722       0.09018600       0.05275859      -4.75690842
Cl      39.31211614      50.44488957      53.76781746      -0.09907132       0.05827595      -0.02589289      -4.55963516
Cl      40.91385626       9.74305665      12.83450212       0.03956793      -0.01115070       0.03181019      -4.97570992
Cl      54.48306028      36.49521885      33.39268154      -0.01692356      -0.03058095      -0.05777770      -4.57716179
Cl      35.03602647      18.64961179      29.21707523      -0.05344332       0.01682241      -0.01334428      -4.72311974
Cl       5.95100999      40.42505991      15.62018086      -0.00932507      -0.01554120      -0.05776680      -5.00194740
Cl      24.95633721      46.01976856      29.19197289      -0.01604387      -0.02558212       0.02068267      -4.85765266
Cl      55.65897975      19.50983943       6.75429143       0.05525637       0.00725047       0.00429998      -4.64363718
Cl      32.74033017      26.93981527      12.45652350      -0.03439581       0.00955370      -0.00942699      -4.94810820
Cl      55.05822675      15.62383899      49.82246135       0.02062633      -0.01775104       0.02786905      -4.78875828
Cl       3.11228924      28.87244135      51.54047179       0.11854683       0.00534370      -0.10387006      -4.64776230
Cl      32.43838647      25.62673994      19.40526429      -0.05857160      -0.09004292      -0.03156206      -4.84191608
Cl      32.60560307      24.88406753      23.08232914      -0.09461583       0.07473254       0.05332565      -4.82332420
Cl      14.14394950      57.01800358      12.16552804       0.01935463       0.00837506      -0.01939365      -4.79641199
Cl      22.46224132      58.51251124       8.05595448      -0.02882822       0.03475649       0.05792491      -4.81339359
Cl      32.02568792      22.76466690      12.84108553      -0.04309021       0.02290190      -0.01253686      -4.92758417
Cl      27.22527489      33.86660377       2.13834393       0.06295456       0.01938514      -0.01610608      -4.87657690
Cl      36.99071057      47.88065708       7.16907845      -0.03180889      -0.02030598       0.04600940      -4.82362843
Cl      21.49017890      37.28612522      13.24645341      -0.00792862      -0.03409308      -0.03109469      -5.00510788
Cl       8.42119538      47.16686524      10.95198832       0.13624275       0.03111596       0.09162624      -4.95990705
Cl      41.00676215      31.02748225      40.06124418       0.02032922      -0.02408497      -0.00952587      -4.75998020
Cl       3.18233320      14.51591297      45.52531933       0.01848777       0.09663890      -0.02079862      -4.67535353
Cl      31.60285248       4.72172805      16.40628831       0.00295198       0.13775536      -0.01384437      -4.80300951
Cl      13.55978436      49.62385816      12.59598293      -0.04541302      -0.04145778       0.01244631      -4.81946278
Cl      36.49969797      35.58774856      17.74372675      -0.02402193      -0.00351215       0.01743336      -4.81551170
Cl      19.56899654      34.24079987      10.75319296       0.01308609      -0.02671750      -0.08996192      -4.66216326
Cl       9.10534837       2.92872699      32.74298211       0.02504708       0.03441132      -0.01548680      -4.83569050
Cl      36.44426299      44.00869926      43.41136113      -0.03850647      -0.01181269      -0.04123968      -4.89428425
Cl       4.67647627      16.04313256      40.04545096       0.01700364      -0.05977904       0.05505669      -4.91935921
Cl      45.74980634       5.74885341      38.22569602       0.01147946       0.00870612      -0.00763126      -4.83961868
Cl      26.25600465      55.96053402       8.43596439      -0.01791770      -0.03923143      -0.01069269      -4.79814672
Cl      42.53272655      43.17473236      15.70889557      -0.02823202       0.02329107       0.00666369      -4.68420601
Cl      53.74477569      20.51829629      43.05891534       0.03205077      -0.02405673       0.02910001      -4.96361732
Cl      14.38222264      42.51103262      34.72176129       0.00995652      -0.03825519       0.04537436      -4.88074780
Cl      23.89483807      39.05564257      45.30117679      -0.02380671      -0.00337189      -0.06114878      -4.73894119
Cl      43.02461570      22.99263039       1.46536606      -0.03644667       0.08659264       0.04950363      -4.85334969
Cl      28.36336109      24.25387987      48.95501663      -0.02562243      -0.02212770       0.06002558      -4.72941446
Cl       7.19434192      25.42378713      20.39879020      -0.06069126       0.06241616      -0.05240637      -4.69973087
Cl      53.91682550      27.68733445      26.54055548       0.00358406      -0.02350408      -0.01634969      -4.84757566
Cl      30.60483976      45.98611933      27.69680574      -0.03206272      -0.01596450       0.02384046      -4.74745417
Cl      10.80458923      26.98360854       3.56168591      -0.03397444       0.05366395      -0.05248178      -4.74266958
Cl      50.79460227      14.43360714      33.05258947       0.02410049       0.00081527       0.03615727      -4.90442038
Na      19.85482740      23.85287436       4.70154303       0.04488034      -0.01534539      -0.01145994      -1.18341970
Na      38.25806038      54.06737819      27.98062662      -0.00570197       0.00921582      -0.03679730      -1.27358580
Na      50.59389259       2.35205173      38.40373595      -0.05274433      -0.01803001       0.07178279      -1.25611734
Na      27.52006665      53.69416869      22.18143444      -0.02632409       0.01433786       0.01783521      -1.03911698
Na      52.71709003      44.70574083      16.48210607      -0.01849272       0.02868836      -0.00272708      -1.16594672
Na      42.82689535      25.45169385      14.39267506      -0.00343480      -0.01881487       0.05289935      -1.22163773
Na       0.80776536      36.24849407      11.12851546       0.07712770      -0.00875524      -0.01172982      -1.18864644
Na      28.86999596       4.68719459      51.54165213       0.06369186       0.02127147      -0.00262144      -1.24549580
Na      50.86061994       8.30837907       1.35125336       0.03504083      -0.01228652      -0.04373889      -1.32131577
Na       4.94719813      28.09458276       0.00513765      -0.01630926      -0.01363897      -0.01715686      -1.16918051
Na      32.81274316      43.00991648      54.10672816       0.03780257      -0.02663425      -0.07024077      -1.10307384
Na       4.44557833       5.35296574      37.11012467       0.08457367      -0.01693063      -0.04402440      -1.22851670
Na       5.09214740      54.00373874      27.67803513       0.00651236      -0.01314554      -0.05082157      -1.25594640
Na      50.01940257      13.21907185      50.06801441      -0.08964254       0.07089317       0.08429322      -1.16375947
Na      27.84747368      36.05647285      18.69389443       0.02695242       0.05512822       0.02226418      -1.38379788
Na      41.54403858      26.22525292      10.95952243       0.00822982      -0.04112202       0.01814628      -1.24673605
Na      37.75764921      20.82140021      20.18173563      -0.01099056      -0.09854507      -0.02999377      -1.30422831
Na      15.47484067       0.89740837       6.46565401      -0.00329411      -0.01597337      -0.00310545      -1.23727334
Na      42.13433940      14.73537328      18.28618620      -0.00926103      -0.02737884      -0.00991021      -1.24766648
Na      37.09431911      17.29259282      13.46788132      -0.00901807      -0.01542220       0.03860181      -1.24622560
Na      45.92520437       8.37035457      36.06245366       0.03741895      -0.08309606       0.06305137      -1.21957850
Na      56.15111149      35.78662398       0.29315049       0.04864983       0.05359813       0.00004560      -1.20907724
Na       1.11173067      43.15842590      58.35320812       0.03015499      -0.03767749      -0.01153501      -1.40401804
Na      51.84826698      49.90461311      26.10874160      -0.01780488      -0.02945468       0.02390217      -1.26923466
Na       3.56483366      25.58835826       2.16154879       0.02094346       0.01489765      -0.02420053      -1.20583689
Na      53.30680159      19.67957901       1.87986366       0.03070222       0.06943647      -0.01677293      -1.36267292
Na      33.24241574      46.64360736      13.07168025       0.04307708      -0.10990945       0.09727809      -1.14941084
Na      11.63740642      22.00215711      40.97830098      -0.00235561       0.02336781      -0.05063458      -1.13219166
Na      45.65516521       7.48373898      44.89428465      -0.06299099       0.07220249       0.02160875      -1.28227770
Na      33.97876155      20.20370223      47.23602348      -0.00364928      -0.06044913      -0.05624578      -1.26266956
Na      40.94152367       3.39881352      48.43623565       0.05183159      -0.02498381      -0.00118584      -1.35231137
Na      40.61185095       9.61492742      32.45928170      -0.03938917      -0.00174538       0.00325628      -1.30939090
Na      10.35222080      58.39382839      38.70176500       0.01040369      -0.00722366      -0.01942362      -1.23267508
Na       6.09796982       9.75096316       8.38363030      -0.05200799       0.02367650      -0.00341031      -1.16137576
Na      40.30075186       3.77374104      12.44704370       0.03829412      -0.01932430       0.02266702      -1.26007032
Na      44.04661568      26.16656710      32.63569404       0.05600109      -0.06824539       0.06978406      -1.25874782
Na      24.68401348      33.39216338      37.94165198       0.04609963       0.00819411       0.01244557      -1.28974533
Na      48.73743638       6.23523528      27.79229673      -0.06472255       0.00073573       0.03621871      -1.17975962
Na       0.18488594       3.28229012      30.29095159      -0.07000590      -0.03368058      -0.00028719      -1.20172453
Na       2.60316805      32.50827912      39.17221232       0.03860714       0.01011239       0.10222067      -1.11785436
Na       1.88597096      26.71193581      50.69297465       0.02280970      -0.02499354      -0.00832650      -1.14849997
Na       8.15157107      55.59439469       3.07565739      -0.03203221       0.00309864       0.01785206      -1.27845740
Na      40.84231415      29.19511963      13.54406621       0.04054218       0.01735898      -0.01854564      -1.30761003
Na      31.44970189      39.51925853      10.89710861      -0.09549882       0.01157453       0.08263416      -1.15354204
Na       8.52718062      45.56991157      35.06408929      -0.05022655       0.02754224      -0.02704466      -1.31728053
Na      14.28109813      15.68172477      54.97878316       0.00634127       0.02909794      -0.01018937      -1.21386206
Na       7.39869490      57.38387329      26.31577257      -0.00009644       0.00927365      -0.04414809      -1.13764107
Na      45.61854893      33.45855596      33.65226975      -0.03401642      -0.01453494      -0.08100201      -1.18394995
Na      48.68796783       1.44707197       3.07198944      -0.02771850       0.04031622       0.11050325      -1.05262339
Na      54.97401083      42.26893294      49.96132694       0.06882820      -0.03583840      -0.03662897      -1.16658902
Cl      48.01546488       3.61346427      49.28652432       0.03342252      -0.01742842      -0.19539209      -4.64189005
Cl      14.44878976      53.22361537      53.63675564      -0.02636034      -0.07383750       0.07197347      -4.74177122
Cl      44.65206076      50.21242647      20.22426611       0.03539810      -0.01320208      -0.02175559      -4.85831785
Cl      21.37086474      10.96986029      10.94658087      -0.02536221       0.02753824      -0.03309543      -4.54522276
Cl      48.00663814      52.02710093       2.31848116       0.01821111       0.06819603       0.01137549      -4.96493053
Cl       0.41452614      46.13741051      52.65355587       0.06327773       0.01054210      -0.02392466      -4.85111570
Cl      45.19191193      11.22060699      30.16714749      -0.01076290       0.00332039       0.00892442      -4.87589121
Cl      14.51930466      46.18465944      18.88994776      -0.01458253      -0.03003130       0.00493108      -4.84151268
Cl       5.41190747      51.36427689      21.29707306      -0.02091822       0.09018608       0.05275632      -4.75690937
Cl      39.31211592      50.44488970       9.87221619      -0.09907146       0.05827719      -0.02588962      -4.55963326
Cl      40.91385606       9.74305667      27.46636909       0.03956861      -0.01115162       0.03180908      -4.97570992
Cl      54.48306034      36.49521879      48.02454865      -0.01692263      -0.03058187      -0.05777652      -4.57716179
Cl      35.03602634      18.64961178      43.84894220      -0.05344297       0.01682309      -0.01334386      -4.72311926
Cl       5.95100985      40.42505991      30.25204782      -0.00932368      -0.01554007      -0.05776829      -5.00194883
Cl      24.95633709      46.01976875      43.82384026      -0.01604375      -0.02558048       0.02067822      -4.85765076
Cl      55.65897976      19.50983947      21.38615834       0.05525488       0.00725194       0.00430426      -4.64363766
Cl      32.74033015      26.93981526      27.08839063      -0.03439515       0.00955273      -0.00942450      -4.94810820
Cl      55.05822677      15.62383902       5.92686032       0.02062649      -0.01775143       0.02786582      -4.78875828
Cl       3.11228936      28.87244138       7.64487048       0.11854391       0.00534385      -0.10387577      -4.64776182
Cl      32.43838634      25.62673986      34.03713122      -0.05856896      -0.09004288      -0.03156890      -4.84191608
Cl      32.60560306      24.88406759      37.71419650      -0.09461498       0.07473267       0.05332712      -4.82332420
Cl      14.14394949      57.01800365      26.79739490       0.01935425       0.00837380      -0.01939418      -4.79641199
Cl      22.46224131      58.51251127      22.68782166      -0.02882794       0.03475686       0.05792524      -4.81339169
Cl      32.02568778      22.76466687      27.47295246      -0.04309077       0.02290132      -0.01253619      -4.92758465
Cl      27.22527504      33.86660395      16.77021118       0.06295369       0.01938405      -0.01610306      -4.87657690
Cl      36.99071052      47.88065701      21.80094569      -0.03180829      -0.02030507       0.04600991      -4.82362843
Cl      21.49017893      37.28612526      27.87832038      -0.00792842      -0.03409218      -0.03109392      -5.00510836
Cl       8.42119547      47.16686525      25.58385520       0.13624229       0.03111608       0.09162818      -4.95990658
Cl      41.00676206      31.02748238      54.69311128       0.02033484      -0.02408416      -0.00952384      -4.75998068
Cl       3.18233325      14.51591289       1.62971771       0.01848629       0.09663855      -0.02080020      -4.67535353
Cl      31.60285237       4.72172799      31.03815523       0.00295393       0.13775624      -0.01384129      -4.80300999
Cl      13.55978423      49.62385818      27.22784978      -0.04541183      -0.04145760       0.01244562      -4.81946373
Cl      36.49969812      35.58774861      32.37559365      -0.02402966      -0.00351385       0.01743103      -4.81551075
Cl      19.56899643      34.24079992      25.38506010       0.01308618      -0.02671828      -0.08995981      -4.66216421
Cl       9.10534847       2.92872701      47.37484876       0.02504674       0.03441260      -0.01548267      -4.83569002
Cl      36.44426322      44.00869940      58.04322900      -0.03850719      -0.01181297      -0.04123779      -4.89428425
Cl       4.67647609      16.04313268      54.67731756       0.01700417      -0.05977925       0.05505721      -4.91935921
Cl      45.74980627       5.74885343      52.85756268       0.01147937       0.00870511      -0.00763006      -4.83961725
Cl      26.25600463      55.96053410      23.06783152      -0.01791708      -0.03923159      -0.01069157      -4.79814768
Cl      42.53272651      43.17473234      30.34076261      -0.02823098       0.02329062       0.00666438      -4.68420601
Cl      53.74477573      20.51829636      57.69078313       0.03205172      -0.02405776       0.02909719      -4.96361542
Cl      14.38222262      42.51103258      49.35362804       0.00995570      -0.03825253       0.04537809      -4.88074970
Cl      23.89483801      39.05564272       1.40557514      -0.02380484      -0.00337084      -0.06114388      -4.73894310
Cl      43.02461577      22.99263062      16.09723364      -0.03644383       0.08659494       0.04950509      -4.85335064
Cl      28.36336110      24.25387979       5.05941567      -0.02562232      -0.02212777       0.06002751      -4.72941399
Cl       7.19434183      25.42378713      35.03065719      -0.06068886       0.06241655      -0.05240508      -4.69973183
Cl      53.91682547      27.68733442      41.17242264       0.00358440      -0.02350414      -0.01635428      -4.84757519
Cl      30.60483977      45.98611925      42.32867283      -0.03206457      -0.01596429       0.02384059      -4.74745321
Cl      10.80458930      26.98360902      18.19355321      -0.03397442       0.05366373      -0.05248658      -4.74267054
Cl      50.79460221      14.43360712      47.68445649       0.02410037       0.00081318       0.03616121      -4.90441942
Na      19.85482753      38.48474159      19.33341003       0.04488054      -0.01534813      -0.01146258      -1.18342042
Na      38.25806024      10.17177748      42.61249349      -0.00570329       0.00921753      -0.03679134      -1.27358699
Na      50.59389268      16.98391901      53.03560332      -0.05274179      -0.01802974       0.07178597      -1.25611687
Na      27.52006720       9.79856738      36.81330130      -0.02632478       0.01433853       0.01783654      -1.03911650
Na      52.71708965       0.81013958      31.11397343      -0.01849068       0.02869093      -0.00272862      -1.16594732
Na      42.82689506      40.08356076      29.02454181      -0.00343494      -0.01881602       0.05289889      -1.22163749
Na       0.80776551      50.88036104      25.76038233       0.07712771      -0.00875497      -0.01173060      -1.18864715
Na      28.86999600      19.31906197       7.64605139       0.06369108       0.02127214      -0.00262000      -1.24549627
Na      50.86062026      22.94024606      15.98312120       0.03504195      -0.01228761      -0.04373906      -1.32131600
Na       4.94719799      42.72644967      14.63700543      -0.01631329      -0.01363442      -0.01715677      -1.16918063
Na      32.81274276      57.64178501      10.21112721       0.03780582      -0.02662547      -0.07024013      -1.10307372
Na       4.44557847      19.98483311      51.74199185       0.08457141      -0.01693422      -0.04402362      -1.22851777
Na       5.09214753      10.10813747      42.30990226       0.00651177      -0.01314426      -0.05081855      -1.25594652
Na      50.01940265      27.85093894       6.17241321      -0.08964333       0.07089159       0.08429516      -1.16376007
Na      27.84747382      50.68833969      33.32576138       0.02695500       0.05512842       0.02226750      -1.38379776
Na      41.54403857      40.85711981      25.59138952       0.00822949      -0.04112467       0.01814822      -1.24673557
Na      37.75764916      35.45326725      34.81360276      -0.01098874      -0.09854236      -0.02999192      -1.30422950
Na      15.47484118      15.52927651      21.09752079      -0.00329372      -0.01597534      -0.00310492      -1.23727369
Na      42.13433939      29.36724030      32.91805323      -0.00926036      -0.02737856      -0.00991054      -1.24766636
Na      37.09431909      31.92445965      28.09974847      -0.00901666      -0.01541844       0.03859888      -1.24622607
Na      45.92520428      23.00222139      50.69432071       0.03741866      -0.08309819       0.06305171      -1.21957755
Na      56.15111132      50.41849113      14.92501829       0.04864763       0.05359894       0.00004626      -1.20907676
Na       1.11173039      57.79029347      14.45760653       0.03015855      -0.03767961      -0.01153816      -1.40401733
Na      51.84826701       6.00901202      40.74060901      -0.01780865      -0.02945492       0.02390442      -1.26923537
Na       3.56483390      40.22022514      16.79341617       0.02094381       0.01489609      -0.02420288      -1.20583653
Na      53.30680147      34.31144618      16.51173130       0.03070381       0.06943612      -0.01677484      -1.36267257
Na      33.24241573       2.74800625      27.70354722       0.04307806      -0.10990633       0.09728060      -1.14941120
Na      11.63740627      36.63402400      55.61016844      -0.00235036       0.02336451      -0.05063121      -1.13219237
Na      45.65516537      22.11560578       0.99868360      -0.06299036       0.07220077       0.02160588      -1.28227735
Na      33.97876149      34.83556933       3.34042287      -0.00364666      -0.06044460      -0.05624670      -1.26266932
Na      40.94152369      18.03068108       4.54063464       0.05183132      -0.02498279      -0.00118109      -1.35231113
Na      40.61185089      24.24679445      47.09114867      -0.03938802      -0.00174484       0.00325676      -1.30939043
Na      10.35222096      14.49822671      53.33363219       0.01040205      -0.00722468      -0.01942840      -1.23267496
Na       6.09796976      24.38283015      23.01549733      -0.05200611       0.02367686      -0.00340986      -1.16137612
Na      40.30075188      18.40560854      27.07891070       0.03829478      -0.01932614       0.02266616      -1.26006985
Na      44.04661559      40.79843436      47.26756126       0.05600220      -0.06824799       0.06978011      -1.25874698
Na      24.68401350      48.02403013      52.57351918       0.04610115       0.00819276       0.01243923      -1.28974485
Na      48.73743627      20.86710263      42.42416347      -0.06471497       0.00073567       0.03622093      -1.17976046
Na       0.18488597      17.91415737      44.92281877      -0.07000667      -0.03368273      -0.00028701      -1.20172596
Na       2.60316831      47.14014603      53.80407925       0.03860437       0.01011024       0.10221644      -1.11785507
Na       1.88597095      41.34380275       6.79737311       0.02280950      -0.02500333      -0.00832782      -1.14850020
Na       8.15157039      11.69879348      17.70752490      -0.03202983       0.00309902       0.01785052      -1.27845693
Na      40.84231414      43.82698686      28.17593327       0.04054208       0.01735501      -0.01854663      -1.30760968
Na      31.44970204      54.15112604      25.52897546      -0.09549798       0.01157460       0.08263713      -1.15354145
Na       8.52718078       1.67430951      49.69595700      -0.05022723       0.02754532      -0.02704433      -1.31728077
Na      14.28109819      30.31359183      11.08318173       0.00634033       0.02909971      -0.01019237      -1.21386242
Na       7.39869475      13.48827253      40.94763896      -0.00009779       0.00927301      -0.04414745      -1.13764167
Na      45.61854912      48.09042310      48.28413703      -0.03401755      -0.01453953      -0.08100434      -1.18395090
Na      48.68796877      16.07893996      17.70385713      -0.02771872       0.04031585       0.11050231      -1.05262375
Na      54.97401154      56.90080103       6.06572542       0.06882711      -0.03584949      -0.03662609      -1.16658914
Cl      48.01546480      18.24533126       5.39092322       0.03342330      -0.01742942      -0.19539064      -4.64189053
Cl      14.44878968       9.32801418       9.74115442      -0.02635954      -0.07383986       0.07197605      -4.74177170
Cl      44.65206083       6.31682558      34.85613300       0.03539819      -0.01320358      -0.02175540      -4.85831738
Cl      21.37086477      25.60172739      25.57844796      -0.02536257       0.02754018      -0.03309437      -4.54522133
Cl      48.00663841       8.13149986      16.95034817       0.01820932       0.06818906       0.01137592      -4.96493053
Cl       0.41452597       2.24180921       8.75795431       0.06327876       0.01054040      -0.02392722      -4.85111523
Cl      45.19191222      25.85247392      44.79901454      -0.01076331       0.00332047       0.00892448      -4.87588978
Cl      14.51930484       2.28905865      33.52181474      -0.01458719      -0.03003989       0.00493008      -4.84151125
Cl       5.41190755       7.46867597      35.92894047      -0.02091894       0.09018218       0.05276100      -4.75690842
Cl      39.31211582       6.54928824      24.50408307      -0.09907335       0.05827763      -0.02589165      -4.55963469
Cl      40.91385619      24.37492341      42.09823592       0.03956963      -0.01115143       0.03181020      -4.97570944
Cl      54.48306021      51.12708571       4.12894777      -0.01692414      -0.03058015      -0.05777909      -4.57716274
Cl      35.03602644      33.28147945      -0.04666072      -0.05344313       0.01682557      -0.01334296      -4.72311878
Cl       5.95101004      55.05692705      44.88391474      -0.00932997      -0.01553530      -0.05776816      -5.00194454
Cl      24.95633712       2.12416730      -0.07176220      -0.01604263      -0.02558660       0.02068205      -4.85765076
Cl      55.65897985      34.14170649      36.01802540       0.05525709       0.00725049       0.00430379      -4.64363718
Cl      32.74033012      41.57168256      41.72025745      -0.03439822       0.00955404      -0.00942770      -4.94810867
Cl      55.05822676      30.25570603      20.55872746       0.02062603      -0.01775409       0.02786645      -4.78875828
Cl       3.11228934      43.50430832      22.27673749       0.11854833       0.00535222      -0.10387449      -4.64776278
Cl      32.43838658      40.25860673      48.66899822      -0.05857111      -0.09004161      -0.03156444      -4.84191656
Cl      32.60560323      39.51593431      52.34606314      -0.09461492       0.07473491       0.05332746      -4.82332373
Cl      14.14394958      13.12240190      41.42926213       0.01935712       0.00837464      -0.01938917      -4.79641247
Cl      22.46224115      14.61690923      37.31968894      -0.02882542       0.03475872       0.05792455      -4.81339312
Cl      32.02568792      37.39653358      42.10481961      -0.04309054       0.02290438      -0.01253859      -4.92758560
Cl      27.22527490      48.49847088      31.40207828       0.06295364       0.01938722      -0.01610599      -4.87657881
Cl      36.99071052       3.98505577      36.43281278      -0.03180900      -0.02030527       0.04600905      -4.82362700
Cl      21.49017889      51.91799238      42.51018755      -0.00793001      -0.03409332      -0.03109845      -5.00510740
Cl       8.42119554       3.27126430      40.21572226       0.13624132       0.03111724       0.09162582      -4.95990658
Cl      41.00676201      45.65934914      10.79751009       0.02032759      -0.02407865      -0.00952254      -4.75998068
Cl       3.18233327      29.14777987      16.26158523       0.01848829       0.09664189      -0.02079522      -4.67535400
Cl      31.60285237      19.35359525      45.67002220       0.00295188       0.13775495      -0.01384088      -4.80300903
Cl      13.55978441       5.72825702      41.85971707      -0.04540900      -0.04145429       0.01244238      -4.81946468
Cl      36.49969825      50.21961572      47.00746092      -0.02402736      -0.00351278       0.01743307      -4.81551218
Cl      19.56899649      48.87266699      40.01692755       0.01308678      -0.02671671      -0.08996113      -4.66216469
Cl       9.10534878      17.56059406       3.47924714       0.02504658       0.03441249      -0.01548946      -4.83569050
Cl      36.44426307      58.64056757      14.14762701      -0.03850913      -0.01181958      -0.04123724      -4.89428663
Cl       4.67647646      30.67499952      10.78171660       0.01700398      -0.05977834       0.05505911      -4.91935968
Cl      45.74980626      20.38072056       8.96196168       0.01148315       0.00870545      -0.00763183      -4.83961821
Cl      26.25600454      12.06493241      37.69969872      -0.01791851      -0.03923245      -0.01069447      -4.79814959
Cl      42.53272622      57.80659981      44.97262964      -0.02822981       0.02329126       0.00666279      -4.68420553
Cl      53.74477579      35.15016363      13.79518141       0.03204229      -0.02405282       0.02909992      -4.96361732
Cl      14.38222288      57.14290022       5.45802671       0.00995478      -0.03825409       0.04537246      -4.88074923
Cl      23.89483783      53.68750987      16.03744263      -0.02380632      -0.00337929      -0.06114643      -4.73894215
Cl      43.02461597      37.62449790      30.72910060      -0.03644433       0.08659516       0.04950315      -4.85335064
Cl      28.36336119      38.88574659      19.69128294      -0.02562274      -0.02212528       0.06002888      -4.72941351
Cl       7.19434188      40.05565433      49.66252438      -0.06069019       0.06242669      -0.05240300      -4.69972992
Cl      53.91682543      42.31920174      55.80428985       0.00358255      -0.02350621      -0.01635063      -4.84757662
Cl      30.60483972       2.09051793      56.96054114      -0.03206234      -0.01596477       0.02384389      -4.74745321
Cl      10.80458937      41.61547606      32.82542005      -0.03397546       0.05366686      -0.05248133      -4.74267054
Cl      50.79460228      29.06547406       3.78885519       0.02410109       0.00081547       0.03615772      -4.90441990
Na      19.85482767      38.48474158      33.96527712       0.04487832      -0.01534639      -0.01146488      -1.18342054
Na      38.25806041      10.17177729      57.24436157      -0.00570304       0.00921728      -0.03679608      -1.27358615
Na      50.59389262      16.98391908       9.14000194      -0.05274309      -0.01803153       0.07178420      -1.25611734
Na      27.52006716       9.79856755      51.44516880      -0.02632428       0.01433970       0.01783923      -1.03911662
Na      52.71708971       0.81013967      45.74584044      -0.01849035       0.02868886      -0.00273129      -1.16594791
Na      42.82689499      40.08356078      43.65640874      -0.00343630      -0.01881632       0.05289926      -1.22163820
Na       0.80776546      50.88036108      40.39224922       0.07712686      -0.00875427      -0.01173011      -1.18864691
Na      28.86999596      19.31906207      22.27791830       0.06369194       0.02127085      -0.00262018      -1.24549627
Na      50.86062024      22.94024613      30.61498834       0.03504140      -0.01228995      -0.04373823      -1.32131588
Na       4.94719802      42.72644967      29.26887241      -0.01630934      -0.01363149      -0.01715913      -1.16918039
Na      32.81274284      57.64178509      24.84299409       0.03780597      -0.02662438      -0.07024284      -1.10307360
Na       4.44557830      19.98483290       7.84639076       0.08457125      -0.01693489      -0.04402135      -1.22851706
Na       5.09214739      10.10813782      56.94176960       0.00651320      -0.01314595      -0.05081868      -1.25594676
Na      50.01940250      27.85093890      20.80428040      -0.08964305       0.07089254       0.08429430      -1.16376007
Na      27.84747389      50.68833969      47.95762836       0.02695163       0.05512724       0.02226309      -1.38379812
Na      41.54403856      40.85711968      40.22325658       0.00823081      -0.04112493       0.01815413      -1.24673557
Na      37.75764908      35.45326725      49.44546963      -0.01098808      -0.09854192      -0.02999292      -1.30422914
Na      15.47484121      15.52927652      35.72938791      -0.00329322      -0.01597813      -0.00311120      -1.23727381
Na      42.13433936      29.36724035      47.54992029      -0.00926072      -0.02737726      -0.00990985      -1.24766695
Na      37.09431925      31.92445984      42.73161513      -0.00901547      -0.01541869       0.03859648      -1.24622607
Na      45.92520434      23.00222145       6.79871969       0.03741840      -0.08309659       0.06305242      -1.21957803
Na      56.15111141      50.41849114      29.55688521       0.04864961       0.05359923       0.00004692      -1.20907640
Na       1.11173030      57.79029343      29.08947355       0.03015835      -0.03767897      -0.01153851      -1.40401721
Na      51.84826717       6.00901185      55.37247631      -0.01780650      -0.02945526       0.02390458      -1.26923430
Na       3.56483385      40.22022519      31.42528331       0.02094382       0.01489525      -0.02419710      -1.20583653
Na      53.30680149      34.31144593      31.14359847       0.03070275       0.06943619      -0.01677325      -1.36267281
Na      33.24241568       2.74800612      42.33541404       0.04307614      -0.10990854       0.09727745      -1.14941120
Na      11.63740649      36.63402388      11.71456689      -0.00235138       0.02336572      -0.05063324      -1.13219249
Na      45.65516522      22.11560598      15.63055068      -0.06298957       0.07220111       0.02160632      -1.28227735
Na      33.97876168      34.83556922      17.97228960      -0.00365589      -0.06044654      -0.05624708      -1.26266932
Na      40.94152361      18.03068107      19.17250187       0.05183080      -0.02498477      -0.00118241      -1.35231125
Na      40.61185080      24.24679441       3.19554697      -0.03938929      -0.00174611       0.00325741      -1.30939043
Na      10.35222096      14.49822679       9.43803087       0.01040138      -0.00722332      -0.01942760      -1.23267555
Na       6.09796973      24.38283008      37.64736417      -0.05200732       0.02367730      -0.00341115      -1.16137552
Na      40.30075190      18.40560847      41.71077755       0.03829306      -0.01932598       0.02266931      -1.26007032
Na      44.04661556      40.79843421       3.37195964       0.05600179      -0.06824686       0.06978172      -1.25874722
Na      24.68401338      48.02403020       8.67791770       0.04610028       0.00819278       0.01244340      -1.28974533
Na      48.73743631      20.86710277      57.05603063      -0.06472392       0.00073519       0.03621949      -1.17976058
Na       0.18488618      17.91415688       1.02721769      -0.07000572      -0.03368168      -0.00028717      -1.20172572
Na       2.60316823      47.14014616       9.90847823       0.03860359       0.01011107       0.10221805      -1.11785471
Na       1.88597101      41.34380291      21.42924058       0.02280945      -0.02500438      -0.00833166      -1.14850080
Na       8.15157042      11.69879333      32.33939171      -0.03202900       0.00309836       0.01784898      -1.27845669
Na      40.84231403      43.82698654      42.80780021       0.04054298       0.01735622      -0.01854448      -1.30761099
Na      31.44970206      54.15112607      40.16084242      -0.09549877       0.01157617       0.08263584      -1.15354180
Na       8.52718087       1.67430955       5.80035555      -0.05022801       0.02754428      -0.02704154      -1.31728125
Na      14.28109817      30.31359168      25.71504887       0.00634076       0.02910043      -0.01019377      -1.21386242
Na       7.39869467      13.48827235      55.57950655      -0.00009754       0.00927175      -0.04414621      -1.13764167
Na      45.61854882      48.09042317       4.38853603      -0.03401865      -0.01453793      -0.08100045      -1.18395042
Na      48.68796881      16.07893993      32.33572408      -0.02771892       0.04031636       0.11050250      -1.05262434
Na      54.97401148      56.90080115      20.69759264       0.06882768      -0.03584786      -0.03662291      -1.16658926
Cl      48.01546483      18.24533123      20.02279015       0.03342194      -0.01742793      -0.19539112      -4.64189053
Cl      14.44878963       9.32801420      24.37302148      -0.02635975      -0.07384049       0.07197644      -4.74177217
Cl      44.65206098       6.31682551      49.48800032       0.03539944      -0.01320494      -0.02175440      -4.85831833
Cl      21.37086474      25.60172741      40.21031493      -0.02536234       0.02753906      -0.03309633      -4.54522276
Cl      48.00663850       8.13149986      31.58221526       0.01821055       0.06819009       0.01137643      -4.96492958
Cl       0.41452598       2.24180927      23.38982152       0.06327897       0.01053950      -0.02392640      -4.85111475
Cl      45.19191182      25.85247396       0.90341307      -0.01076401       0.00332031       0.00892403      -4.87589121
Cl      14.51930479       2.28905864      48.15368174      -0.01458508      -0.03004024       0.00493183      -4.84151125
Cl       5.41190758       7.46867575      50.56080733      -0.02091851       0.09018467       0.05275955      -4.75690842
Cl      39.31211595       6.54928838      39.13594990      -0.09907044       0.05827954      -0.02588472      -4.55963326
Cl      40.91385618      24.37492356      56.73010349       0.03956844      -0.01115197       0.03181272      -4.97570992
Cl      54.48306037      51.12708544      18.76081477      -0.01692466      -0.03058069      -0.05777751      -4.57716274
Cl      35.03602641      33.28147910      14.58520814      -0.05344200       0.01682458      -0.01334309      -4.72311878
Cl       5.95100986      55.05692672       0.98831324      -0.00932670      -0.01553747      -0.05777021      -5.00194645
Cl      24.95633712       2.12416707      14.56010599      -0.01604345      -0.02558653       0.02068164      -4.85765171
Cl      55.65897964      34.14170661      50.64989267       0.05525439       0.00725032       0.00430826      -4.64363718
Cl      32.74033054      41.57168257      56.35212516      -0.03439743       0.00955527      -0.00942560      -4.94810724
Cl      55.05822678      30.25570610      35.19059446       0.02062437      -0.01775463       0.02786913      -4.78875971
Cl       3.11228941      43.50430830      36.90860486       0.11854695       0.00535306      -0.10387156      -4.64776325
Cl      32.43838652      40.25860706       4.77339724      -0.05857198      -0.09004107      -0.03156579      -4.84191608
Cl      32.60560299      39.51593432       8.45046208      -0.09461814       0.07473607       0.05332502      -4.82332468
Cl      14.14394955      13.12240191      56.06112980       0.01935576       0.00837657      -0.01939228      -4.79641438
Cl      22.46224118      14.61690938      51.95155550      -0.02882860       0.03475977       0.05792645      -4.81339312
Cl      32.02568807      37.39653373      56.73668691      -0.04308922       0.02290412      -0.01253635      -4.92758369
Cl      27.22527485      48.49847087      46.03394529       0.06295344       0.01938887      -0.01610937      -4.87657690
Cl      36.99071060       3.98505576      51.06468005      -0.03180727      -0.02030559       0.04601283      -4.82362652
Cl      21.49017894      51.91799286      57.14205563      -0.00793048      -0.03409305      -0.03109753      -5.00510693
Cl       8.42119539       3.27126428      54.84758972       0.13624054       0.03111596       0.09161872      -4.95990705
Cl      41.00676200      45.65934911      25.42937692       0.02032871      -0.02407801      -0.00952093      -4.75998068
Cl       3.18233329      29.14777989      30.89345227       0.01848567       0.09663951      -0.02079520      -4.67535496
Cl      31.60285247      19.35359506       1.77442114       0.00295246       0.13775493      -0.01384266      -4.80300903
Cl      13.55978423       5.72825716      56.49158424      -0.04541026      -0.04145402       0.01244371      -4.81946278
Cl      36.49969817      50.21961565       3.11185917      -0.02402662      -0.00351237       0.01743390      -4.81551075
Cl      19.56899654      48.87266721      54.64879414       0.01308675      -0.02671726      -0.08996172      -4.66216516
Cl       9.10534871      17.56059439      18.11111470       0.02504713       0.03441329      -0.01548837      -4.83569145
Cl      36.44426304      58.64056745      28.77949392      -0.03851005      -0.01182003      -0.04123608      -4.89428663
Cl       4.67647644      30.67499950      25.41358374       0.01700414      -0.05977833       0.05505956      -4.91936016
Cl      45.74980630      20.38072054      23.59382863       0.01148184       0.00870559      -0.00763079      -4.83961773
Cl      26.25600435      12.06493275      52.33156536      -0.01791567      -0.03923379      -0.01068732      -4.79814816
Cl      42.53272626      57.80659997       1.07702814      -0.02823151       0.02329137       0.00666557      -4.68420506
Cl      53.74477576      35.15016361      28.42704840       0.03204912      -0.02405360       0.02910208      -4.96361732
Cl      14.38222286      57.14290018      20.08989411       0.00995561      -0.03825428       0.04537339      -4.88074875
Cl      23.89483772      53.68750983      30.66930942      -0.02380569      -0.00337852      -0.06114331      -4.73894215
Cl      43.02461596      37.62449788      45.36096774      -0.03644476       0.08659506       0.04949982      -4.85334969
Cl      28.36336111      38.88574657      34.32315008      -0.02562259      -0.02212444       0.06002440      -4.72941208
Cl       7.19434183      40.05565443       5.76692307      -0.06068979       0.06242661      -0.05240647      -4.69972992
Cl      53.91682544      42.31920163      11.90868850       0.00358423      -0.02350565      -0.01635035      -4.84757614
Cl      30.60483961       2.09051799      13.06493898      -0.03206208      -0.01596538       0.02384408      -4.74745321
Cl      10.80458931      41.61547618      47.45728731      -0.03397403       0.05366827      -0.05248062      -4.74267101
Cl      50.79460226      29.06547395      18.42072269       0.02410048       0.00081622       0.03615817      -4.90441990
Na      19.85482759      38.48474156      48.59714404       0.04487901      -0.01534638      -0.01146466      -1.18341994
Na      38.25806030      10.17177736      13.34875958      -0.00570295       0.00921730      -0.03679561      -1.27358603
Na      50.59389263      16.98391915      23.77186903      -0.05274320      -0.01803153       0.07178143      -1.25611687
Na      27.52006712       9.79856744       7.54956716      -0.02632429       0.01433837       0.01783699      -1.03911662
Na      52.71708941       0.81013990       1.85023862      -0.01849100       0.02868987      -0.00272899      -1.16594756
Na      42.82689525      40.08356078      58.28827675      -0.00343499      -0.01881645       0.05289968      -1.22163773
Na       0.80776545      50.88036116      55.02411672       0.07712755      -0.00875533      -0.01172966      -1.18864751
Na      28.86999586      19.31906190      36.90978536       0.06368961       0.02127346      -0.00262314      -1.24549627
Na      50.86062018      22.94024617      45.24685534       0.03504095      -0.01228680      -0.04374092      -1.32131648
Na       4.94719806      42.72644963      43.90073944      -0.01631209      -0.01363272      -0.01715340      -1.16918087
Na      32.81274285      57.64178498      39.47486113       0.03780594      -0.02662604      -0.07024233      -1.10307384
Na       4.44557832      19.98483289      22.47825787       0.08457229      -0.01693567      -0.04402270      -1.22851753
Na       5.09214752      10.10813750      13.04616823       0.00651139      -0.01314399      -0.05082013      -1.25594664
Na      50.01940247      27.85093891      35.43614731      -0.08964302       0.07088950       0.08429900      -1.16376042
Na      27.84747371      50.68833972       4.06202716       0.02695407       0.05512642       0.02226630      -1.38379788
Na      41.54403857      40.85711971      54.85512420       0.00822942      -0.04112297       0.01814225      -1.24673557
Na      37.75764917      35.45326719       5.54986843      -0.01098907      -0.09854220      -0.02999491      -1.30422926
Na      15.47484124      15.52927662      50.36125512      -0.00329354      -0.01597443      -0.00310692      -1.23727345
Na      42.13433920      29.36724032       3.65431894      -0.00926102      -0.02737829      -0.00991051      -1.24766624
Na      37.09431932      31.92445991      57.36348289      -0.00901644      -0.01541866       0.03860186      -1.24622631
Na      45.92520440      23.00222155      21.43058666       0.03741897      -0.08309636       0.06305215      -1.21957767
Na      56.15111129      50.41849106      44.18875209       0.04865304       0.05360251       0.00005366      -1.20907736
Na       1.11173036      57.79029332      43.72134071       0.03015810      -0.03767998      -0.01153723      -1.40401793
Na      51.84826720       6.00901205      11.47687477      -0.01780849      -0.02945543       0.02390430      -1.26923478
Na       3.56483389      40.22022520      46.05715013       0.02094537       0.01489652      -0.02420310      -1.20583713
Na      53.30680153      34.31144601      45.77546545       0.03070527       0.06943790      -0.01677496      -1.36267281
Na      33.24241572       2.74800616      56.96728129       0.04307745      -0.10990736       0.09727967      -1.14941084
Na      11.63740648      36.63402382      26.34643387      -0.00235041       0.02336649      -0.05063241      -1.13219237
Na      45.65516513      22.11560599      30.26241770      -0.06299075       0.07220107       0.02160753      -1.28227687
Na      33.97876164      34.83556913      32.60415659      -0.00364727      -0.06044368      -0.05624762      -1.26266909
Na      40.94152349      18.03068103      33.80436897       0.05183125      -0.02498330      -0.00117883      -1.35231137
Na      40.61185091      24.24679446      17.82741441      -0.03938818      -0.00174585       0.00325738      -1.30939054
Na      10.35222100      14.49822682      24.06989803       0.01040136      -0.00722427      -0.01942890      -1.23267567
Na       6.09796979      24.38283016      52.27923122      -0.05200747       0.02367719      -0.00341050      -1.16137552
Na      40.30075193      18.40560838      56.34264507       0.03829347      -0.01932486       0.02267164      -1.26007032
Na      44.04661567      40.79843420      18.00382683       0.05600258      -0.06824650       0.06978358      -1.25874758
Na      24.68401343      48.02403029      23.30978490       0.04609965       0.00819213       0.01244033      -1.28974545
Na      48.73743630      20.86710262      13.16042968      -0.06472181       0.00073874       0.03622041      -1.17976046
Na       0.18488589      17.91415738      15.65908488      -0.07000609      -0.03368261      -0.00028804      -1.20172513
Na       2.60316827      47.14014615      24.54034525       0.03860373       0.01011224       0.10221691      -1.11785483
Na       1.88597094      41.34380290      36.06110762       0.02280805      -0.02500497      -0.00832900      -1.14850068
Na       8.15157033      11.69879352      46.97125902      -0.03202990       0.00309941       0.01784968      -1.27845740
Na      40.84231392      43.82698671      57.43966796       0.04054335       0.01735697      -0.01854370      -1.30761051
Na      31.44970219      54.15112589      54.79270967      -0.09549829       0.01157452       0.08263633      -1.15354216
Na       8.52718078       1.67430951      20.43222287      -0.05022773       0.02754419      -0.02704109      -1.31728148
Na      14.28109816      30.31359194      40.34691555       0.00634036       0.02910013      -0.01019052      -1.21386242
Na       7.39869466      13.48827247      11.68390506      -0.00009843       0.00927253      -0.04414648      -1.13764167
Na      45.61854894      48.09042302      19.02040296      -0.03401763      -0.01453837      -0.08100083      -1.18395019
Na      48.68796885      16.07893986      46.96759107      -0.02771837       0.04031538       0.11050357      -1.05262411
Na      54.97401142      56.90080115      35.32945923       0.06882753      -0.03584909      -0.03662844      -1.16658902
Cl      48.01546488      18.24533126      34.65465722       0.03342450      -0.01742884      -0.19538778      -4.64189053
Cl      14.44878962       9.32801420      39.00488844      -0.02635735      -0.07384140       0.07198023      -4.74177170
Cl      44.65206060       6.31682550       5.59239873       0.03539775      -0.01320523      -0.02175760      -4.85831738
Cl      21.37086458      25.60172723      54.84218220      -0.02536332       0.02754028      -0.03309657      -4.54522276
Cl      48.00663834       8.13149977      46.21408210       0.01821112       0.06818902       0.01137778      -4.96493006
Cl       0.41452602       2.24180922      38.02168840       0.06327587       0.01054021      -0.02391659      -4.85111570
Cl      45.19191181      25.85247385      15.53528043      -0.01076432       0.00331986       0.00892429      -4.87589121
Cl      14.51930478       2.28905868       4.25808044      -0.01458608      -0.03004070       0.00493094      -4.84151220
Cl       5.41190756       7.46867574       6.66520622      -0.02091693       0.09018838       0.05275536      -4.75690889
Cl      39.31211602       6.54928819      53.76781725      -0.09907204       0.05827578      -0.02589238      -4.55963612
Cl      40.91385617      24.37492341      12.83450206       0.03956903      -0.01115146       0.03181161      -4.97571039
Cl      54.48306020      51.12708545      33.39268164      -0.01692485      -0.03058163      -0.05777824      -4.57716179
Cl      35.03602635      33.28147909      29.21707515      -0.05344345       0.01682352      -0.01334362      -4.72311926
Cl       5.95100997      55.05692690      15.62018088      -0.00932593      -0.01553708      -0.05776959      -5.00194645
Cl      24.95633709       2.12416714      29.19197295      -0.01604403      -0.02558704       0.02068316      -4.85765266
Cl      55.65897978      34.14170638       6.75429141       0.05525675       0.00725469       0.00430185      -4.64363766
Cl      32.74033016      41.57168246      12.45652351      -0.03439731       0.00955626      -0.00942810      -4.94810963
Cl      55.05822683      30.25570602      49.82246139       0.02062499      -0.01775368       0.02786782      -4.78875875
Cl       3.11228910      43.50430824      51.54047164       0.11855006       0.00535180      -0.10386762      -4.64776230
Cl      32.43838656      40.25860680      19.40526437      -0.05857347      -0.09004030      -0.03156218      -4.84191608
Cl      32.60560307      39.51593428      23.08232919      -0.09461606       0.07473493       0.05332660      -4.82332325
Cl      14.14394954      13.12240188      12.16552817       0.01935498       0.00837412      -0.01939265      -4.79641247
Cl      22.46224119      14.61690926       8.05595456      -0.02882779       0.03475899       0.05792525      -4.81339264
Cl      32.02568781      37.39653356      12.84108553      -0.04308972       0.02290519      -0.01253693      -4.92758322
Cl      27.22527484      48.49847088       2.13834389       0.06295421       0.01938591      -0.01610435      -4.87657690
Cl      36.99071058       3.98505571       7.16907848      -0.03180908      -0.02030528       0.04600855      -4.82362700
Cl      21.49017895      51.91799244      13.24645349      -0.00793116      -0.03409319      -0.03109675      -5.00510788
Cl       8.42119549       3.27126433      10.95198831       0.13624270       0.03111684       0.09162617      -4.95990610
Cl      41.00676211      45.65934912      40.06124405       0.02033372      -0.02408148      -0.00952355      -4.75997877
Cl       3.18233319      29.14778003      45.52531940       0.01848778       0.09663948      -0.02079719      -4.67535448
Cl      31.60285239      19.35359529      16.40628821       0.00295196       0.13775530      -0.01384312      -4.80300999
Cl      13.55978433       5.72825706      12.59598298      -0.04541074      -0.04145554       0.01244590      -4.81946325
Cl      36.49969830      50.21961578      17.74372669      -0.02402594      -0.00351196       0.01743380      -4.81551170
Cl      19.56899650      48.87266693      10.75319303       0.01308669      -0.02671660      -0.08996183      -4.66216421
Cl       9.10534874      17.56059425      32.74298189       0.02504601       0.03441220      -0.01548607      -4.83569145
Cl      36.44426320      58.64056769      43.41136101      -0.03850993      -0.01181856      -0.04123847      -4.89428520
Cl       4.67647640      30.67499960      40.04545094       0.01700388      -0.05977768       0.05505667      -4.91935921
Cl      45.74980636      20.38072046      38.22569590       0.01148040       0.00870512      -0.00763244      -4.83961916
Cl      26.25600448      12.06493262       8.43596437      -0.01791687      -0.03923351      -0.01069153      -4.79814863
Cl      42.53272619      57.80659984      15.70889550      -0.02823070       0.02329103       0.00666562      -4.68420506
Cl      53.74477580      35.15016349      43.05891535       0.03204090      -0.02405247       0.02909961      -4.96361780
Cl      14.38222288      57.14290008      34.72176123       0.00995526      -0.03825378       0.04537496      -4.88074827
Cl      23.89483793      53.68750985      45.30117657      -0.02380732      -0.00337814      -0.06114943      -4.73894072
Cl      43.02461580      37.62449748       1.46536610      -0.03644532       0.08659616       0.04950336      -4.85334969
Cl      28.36336110      38.88574668      48.95501655      -0.02562246      -0.02212595       0.06002980      -4.72941399
Cl       7.19434183      40.05565437      20.39879035      -0.06068999       0.06242540      -0.05240573      -4.69972992
Cl      53.91682549      42.31920160      26.54055546       0.00358493      -0.02350627      -0.01634948      -4.84757662
Cl      30.60483960       2.09051801      27.69680595      -0.03206266      -0.01596516       0.02384421      -4.74745464
Cl      10.80458926      41.61547568       3.56168590      -0.03397477       0.05366642      -0.05248230      -4.74267101
Cl      50.79460227      29.06547404      33.05258950       0.02409980       0.00081583       0.03615735      -4.90442085
Na      19.85482749      38.48474168       4.70154295       0.04488189      -0.01534859      -0.01146132      -1.18342030
Na      38.25806034      10.17177745      27.98062656      -0.00570233       0.00921706      -0.03679674      -1.27358544
Na      50.59389260      16.98391913      38.40373576      -0.05274380      -0.01803216       0.07178478      -1.25611699
Na      27.52006703       9.79856742      22.18143444      -0.02632266       0.01433825       0.01783497      -1.03911626
Na      52.71708978       0.81013969      16.48210630      -0.01849097       0.02868947      -0.00272962      -1.16594732
Na      42.82689533      40.08356093      14.39267502      -0.00343465      -0.01881609       0.05289971      -1.22163773
Na       0.80776544      50.88036105      11.12851525       0.07712819      -0.00875470      -0.01173063      -1.18864703
Na      28.86999608      19.31906195      51.54165221       0.06368637       0.02127240      -0.00262283      -1.24549603
Na      50.86061988      22.94024597       1.35125347       0.03504094      -0.01228831      -0.04373856      -1.32131636
Na       4.94719825      42.72644971       0.00513773      -0.01631193      -0.01363053      -0.01715630      -1.16918063
Na      32.81274299      57.64178485      54.10672860       0.03780571      -0.02662374      -0.07024165      -1.10307336
Na       4.44557849      19.98483289      37.11012477       0.08457227      -0.01693324      -0.04402443      -1.22851646
Na       5.09214751      10.10813748      27.67803523       0.00651206      -0.01314415      -0.05082231      -1.25594664
Na      50.01940248      27.85093889      50.06801438      -0.08964329       0.07089256       0.08429252      -1.16375995
Na      27.84747385      50.68833973      18.69389444       0.02695290       0.05512748       0.02226463      -1.38379741
Na      41.54403855      40.85711978      10.95952235       0.00822978      -0.04112528       0.01814770      -1.24673569
Na      37.75764920      35.45326725      20.18173574      -0.01098808      -0.09854192      -0.02999493      -1.30422902
Na      15.47484100      15.52927647       6.46565379      -0.00329245      -0.01597481      -0.00310512      -1.23727345
Na      42.13433934      29.36724037      18.28618619      -0.00926021      -0.02737846      -0.00991065      -1.24766636
Na      37.09431908      31.92445969      13.46788135      -0.00901771      -0.01541932       0.03860039      -1.24622619
Na      45.92520448      23.00222169      36.06245377       0.03741712      -0.08309725       0.06305162      -1.21957874
Na      56.15111129      50.41849078       0.29315033       0.04865083       0.05359811       0.00004615      -1.20907724
Na       1.11173035      57.79029332      58.35320825       0.03015813      -0.03767861      -0.01153536      -1.40401757
Na      51.84826706       6.00901207      26.10874178      -0.01780788      -0.02945589       0.02390381      -1.26923406
Na       3.56483362      40.22022526       2.16154884       0.02094474       0.01489583      -0.02419875      -1.20583653
Na      53.30680152      34.31144568       1.87986380       0.03070435       0.06943636      -0.01677250      -1.36267304
Na      33.24241569       2.74800624      13.07168024       0.04307735      -0.10990661       0.09727843      -1.14941144
Na      11.63740629      36.63402383      40.97830078      -0.00235354       0.02335894      -0.05063609      -1.13219213
Na      45.65516517      22.11560603      44.89428472      -0.06299049       0.07220113       0.02160898      -1.28227758
Na      33.97876148      34.83556907      47.23602365      -0.00364793      -0.06044425      -0.05624586      -1.26266932
Na      40.94152354      18.03068103      48.43623562       0.05183105      -0.02498625      -0.00118631      -1.35231161
Na      40.61185098      24.24679443      32.45928173      -0.03938809      -0.00174456       0.00325662      -1.30939043
Na      10.35222091      14.49822674      38.70176495       0.01040234      -0.00722225      -0.01942480      -1.23267508
Na       6.09796979      24.38283018       8.38363038      -0.05200798       0.02367686      -0.00341010      -1.16137576
Na      40.30075185      18.40560847      12.44704360       0.03829496      -0.01932467       0.02266711      -1.26007009
Na      44.04661567      40.79843434      32.63569390       0.05600070      -0.06824795       0.06978344      -1.25874710
Na      24.68401345      48.02403019      37.94165193       0.04609938       0.00819355       0.01244579      -1.28974509
Na      48.73743625      20.86710257      27.79229667      -0.06471486       0.00074030       0.03621865      -1.17976022
Na       0.18488589      17.91415732      30.29095190      -0.07000558      -0.03368256      -0.00028744      -1.20172524
Na       2.60316811      47.14014616      39.17221219       0.03860658       0.01011186       0.10222207      -1.11785412
Na       1.88597102      41.34380298      50.69297486       0.02280847      -0.02500371      -0.00832856      -1.14850020
Na       8.15157050      11.69879334       3.07565742      -0.03202949       0.00309924       0.01785067      -1.27845716
Na      40.84231402      43.82698668      13.54406628       0.04054379       0.01735539      -0.01854628      -1.30760980
Na      31.44970207      54.15112602      10.89710845      -0.09549809       0.01157566       0.08263680      -1.15354204
Na       8.52718082       1.67430969      35.06408941      -0.05022704       0.02754527      -0.02704502      -1.31728089
Na      14.28109816      30.31359178      54.97878317       0.00634140       0.02909972      -0.01019045      -1.21386147
Na       7.39869468      13.48827250      26.31577195      -0.00009820       0.00927158      -0.04414795      -1.13764203
Na      45.61854905      48.09042326      33.65226967      -0.03401728      -0.01453756      -0.08100207      -1.18395030
Na      48.68796842      16.07893949       3.07199023      -0.02771955       0.04031646       0.11050367      -1.05262411
Na      54.97401153      56.90080100      49.96132657       0.06882783      -0.03584944      -0.03662850      -1.16658902
Cl      48.01546473      18.24533131      49.28652422       0.03342169      -0.01742771      -0.19539137      -4.64188957
Cl      14.44878975       9.32801418      53.63675555      -0.02635955      -0.07384081       0.07197542      -4.74177217
Cl      44.65206069       6.31682555      20.22426590       0.03539836      -0.01320651      -0.02175823      -4.85831881
Cl      21.37086475      25.60172726      10.94658082      -0.02536280       0.02754061      -0.03309615      -4.54522228
Cl      48.00663832       8.13149990       2.31848113       0.01820979       0.06819067       0.01137544      -4.96493006
Cl       0.41452594       2.24180915      52.65355560       0.06327926       0.01053984      -0.02392794      -4.85111570
Cl      45.19191202      25.85247383      30.16714752      -0.01076326       0.00331951       0.00892380      -4.87589169
Cl      14.51930485       2.28905850      18.88994772      -0.01458591      -0.03003985       0.00493101      -4.84151268
Cl       5.41190759       7.46867584      21.29707334      -0.02091791       0.09018771       0.05275556      -4.75690889
Cl      39.31211574       6.54928826       9.87221603      -0.09907217       0.05827766      -0.02589068      -4.55963421
Cl      40.91385609      24.37492350      27.46636912       0.03956885      -0.01115183       0.03180972      -4.97570992
Cl      54.48306028      51.12708560      48.02454873      -0.01692472      -0.03058100      -0.05777605      -4.57716227
Cl      35.03602630      33.28147913      43.84894208      -0.05344229       0.01682438      -0.01334251      -4.72311974
Cl       5.95100990      55.05692693      30.25204788      -0.00932613      -0.01553700      -0.05776967      -5.00194693
Cl      24.95633712       2.12416715      43.82384023      -0.01604366      -0.02558685       0.02067958      -4.85765076
Cl      55.65897980      34.14170635      21.38615832       0.05525593       0.00725512       0.00430511      -4.64363766
Cl      32.74033032      41.57168217      27.08839065      -0.03439758       0.00955469      -0.00942579      -4.94810963
Cl      55.05822676      30.25570605       5.92686026       0.02062549      -0.01775456       0.02786592      -4.78875875
Cl       3.11228931      43.50430835       7.64487041       0.11854757       0.00535198      -0.10387532      -4.64776278
Cl      32.43838646      40.25860671      34.03713124      -0.05857060      -0.09004195      -0.03156885      -4.84191608
Cl      32.60560300      39.51593435      37.71419629      -0.09461656       0.07473478       0.05332828      -4.82332563
Cl      14.14394954      13.12240189      26.79739510       0.01935456       0.00837391      -0.01939302      -4.79641247
Cl      22.46224118      14.61690926      22.68782156      -0.02882741       0.03475867       0.05792577      -4.81339264
Cl      32.02568782      37.39653352      27.47295248      -0.04308977       0.02290456      -0.01253549      -4.92758369
Cl      27.22527488      48.49847091      16.77021128       0.06295346       0.01938799      -0.01610771      -4.87657833
Cl      36.99071042       3.98505570      21.80094565      -0.03180881      -0.02030509       0.04600956      -4.82362604
Cl      21.49017887      51.91799251      27.87832055      -0.00793075      -0.03409350      -0.03109571      -5.00510788
Cl       8.42119551       3.27126437      25.58385522       0.13624071       0.03111605       0.09162892      -4.95990705
Cl      41.00676182      45.65934919      54.69311121       0.02033276      -0.02407961      -0.00952276      -4.75998020
Cl       3.18233324      29.14777983       1.62971766       0.01848647       0.09663791      -0.02079906      -4.67535353
Cl      31.60285234      19.35359531      31.03815508       0.00295204       0.13775507      -0.01384090      -4.80300903
Cl      13.55978439       5.72825707      27.22784984      -0.04540977      -0.04145470       0.01244447      -4.81946373
Cl      36.49969830      50.21961570      32.37559371      -0.02402660      -0.00351190       0.01743034      -4.81551170
Cl      19.56899642      48.87266698      25.38506011       0.01308616      -0.02671718      -0.08996071      -4.66216469
Cl       9.10534871      17.56059448      47.37484877       0.02504619       0.03441307      -0.01548317      -4.83569050
Cl      36.44426316      58.64056742      58.04322873      -0.03851030      -0.01181965      -0.04123715      -4.89428568
Cl       4.67647611      30.67499948      54.67731759       0.01700557      -0.05977784       0.05505725      -4.91935968
Cl      45.74980631      20.38072042      52.85756258       0.01147999       0.00870444      -0.00763062      -4.83961630
Cl      26.25600440      12.06493265      23.06783130      -0.01791745      -0.03923401      -0.01069089      -4.79814911
Cl      42.53272616      57.80659983      30.34076252      -0.02823026       0.02329177       0.00666331      -4.68420601
Cl      53.74477585      35.15016353      57.69078321       0.03204296      -0.02405274       0.02909776      -4.96361542
Cl      14.38222274      57.14290003      49.35362807       0.00995545      -0.03825216       0.04537731      -4.88074970
Cl      23.89483792      53.68750989       1.40557510      -0.02380693      -0.00337748      -0.06114478      -4.73894310
Cl      43.02461597      37.62449782      16.09723365      -0.03644408       0.08659634       0.04950408      -4.85334969
Cl      28.36336119      38.88574671       5.05941568      -0.02562252      -0.02212444       0.06002763      -4.72941303
Cl       7.19434178      40.05565430      35.03065739      -0.06068958       0.06242505      -0.05240576      -4.69972849
Cl      53.91682547      42.31920150      41.17242262       0.00358335      -0.02350703      -0.01635339      -4.84757566
Cl      30.60483961       2.09051802      42.32867322      -0.03206404      -0.01596585       0.02384230      -4.74745464
Cl      10.80458928      41.61547611      18.19355322      -0.03397486       0.05366612      -0.05248646      -4.74267101
Cl      50.79460228      29.06547401      47.68445655       0.02410042       0.00081609       0.03616171      -4.90441942
Na      19.85482759      53.11660818      19.33341035       0.04488135      -0.01534416      -0.01146182      -1.18342006
Na      38.25806030      24.80364445      42.61249345      -0.00570377       0.00921640      -0.03679144      -1.27358735
Na      50.59389262      31.61578594      53.03560340      -0.05274097      -0.01802824       0.07178662      -1.25611687
Na      27.52006717      24.43043439      36.81330128      -0.02632514       0.01433661       0.01783741      -1.03911650
Na      52.71709013      15.44200699      31.11397347      -0.01849006       0.02869146      -0.00272957      -1.16594744
Na      42.82689511      54.71542786      29.02454208      -0.00343391      -0.01881519       0.05290062      -1.22163725
Na       0.80776546       6.98476004      25.76038238       0.07712756      -0.00875611      -0.01173008      -1.18864620
Na      28.86999590      33.95092876       7.64605150       0.06369106       0.02127505      -0.00262050      -1.24549663
Na      50.86062034      37.57211339      15.98312115       0.03504105      -0.01228570      -0.04373954      -1.32131577
Na       4.94719824      57.35831702      14.63700554      -0.01630969      -0.01364102      -0.01715802      -1.16918015
Na      32.81274305      13.74618292      10.21112701       0.03780420      -0.02662912      -0.07024108      -1.10307431
Na       4.44557850      34.61670004      51.74199178       0.08457237      -0.01693089      -0.04402430      -1.22851777
Na       5.09214749      24.74000471      42.30990218       0.00651247      -0.01314668      -0.05081818      -1.25594676
Na      50.01940255      42.48280596       6.17241320      -0.08964166       0.07088616       0.08429479      -1.16375995
Na      27.84747375       6.79273888      33.32576142       0.02695491       0.05512760       0.02226671      -1.38379776
Na      41.54403882      55.48898753      25.59138937       0.00822562      -0.04112433       0.01814672      -1.24673605
Na      37.75764909      50.08513413      34.81360264      -0.01098870      -0.09854283      -0.02999281      -1.30422866
Na      15.47484118      30.16114345      21.09752071      -0.00329226      -0.01597538      -0.00310476      -1.23727369
Na      42.13433944      43.99910728      32.91805318      -0.00926061      -0.02737825      -0.00990932      -1.24766612
Na      37.09431916      46.55632656      28.09974857      -0.00901739      -0.01542656       0.03860032      -1.24622583
Na      45.92520443      37.63408859      50.69432080       0.03741795      -0.08310054       0.06305005      -1.21957958
Na      56.15111137       6.52289001      14.92501835       0.04864781       0.05360016       0.00004695      -1.20907640
Na       1.11173052      13.89469158      14.45760641       0.03015785      -0.03767692      -0.01153923      -1.40401804
Na      51.84826683      20.64087916      40.74060877      -0.01780444      -0.02945290       0.02390246      -1.26923513
Na       3.56483376      54.85209216      16.79341605       0.02094474       0.01489683      -0.02420462      -1.20583677
Na      53.30680141      48.94331321      16.51173141       0.03070347       0.06943659      -0.01677403      -1.36267209
Na      33.24241583      17.37987344      27.70354722       0.04307736      -0.10990705       0.09728079      -1.14941072
Na      11.63740642      51.26589114      55.61016851      -0.00234935       0.02336477      -0.05062969      -1.13219249
Na      45.65516538      36.74747298       0.99868361      -0.06299011       0.07219961       0.02160545      -1.28227758
Na      33.97876159      49.46743629       3.34042287      -0.00364997      -0.06045009      -0.05624638      -1.26266932
Na      40.94152359      32.66254791       4.54063487       0.05183157      -0.02498044      -0.00118070      -1.35231161
Na      40.61185073      38.87866131      47.09114867      -0.03938817      -0.00174863       0.00325727      -1.30939126
Na      10.35222097      29.13009373      53.33363217       0.01040213      -0.00722437      -0.01942701      -1.23267460
Na       6.09796971      39.01469693      23.01549728      -0.05200743       0.02367514      -0.00341274      -1.16137707
Na      40.30075191      33.03747571      27.07891069       0.03829426      -0.01932414       0.02266657      -1.26007020
Na      44.04661519      55.43030175      47.26756123       0.05600286      -0.06824905       0.06977659      -1.25874722
Na      24.68401320       4.12842916      52.57351934       0.04609909       0.00819147       0.01243786      -1.28974497
Na      48.73743632      35.49896940      42.42416340      -0.06472246       0.00073408       0.03621937      -1.17976046
Na       0.18488592      32.54602428      44.92281893      -0.07000623      -0.03368019      -0.00028635      -1.20172632
Na       2.60316830       3.24454478      53.80407925       0.03860426       0.01011116       0.10221700      -1.11785531
Na       1.88597078      55.97567025       6.79737312       0.02281188      -0.02499535      -0.00832771      -1.14850008
Na       8.15157042      26.33066051      17.70752492      -0.03202976       0.00309849       0.01785046      -1.27845728
Na      40.84231414      -0.06861478      28.17593344       0.04054081       0.01735772      -0.01854711      -1.30761051
Na      31.44970193      10.25552458      25.52897574      -0.09549707       0.01157862       0.08263411      -1.15354156
Na       8.52718068      16.30617720      49.69595674      -0.05022704       0.02754370      -0.02704502      -1.31728077
Na      14.28109820      44.94545874      11.08318171       0.00634141       0.02909699      -0.01019115      -1.21386218
Na       7.39869471      28.12013947      40.94763895      -0.00009680       0.00927137      -0.04414701      -1.13764143
Na      45.61854864       4.19482192      48.28413703      -0.03401646      -0.01453426      -0.08100037      -1.18395066
Na      48.68796881      30.71080721      17.70385716      -0.02771798       0.04031362       0.11050144      -1.05262399
Na      54.97401075      13.00519923       6.06572562       0.06882772      -0.03584008      -0.03662783      -1.16658902
Cl      48.01546479      32.87719850       5.39092327       0.03342323      -0.01742889      -0.19539206      -4.64189148
Cl      14.44878970      23.95988121       9.74115444      -0.02635862      -0.07383989       0.07197504      -4.74177217
Cl      44.65206070      20.94869242      34.85613298       0.03539838      -0.01320457      -0.02175554      -4.85831690
Cl      21.37086474      40.23359408      25.57844788      -0.02536098       0.02754318      -0.03309205      -4.54522276
Cl      48.00663851      22.76336702      16.95034814       0.01820946       0.06819219       0.01137628      -4.96493053
Cl       0.41452607      16.87367656       8.75795432       0.06327727       0.01053796      -0.02392764      -4.85111475
Cl      45.19191203      40.48434072      44.79901436      -0.01076344       0.00332152       0.00892412      -4.87589073
Cl      14.51930461      16.92092605      33.52181465      -0.01458394      -0.03003424       0.00492908      -4.84151173
Cl       5.41190744      22.10054294      35.92894028      -0.02091774       0.09018746       0.05275849      -4.75690937
Cl      39.31211575      21.18115540      24.50408307      -0.09907472       0.05827494      -0.02589272      -4.55963421
Cl      40.91385625      39.00679064      42.09823599       0.03956981      -0.01114461       0.03181018      -4.97570992
Cl      54.48306027       7.23148477       4.12894797      -0.01692251      -0.03058049      -0.05777892      -4.57716322
Cl      35.03602655      47.91334666      -0.04666047      -0.05344302       0.01682611      -0.01334367      -4.72311974
Cl       5.95100998      11.16132596      44.88391471      -0.00932631      -0.01554132      -0.05776824      -5.00194550
Cl      24.95633713      16.75603487      -0.07176210      -0.01604280      -0.02558687       0.02068133      -4.85764980
Cl      55.65897990      48.77357343      36.01802535       0.05525645       0.00725088       0.00430540      -4.64363813
Cl      32.74033049      56.20354956      41.72025724      -0.03439718       0.00955722      -0.00942691      -4.94810772
Cl      55.05822684      44.88757311      20.55872739       0.02062479      -0.01775164       0.02786631      -4.78875828
Cl       3.11228862      58.13617580      22.27673785       0.11854649       0.00534319      -0.10387078      -4.64776182
Cl      32.43838654      54.89047390      48.66899809      -0.05857035      -0.09004212      -0.03156358      -4.84191704
Cl      32.60560313      54.14780149      52.34606297      -0.09461707       0.07473627       0.05332717      -4.82332659
Cl      14.14394959      27.75426879      41.42926211       0.01935751       0.00837402      -0.01938999      -4.79641247
Cl      22.46224113      29.24877616      37.31968895      -0.02882537       0.03475931       0.05792394      -4.81339359
Cl      32.02568802      52.02840086      42.10481955      -0.04308881       0.02290471      -0.01253807      -4.92758369
Cl      27.22527491       4.60286956      31.40207842       0.06295560       0.01938576      -0.01610753      -4.87657833
Cl      36.99071047      18.61692311      36.43281286      -0.03180894      -0.02030485       0.04600923      -4.82362747
Cl      21.49017877       8.02239122      42.51018744      -0.00792888      -0.03409569      -0.03109703      -5.00510693
Cl       8.42119544      17.90313127      40.21572245       0.13624427       0.03111832       0.09162638      -4.95990753
Cl      41.00676169       1.76374769      10.79751045       0.02033420      -0.02408295      -0.00952278      -4.75997877
Cl       3.18233327      43.77964679      16.26158517       0.01848833       0.09663904      -0.02079860      -4.67535400
Cl      31.60285232      33.98546244      45.67002218       0.00295338       0.13775486      -0.01384226      -4.80300808
Cl      13.55978440      20.36012410      41.85971691      -0.04540890      -0.04145519       0.01244249      -4.81946516
Cl      36.49969819       6.32401438      47.00746092      -0.02402800      -0.00351314       0.01743156      -4.81551123
Cl      19.56899660       4.97706591      40.01692740       0.01308780      -0.02671789      -0.08996116      -4.66216421
Cl       9.10534887      32.19246115       3.47924716       0.02504619       0.03440971      -0.01548903      -4.83569002
Cl      36.44426319      14.74496559      14.14762723      -0.03850809      -0.01181823      -0.04123784      -4.89428663
Cl       4.67647648      45.30686642      10.78171667       0.01700550      -0.05977234       0.05505883      -4.91936016
Cl      45.74980642      35.01258755       8.96196160       0.01148130       0.00870223      -0.00762991      -4.83961535
Cl      26.25600450      26.69679942      37.69969854      -0.01791888      -0.03923336      -0.01069492      -4.79815006
Cl      42.53272666      13.91099823      44.97262971      -0.02823152       0.02328992       0.00666259      -4.68420458
Cl      53.74477575      49.78203054      13.79518141       0.03205080      -0.02405767       0.02909967      -4.96361637
Cl      14.38222278      13.24729857       5.45802687       0.00995399      -0.03825556       0.04537218      -4.88074827
Cl      23.89483794       9.79190855      16.03744267      -0.02380620      -0.00337445      -0.06114532      -4.73894358
Cl      43.02461584      52.25636480      30.72910062      -0.03644362       0.08659486       0.04950308      -4.85335016
Cl      28.36336141      53.51761389      19.69128304      -0.02562177      -0.02212618       0.06003004      -4.72941351
Cl       7.19434184      54.68752140      49.66252436      -0.06069084       0.06241589      -0.05240544      -4.69973087
Cl      53.91682573      56.95106888      55.80428999       0.00358526      -0.02350473      -0.01635173      -4.84757662
Cl      30.60483988      16.72238543      56.96054091      -0.03206287      -0.01596499       0.02384264      -4.74745369
Cl      10.80458985      56.24734269      32.82542059      -0.03397464       0.05366627      -0.05247887      -4.74267006
Cl      50.79460233      43.69734106       3.78885515       0.02410185       0.00081442       0.03615792      -4.90442038
Na      19.85482766      53.11660798      33.96527751       0.04487870      -0.01534245      -0.01146527      -1.18341947
Na      38.25806040      24.80364424      57.24436152      -0.00570327       0.00921627      -0.03679569      -1.27358651
Na      50.59389252      31.61578593       9.14000202      -0.05274292      -0.01802953       0.07178526      -1.25611722
Na      27.52006713      24.43043458      51.44516882      -0.02632383       0.01433860       0.01784112      -1.03911638
Na      52.71709018      15.44200704      45.74584046      -0.01849053       0.02869015      -0.00273144      -1.16594851
Na      42.82689500      54.71542788      43.65640895      -0.00343569      -0.01881672       0.05289951      -1.22163808
Na       0.80776543       6.98475997      40.39224928       0.07712756      -0.00875532      -0.01173049      -1.18864596
Na      28.86999585      33.95092871      22.27791840       0.06369249       0.02127475      -0.00261969      -1.24549639
Na      50.86062024      37.57211335      30.61498824       0.03504067      -0.01228751      -0.04373882      -1.32131577
Na       4.94719831      57.35831693      29.26887247      -0.01630965      -0.01364075      -0.01715859      -1.16917992
Na      32.81274310      13.74618290      24.84299391       0.03780495      -0.02662616      -0.07024448      -1.10307431
Na       4.44557841      34.61669988       7.84639069       0.08457159      -0.01693236      -0.04402245      -1.22851753
Na       5.09214736      24.74000493      56.94176959       0.00651247      -0.01314663      -0.05081853      -1.25594687
Na      50.01940244      42.48280597      20.80428030      -0.08964226       0.07088675       0.08429401      -1.16376007
Na      27.84747377       6.79273877      47.95762856       0.02695158       0.05512863       0.02226330      -1.38379788
Na      41.54403880      55.48898732      40.22325662       0.00822658      -0.04112493       0.01815103      -1.24673653
Na      37.75764908      50.08513408      49.44546958      -0.01098814      -0.09854329      -0.02999281      -1.30422831
Na      15.47484122      30.16114343      35.72938783      -0.00329381      -0.01597667      -0.00310821      -1.23727345
Na      42.13433938      43.99910738      47.54992035      -0.00926041      -0.02737868      -0.00990904      -1.24766660
Na      37.09431936      46.55632685      42.73161520      -0.00901609      -0.01542728       0.03859797      -1.24622643
Na      45.92520442      37.63408864       6.79871973       0.03741819      -0.08309985       0.06305058      -1.21957994
Na      56.15111134       6.52289001      29.55688525       0.04865260       0.05360168       0.00004857      -1.20907629
Na       1.11173048      13.89469164      29.08947349       0.03015945      -0.03767720      -0.01154099      -1.40401745
Na      51.84826692      20.64087903      55.37247615      -0.01780634      -0.02945379       0.02390484      -1.26923442
Na       3.56483363      54.85209215      31.42528306       0.02094418       0.01489563      -0.02419936      -1.20583665
Na      53.30680142      48.94331307      31.14359846       0.03070352       0.06943601      -0.01677331      -1.36267209
Na      33.24241588      17.37987334      42.33541420       0.04307632      -0.10990734       0.09728004      -1.14941156
Na      11.63740668      51.26589119      11.71456703      -0.00235147       0.02336567      -0.05063313      -1.13219261
Na      45.65516518      36.74747311      15.63055057      -0.06298937       0.07219973       0.02160551      -1.28227794
Na      33.97876149      49.46743609      17.97228963      -0.00364874      -0.06045093      -0.05624630      -1.26266837
Na      40.94152350      32.66254791      19.17250198       0.05183221      -0.02498149      -0.00118165      -1.35231161
Na      40.61185069      38.87866141       3.19554703      -0.03938877      -0.00174895       0.00325715      -1.30939126
Na      10.35222094      29.13009367       9.43803083       0.01040215      -0.00722376      -0.01942728      -1.23267508
Na       6.09796965      39.01469694      37.64736413      -0.05200765       0.02367612      -0.00341219      -1.16137683
Na      40.30075193      33.03747564      41.71077744       0.03829200      -0.01932169       0.02267061      -1.26007032
Na      44.04661530      55.43030185       3.37195965       0.05600224      -0.06824487       0.06978405      -1.25874758
Na      24.68401326       4.12842921       8.67791785       0.04609799       0.00818962       0.01244399      -1.28974533
Na      48.73743630      35.49896967      57.05603048      -0.06472382       0.00073531       0.03621909      -1.17976046
Na       0.18488614      32.54602367       1.02721772      -0.07000577      -0.03368288      -0.00028828      -1.20172572
Na       2.60316818       3.24454495       9.90847823       0.03860460       0.01011001       0.10221832      -1.11785555
Na       1.88597086      55.97567027      21.42924042       0.02281234      -0.02499565      -0.00832905      -1.14849985
Na       8.15157044      26.33066050      32.33939176      -0.03202880       0.00309753       0.01784764      -1.27845669
Na      40.84231409      -0.06861488      42.80780030       0.04054081       0.01735885      -0.01854577      -1.30761123
Na      31.44970201      10.25552457      40.16084255      -0.09549779       0.01157909       0.08263424      -1.15354109
Na       8.52718075      16.30617731       5.80035546      -0.05022779       0.02754315      -0.02704186      -1.31728125
Na      14.28109820      44.94545863      25.71504891       0.00634081       0.02909810      -0.01019258      -1.21386218
Na       7.39869464      28.12013930      55.57950656      -0.00009768       0.00927068      -0.04414647      -1.13764143
Na      45.61854871       4.19482188       4.38853608      -0.03401746      -0.01453367      -0.08099816      -1.18395019
Na      48.68796891      30.71080723      32.33572418      -0.02771815       0.04031433       0.11050138      -1.05262327
Na      54.97401067      13.00519921      20.69759268       0.06882867      -0.03583958      -0.03662131      -1.16658914
Cl      48.01546485      32.87719849      20.02279032       0.03342197      -0.01742961      -0.19539295      -4.64189148
Cl      14.44878967      23.95988125      24.37302147      -0.02635959      -0.07383896       0.07197566      -4.74177217
Cl      44.65206090      20.94869244      49.48800021       0.03540079      -0.01320366      -0.02175340      -4.85831833
Cl      21.37086476      40.23359404      40.21031490      -0.02536045       0.02754257      -0.03309522      -4.54522419
Cl      48.00663850      22.76336708      31.58221522       0.01821042       0.06819363       0.01137640      -4.96493053
Cl       0.41452608      16.87367657      23.38982151       0.06327730       0.01053907      -0.02392481      -4.85111427
Cl      45.19191187      40.48434081       0.90341312      -0.01076304       0.00332130       0.00892494      -4.87589169
Cl      14.51930464      16.92092588      48.15368173      -0.01458377      -0.03003603       0.00493126      -4.84151173
Cl       5.41190746      22.10054276      50.56080732      -0.02091753       0.09018706       0.05275787      -4.75690889
Cl      39.31211585      21.18115556      39.13594985      -0.09907117       0.05827728      -0.02588584      -4.55963326
Cl      40.91385627      39.00679073      56.73010331       0.03956723      -0.01114677       0.03181342      -4.97571039
Cl      54.48306020       7.23148461      18.76081491      -0.01692163      -0.03057982      -0.05777918      -4.57716322
Cl      35.03602643      47.91334606      14.58520833      -0.05344282       0.01682521      -0.01334397      -4.72311974
Cl       5.95100983      11.16132571       0.98831322      -0.00932609      -0.01553884      -0.05776902      -5.00194693
Cl      24.95633713      16.75603461      14.56010592      -0.01604303      -0.02558694       0.02068214      -4.85765076
Cl      55.65897962      48.77357363      50.64989279       0.05525398       0.00725153       0.00430890      -4.64363766
Cl      32.74033081      56.20354983      56.35212504      -0.03439552       0.00955769      -0.00942602      -4.94810772
Cl      55.05822684      44.88757319      35.19059446       0.02062401      -0.01775327       0.02786842      -4.78876019
Cl       3.11228866      58.13617579      36.90860505       0.11854552       0.00534388      -0.10386990      -4.64776325
Cl      32.43838641      54.89047418       4.77339715      -0.05857176      -0.09004179      -0.03156312      -4.84191561
Cl      32.60560297      54.14780147       8.45046195      -0.09461549       0.07473567       0.05332254      -4.82332373
Cl      14.14394957      27.75426886      56.06112984       0.01935500       0.00837631      -0.01939338      -4.79641438
Cl      22.46224114      29.24877621      51.95155550      -0.02882537       0.03476030       0.05792640      -4.81339359
Cl      32.02568803      52.02840106      56.73668690      -0.04308842       0.02290425      -0.01253674      -4.92758179
Cl      27.22527484       4.60286971      46.03394519       0.06295438       0.01938573      -0.01610901      -4.87657690
Cl      36.99071052      18.61692306      51.06468008      -0.03180658      -0.02030491       0.04601321      -4.82362747
Cl      21.49017906       8.02239156      57.14205562      -0.00792836      -0.03409535      -0.03109659      -5.00510693
Cl       8.42119529      17.90313135      54.84758972       0.13624121       0.03111706       0.09161881      -4.95990705
Cl      41.00676186       1.76374775      25.42937732       0.02033497      -0.02408146      -0.00952091      -4.75997877
Cl       3.18233338      43.77964692      30.89345230       0.01848643       0.09663819      -0.02079714      -4.67535448
Cl      31.60285252      33.98546210       1.77442118       0.00295415       0.13775674      -0.01384336      -4.80300951
Cl      13.55978417      20.36012416      56.49158428      -0.04541125      -0.04145511       0.01244397      -4.81946278
Cl      36.49969841       6.32401458       3.11185908      -0.02402609      -0.00351351       0.01743313      -4.81551027
Cl      19.56899662       4.97706613      54.64879412       0.01308654      -0.02671792      -0.08996132      -4.66216469
Cl       9.10534870      32.19246124      18.11111464       0.02504716       0.03441080      -0.01548737      -4.83569145
Cl      36.44426308      14.74496550      28.77949413      -0.03850959      -0.01181884      -0.04123480      -4.89428711
Cl       4.67647654      45.30686658      25.41358371       0.01700480      -0.05977331       0.05505883      -4.91936016
Cl      45.74980630      35.01258757      23.59382856       0.01148089       0.00869957      -0.00762926      -4.83961439
Cl      26.25600439      26.69679962      52.33156539      -0.01791649      -0.03923467      -0.01068749      -4.79814816
Cl      42.53272646      13.91099845       1.07702823      -0.02822918       0.02328992       0.00666312      -4.68420553
Cl      53.74477568      49.78203038      28.42704847       0.03204967      -0.02405819       0.02910094      -4.96361685
Cl      14.38222267      13.24729848      20.08989426       0.00995544      -0.03825596       0.04537286      -4.88074780
Cl      23.89483793       9.79190862      30.66930963      -0.02380553      -0.00337471      -0.06114296      -4.73894405
Cl      43.02461593      52.25636476      45.36096761      -0.03644343       0.08659714       0.04950554      -4.85334921
Cl      28.36336142      53.51761395      34.32315026      -0.02562099      -0.02212590       0.06002762      -4.72941208
Cl       7.19434179      54.68752143       5.76692305      -0.06069066       0.06241619      -0.05240503      -4.69973040
Cl      53.91682583      56.95106874      11.90868848       0.00358576      -0.02350427      -0.01635120      -4.84757566
Cl      30.60483977      16.72238545      13.06493878      -0.03206269      -0.01596490       0.02384312      -4.74745321
Cl      10.80458974      56.24734279      47.45728757      -0.03397156       0.05366783      -0.05247734      -4.74267006
Cl      50.79460230      43.69734097      18.42072269       0.02410197       0.00081510       0.03615905      -4.90441990
Na      19.85482755      53.11660821      48.59714428       0.04487940      -0.01534397      -0.01146421      -1.18341923
Na      38.25806024      24.80364443      13.34875951      -0.00570381       0.00921708      -0.03679617      -1.27358651
Na      50.59389255      31.61578597      23.77186912      -0.05274241      -0.01803005       0.07178251      -1.25611687
Na      27.52006713      24.43043439       7.54956717      -0.02632363       0.01433695       0.01783751      -1.03911638
Na      52.71708990      15.44200742       1.85023860      -0.01849111       0.02869103      -0.00272912      -1.16594768
Na      42.82689510      54.71542784      58.28827672      -0.00343494      -0.01881547       0.05290074      -1.22163749
Na       0.80776540       6.98476004      55.02411675       0.07712689      -0.00875592      -0.01172870      -1.18864691
Na      28.86999571      33.95092878      36.90978538       0.06369114       0.02127647      -0.00262058      -1.24549615
Na      50.86062028      37.57211344      45.24685529       0.03504140      -0.01228371      -0.04373981      -1.32131600
Na       4.94719821      57.35831702      43.90073963      -0.01631058      -0.01364239      -0.01715476      -1.16918063
Na      32.81274311      13.74618274      39.47486101       0.03780530      -0.02662531      -0.07024255      -1.10307384
Na       4.44557836      34.61669990      22.47825769       0.08457220      -0.01693229      -0.04402265      -1.22851753
Na       5.09214745      24.74000472      13.04616815       0.00651190      -0.01314584      -0.05082011      -1.25594640
Na      50.01940239      42.48280595      35.43614733      -0.08964294       0.07088595       0.08429716      -1.16376019
Na      27.84747377       6.79273884       4.06202728       0.02695276       0.05512836       0.02226623      -1.38379717
Na      41.54403894      55.48898754      54.85512414       0.00822576      -0.04112240       0.01814065      -1.24673629
Na      37.75764916      50.08513400       5.54986837      -0.01098908      -0.09854363      -0.02999486      -1.30422866
Na      15.47484124      30.16114348      50.36125510      -0.00329237      -0.01597373      -0.00310629      -1.23727322
Na      42.13433932      43.99910718       3.65431904      -0.00926084      -0.02738005      -0.00991196      -1.24766636
Na      37.09431936      46.55632660      57.36348290      -0.00901647      -0.01542759       0.03860393      -1.24622560
Na      45.92520447      37.63408859      21.43058670       0.03741854      -0.08309872       0.06305104      -1.21957982
Na      56.15111141       6.52288995      44.18875220       0.04864771       0.05359942       0.00005162      -1.20907640
Na       1.11173058      13.89469161      43.72134064       0.03015696      -0.03767809      -0.01153860      -1.40401840
Na      51.84826694      20.64087916      11.47687467      -0.01780404      -0.02945303       0.02390197      -1.26923466
Na       3.56483373      54.85209214      46.05715031       0.02094582       0.01489680      -0.02420661      -1.20583749
Na      53.30680146      48.94331313      45.77546546       0.03070588       0.06943610      -0.01677567      -1.36267233
Na      33.24241579      17.37987325      56.96728137       0.04307759      -0.10990701       0.09728026      -1.14941096
Na      11.63740667      51.26589117      26.34643390      -0.00235059       0.02336734      -0.05063196      -1.13219213
Na      45.65516511      36.74747306      30.26241767      -0.06298977       0.07219951       0.02160631      -1.28227758
Na      33.97876153      49.46743605      32.60415658      -0.00365040      -0.06045043      -0.05624479      -1.26266885
Na      40.94152336      32.66254790      33.80436905       0.05183178      -0.02498170      -0.00118507      -1.35231137
Na      40.61185084      38.87866141      17.82741440      -0.03938781      -0.00174907       0.00325809      -1.30939126
Na      10.35222097      29.13009366      24.06989800       0.01040186      -0.00722485      -0.01942802      -1.23267531
Na       6.09796972      39.01469698      52.27923120      -0.05200707       0.02367541      -0.00341250      -1.16137648
Na      40.30075180      33.03747561      56.34264507       0.03829270      -0.01932263       0.02267113      -1.26007104
Na      44.04661538      55.43030184      18.00382704       0.05600221      -0.06824678       0.06978081      -1.25874686
Na      24.68401327       4.12842927      23.30978494       0.04609785       0.00818914       0.01244100      -1.28974557
Na      48.73743631      35.49896946      13.16042969      -0.06472350       0.00073578       0.03621942      -1.17976034
Na       0.18488591      32.54602428      15.65908488      -0.07000595      -0.03368177      -0.00028768      -1.20172548
Na       2.60316818       3.24454499      24.54034528       0.03860386       0.01010996       0.10221642      -1.11785531
Na       1.88597079      55.97567028      36.06110749       0.02281052      -0.02499722      -0.00832843      -1.14849997
Na       8.15157037      26.33066056      46.97125902      -0.03202960       0.00309976       0.01785032      -1.27845716
Na      40.84231403      -0.06861488      57.43966790       0.04054212       0.01736002      -0.01854306      -1.30761075
Na      31.44970211      10.25552447      54.79270986      -0.09549701       0.01157857       0.08263543      -1.15354133
Na       8.52718060      16.30617726      20.43222276      -0.05022856       0.02754312      -0.02704048      -1.31728137
Na      14.28109814      44.94545878      40.34691572       0.00634288       0.02909826      -0.01019146      -1.21386194
Na       7.39869468      28.12013944      11.68390512      -0.00009820       0.00926909      -0.04414751      -1.13764143
Na      45.61854869       4.19482191      19.02040301      -0.03401833      -0.01453299      -0.08099818      -1.18395019
Na      48.68796891      30.71080710      46.96759130      -0.02771887       0.04031283       0.11050196      -1.05262387
Na      54.97401077      13.00519927      35.32945995       0.06882888      -0.03584155      -0.03662750      -1.16658866
Cl      48.01546501      32.87719853      34.65465748       0.03342187      -0.01742940      -0.19539227      -4.64189243
Cl      14.44878959      23.95988131      39.00488836      -0.02635679      -0.07384059       0.07197966      -4.74177170
Cl      44.65206049      20.94869239       5.59239875       0.03539899      -0.01320486      -0.02175727      -4.85831738
Cl      21.37086455      40.23359409      54.84218215      -0.02536134       0.02754235      -0.03309661      -4.54522324
Cl      48.00663843      22.76336706      46.21408204       0.01821096       0.06819259       0.01137700      -4.96493006
Cl       0.41452610      16.87367645      38.02168844       0.06327615       0.01054031      -0.02391749      -4.85111618
Cl      45.19191176      40.48434063      15.53528045      -0.01076403       0.00332152       0.00892341      -4.87589169
Cl      14.51930462      16.92092601       4.25808038      -0.01458404      -0.03003629       0.00493028      -4.84151316
Cl       5.41190751      22.10054284       6.66520613      -0.02091694       0.09018935       0.05275383      -4.75690937
Cl      39.31211605      21.18115539      53.76781739      -0.09907342       0.05827303      -0.02589326      -4.55963564
Cl      40.91385619      39.00679040      12.83450202       0.03956712      -0.01114582       0.03181070      -4.97571039
Cl      54.48306025       7.23148462      33.39268184      -0.01692166      -0.03057943      -0.05777806      -4.57716274
Cl      35.03602650      47.91334618      29.21707530      -0.05344339       0.01682410      -0.01334478      -4.72312021
Cl       5.95100998      11.16132580      15.62018083      -0.00932538      -0.01554030      -0.05776889      -5.00194693
Cl      24.95633711      16.75603460      29.19197293      -0.01604290      -0.02558544       0.02068378      -4.85765171
Cl      55.65897968      48.77357334       6.75429139       0.05525592       0.00725041       0.00429997      -4.64363670
Cl      32.74033052      56.20354973      12.45652339      -0.03439583       0.00955678      -0.00942627      -4.94810820
Cl      55.05822686      44.88757302      49.82246134       0.02062355      -0.01775297       0.02786866      -4.78875828
Cl       3.11228842      58.13617587      51.54047188       0.11854479       0.00534292      -0.10387025      -4.64776230
Cl      32.43838654      54.89047384      19.40526413      -0.05857228      -0.09004149      -0.03156088      -4.84191656
Cl      32.60560301      54.14780146      23.08232896      -0.09461783       0.07473610       0.05332356      -4.82332659
Cl      14.14394952      27.75426887      12.16552818       0.01935526       0.00837513      -0.01939299      -4.79641247
Cl      22.46224112      29.24877616       8.05595452      -0.02882481       0.03475953       0.05792650      -4.81339264
Cl      32.02568789      52.02840080      12.84108544      -0.04308956       0.02290392      -0.01253643      -4.92758274
Cl      27.22527483       4.60286949       2.13834394       0.06295365       0.01938555      -0.01610490      -4.87657785
Cl      36.99071038      18.61692300       7.16907852      -0.03180894      -0.02030529       0.04600855      -4.82362747
Cl      21.49017893       8.02239119      13.24645346      -0.00792889      -0.03409551      -0.03109562      -5.00510836
Cl       8.42119543      17.90313126      10.95198836       0.13624293       0.03111665       0.09162532      -4.95990658
Cl      41.00676193       1.76374770      40.06124437       0.02033439      -0.02408364      -0.00952439      -4.75997829
Cl       3.18233324      43.77964694      45.52531928       0.01848908       0.09663826      -0.02079935      -4.67535353
Cl      31.60285236      33.98546238      16.40628807       0.00295385       0.13775583      -0.01384307      -4.80300760
Cl      13.55978430      20.36012407      12.59598298      -0.04541155      -0.04145604       0.01244582      -4.81946373
Cl      36.49969821       6.32401445      17.74372681      -0.02402714      -0.00351305       0.01743230      -4.81551075
Cl      19.56899655       4.97706594      10.75319312       0.01308666      -0.02671829      -0.08996256      -4.66216373
Cl       9.10534878      32.19246134      32.74298206       0.02504643       0.03440876      -0.01548470      -4.83569050
Cl      36.44426308      14.74496553      43.41136122      -0.03850874      -0.01181868      -0.04123791      -4.89428568
Cl       4.67647630      45.30686654      40.04545089       0.01700500      -0.05977321       0.05505599      -4.91935968
Cl      45.74980634      35.01258766      38.22569582       0.01148140       0.00870113      -0.00763327      -4.83961582
Cl      26.25600442      26.69679955       8.43596428      -0.01791725      -0.03923383      -0.01069141      -4.79814911
Cl      42.53272671      13.91099825      15.70889558      -0.02823163       0.02328929       0.00666450      -4.68420553
Cl      53.74477578      49.78203050      43.05891534       0.03204216      -0.02405786       0.02910068      -4.96361732
Cl      14.38222268      13.24729834      34.72176122       0.00995544      -0.03825571       0.04537408      -4.88074684
Cl      23.89483786       9.79190857      45.30117683      -0.02380637      -0.00337540      -0.06114792      -4.73894167
Cl      43.02461572      52.25636426       1.46536599      -0.03644495       0.08659594       0.04950371      -4.85334969
Cl      28.36336133      53.51761407      48.95501680      -0.02562165      -0.02212588       0.06002887      -4.72941351
Cl       7.19434182      54.68752137      20.39879024      -0.06069128       0.06241574      -0.05240582      -4.69973040
Cl      53.91682570      56.95106863      26.54055546       0.00358627      -0.02350521      -0.01634977      -4.84757614
Cl      30.60483977      16.72238546      27.69680581      -0.03206307      -0.01596490       0.02384282      -4.74745321
Cl      10.80458973      56.24734234       3.56168643      -0.03397157       0.05366598      -0.05248102      -4.74267006
Cl      50.79460232      43.69734111      33.05258949       0.02410089       0.00081471       0.03615753      -4.90442085
Na      19.85482749      53.11660842       4.70154323       0.04488001      -0.01534363      -0.01146228      -1.18341970
Na      38.25806036      24.80364447      27.98062657      -0.00570333       0.00921649      -0.03679695      -1.27358603
Na      50.59389260      31.61578602      38.40373592      -0.05274415      -0.01802934       0.07178669      -1.25611782
Na      27.52006710      24.43043433      22.18143448      -0.02632299       0.01433729       0.01783554      -1.03911650
Na      52.71709021      15.44200705      16.48210624      -0.01849140       0.02869098      -0.00273074      -1.16594756
Na      42.82689518      54.71542794      14.39267507      -0.00343556      -0.01881540       0.05289863      -1.22163796
Na       0.80776540       6.98476004      11.12851525       0.07712802      -0.00875651      -0.01173022      -1.18864632
Na      28.86999579      33.95092868      51.54165231       0.06369118       0.02127464      -0.00262181      -1.24549603
Na      50.86061989      37.57211339       1.35125331       0.03504053      -0.01228632      -0.04373930      -1.32131600
Na       4.94719840      57.35831723       0.00513795      -0.01630940      -0.01364039      -0.01715681      -1.16918039
Na      32.81274322      13.74618270      54.10672830       0.03780622      -0.02662465      -0.07024212      -1.10307395
Na       4.44557846      34.61669990      37.11012461       0.08457395      -0.01692958      -0.04402398      -1.22851670
Na       5.09214744      24.74000476      27.67803513       0.00651323      -0.01314616      -0.05082191      -1.25594652
Na      50.01940257      42.48280597      50.06801429      -0.08964284       0.07088582       0.08429084      -1.16376042
Na      27.84747374       6.79273885      18.69389458       0.02695283       0.05512845       0.02226442      -1.38379693
Na      41.54403876      55.48898751      10.95952246       0.00823144      -0.04112213       0.01814779      -1.24673605
Na      37.75764919      50.08513415      20.18173564      -0.01098963      -0.09854372      -0.02999501      -1.30422854
Na      15.47484096      30.16114340       6.46565374      -0.00329380      -0.01597535      -0.00310743      -1.23727334
Na      42.13433949      43.99910731      18.28618626      -0.00926051      -0.02737970      -0.00991023      -1.24766612
Na      37.09431920      46.55632681      13.46788131      -0.00901783      -0.01542752       0.03860180      -1.24622560
Na      45.92520453      37.63408870      36.06245371       0.03741676      -0.08310021       0.06305167      -1.21957994
Na      56.15111125       6.52288958       0.29315042       0.04865227       0.05360181       0.00004612      -1.20907688
Na       1.11173059      13.89469177      58.35320822       0.03015717      -0.03767857      -0.01153595      -1.40401804
Na      51.84826687      20.64087918      26.10874166      -0.01780542      -0.02945305       0.02390252      -1.26923501
Na       3.56483355      54.85209220       2.16154868       0.02094476       0.01489655      -0.02420088      -1.20583701
Na      53.30680165      48.94331302       1.87986375       0.03070518       0.06943648      -0.01677330      -1.36267233
Na      33.24241586      17.37987346      13.07168037       0.04307760      -0.10990669       0.09727975      -1.14941096
Na      11.63740640      51.26589128      40.97830097      -0.00235436       0.02336258      -0.05063727      -1.13219237
Na      45.65516508      36.74747322      44.89428464      -0.06299026       0.07219928       0.02160912      -1.28227818
Na      33.97876146      49.46743603      47.23602360      -0.00365053      -0.06045165      -0.05624563      -1.26266873
Na      40.94152352      32.66254805      48.43623587       0.05183233      -0.02498264      -0.00118474      -1.35231161
Na      40.61185090      38.87866162      32.45928163      -0.03938912      -0.00174847       0.00325673      -1.30939102
Na      10.35222093      29.13009364      38.70176486       0.01040310      -0.00722236      -0.01942226      -1.23267508
Na       6.09796972      39.01469690       8.38363024      -0.05200780       0.02367561      -0.00341067      -1.16137695
Na      40.30075196      33.03747561      12.44704354       0.03829414      -0.01932356       0.02266706      -1.26007044
Na      44.04661535      55.43030180      32.63569392       0.05600047      -0.06824791       0.06978549      -1.25874770
Na      24.68401327       4.12842922      37.94165206       0.04609841       0.00818995       0.01244331      -1.28974533
Na      48.73743635      35.49896939      27.79229666      -0.06472301       0.00073516       0.03621806      -1.17975974
Na       0.18488589      32.54602434      30.29095205      -0.07000491      -0.03368194      -0.00028777      -1.20172524
Na       2.60316807       3.24454497      39.17221218       0.03860544       0.01010940       0.10221973      -1.11785424
Na       1.88597082      55.97567029      50.69297469       0.02281174      -0.02499545      -0.00832734      -1.14849937
Na       8.15157057      26.33066035       3.07565742      -0.03202975       0.00309965       0.01785182      -1.27845740
Na      40.84231411      -0.06861482      13.54406629       0.04054271       0.01735891      -0.01854623      -1.30761051
Na      31.44970187      10.25552455      10.89710868      -0.09549687       0.01157902       0.08263503      -1.15354156
Na       8.52718063      16.30617736      35.06408937      -0.05022618       0.02754327      -0.02704502      -1.31728125
Na      14.28109813      44.94545863      54.97878322       0.00634196       0.02909673      -0.01018788      -1.21386147
Na       7.39869469      28.12013946      26.31577198      -0.00009814       0.00926880      -0.04414809      -1.13764179
Na      45.61854872       4.19482184      33.65226989      -0.03401706      -0.01453414      -0.08100036      -1.18395078
Na      48.68796844      30.71080656       3.07199027      -0.02771888       0.04031564       0.11050316      -1.05262375
Na      54.97401076      13.00519916      49.96132699       0.06882800      -0.03584070      -0.03662749      -1.16658914
Cl      48.01546478      32.87719843      49.28652430       0.03342285      -0.01742945      -0.19539294      -4.64189053
Cl      14.44878983      23.95988133      53.63675561      -0.02636079      -0.07383874       0.07197382      -4.74177217
Cl      44.65206074      20.94869237      20.22426600       0.03539918      -0.01320594      -0.02175742      -4.85831833
Cl      21.37086474      40.23359410      10.94658085      -0.02536079       0.02754300      -0.03309446      -4.54522276
Cl      48.00663839      22.76336700       2.31848114       0.01821032       0.06819265       0.01137541      -4.96493006
Cl       0.41452602      16.87367654      52.65355570       0.06327747       0.01053990      -0.02392462      -4.85111523
Cl      45.19191204      40.48434049      30.16714757      -0.01076261       0.00332088       0.00892545      -4.87589264
Cl      14.51930466      16.92092587      18.88994764      -0.01458336      -0.03003542       0.00493060      -4.84151316
Cl       5.41190753      22.10054290      21.29707326      -0.02091711       0.09019037       0.05275423      -4.75690937
Cl      39.31211579      21.18115549       9.87221603      -0.09907380       0.05827461      -0.02589170      -4.55963373
Cl      40.91385623      39.00679065      27.46636919       0.03956747      -0.01114725       0.03180973      -4.97571039
Cl      54.48306038       7.23148458      48.02454886      -0.01692255      -0.03057999      -0.05777755      -4.57716322
Cl      35.03602636      47.91334613      43.84894222      -0.05344256       0.01682647      -0.01334329      -4.72312021
Cl       5.95100988      11.16132594      30.25204775      -0.00932511      -0.01554192      -0.05776773      -5.00194693
Cl      24.95633715      16.75603461      43.82384029      -0.01604286      -0.02558531       0.02067925      -4.85764980
Cl      55.65897975      48.77357336      21.38615820       0.05525380       0.00725071       0.00430394      -4.64363670
Cl      32.74033059      56.20354969      27.08839059      -0.03439627       0.00955712      -0.00942630      -4.94810867
Cl      55.05822682      44.88757306       5.92686022       0.02062430      -0.01775171       0.02786504      -4.78875875
Cl       3.11228851      58.13617580       7.64487068       0.11854474       0.00534351      -0.10387384      -4.64776230
Cl      32.43838650      54.89047375      34.03713110      -0.05856917      -0.09004156      -0.03156680      -4.84191608
Cl      32.60560287      54.14780154      37.71419611      -0.09461787       0.07473560       0.05332834      -4.82332611
Cl      14.14394956      27.75426893      26.79739509       0.01935485       0.00837572      -0.01939280      -4.79641294
Cl      22.46224110      29.24877621      22.68782154      -0.02882461       0.03475993       0.05792719      -4.81339264
Cl      32.02568789      52.02840084      27.47295240      -0.04309006       0.02290365      -0.01253605      -4.92758322
Cl      27.22527486       4.60286965      16.77021136       0.06295460       0.01938647      -0.01610664      -4.87657785
Cl      36.99071040      18.61692305      21.80094561      -0.03180903      -0.02030401       0.04600975      -4.82362700
Cl      21.49017883       8.02239126      27.87832050      -0.00792909      -0.03409485      -0.03109467      -5.00510788
Cl       8.42119549      17.90313128      25.58385535       0.13624246       0.03111684       0.09162884      -4.95990705
Cl      41.00676176       1.76374788      54.69311171       0.02033410      -0.02408234      -0.00952318      -4.75997925
Cl       3.18233326      43.77964685       1.62971765       0.01848866       0.09663769      -0.02080102      -4.67535353
Cl      31.60285239      33.98546247      31.03815504       0.00295361       0.13775507      -0.01384016      -4.80300903
Cl      13.55978426      20.36012412      27.22784988      -0.04541065      -0.04145481       0.01244520      -4.81946373
Cl      36.49969819       6.32401450      32.37559359      -0.02402757      -0.00351211       0.01743029      -4.81551075
Cl      19.56899653       4.97706585      25.38506011       0.01308660      -0.02671895      -0.08996109      -4.66216373
Cl       9.10534873      32.19246142      47.37484864       0.02504547       0.03440910      -0.01548356      -4.83569002
Cl      36.44426320      14.74496549      58.04322901      -0.03850845      -0.01181872      -0.04123702      -4.89428568
Cl       4.67647630      45.30686676      54.67731762       0.01700350      -0.05977905       0.05505613      -4.91935873
Cl      45.74980626      35.01258758      52.85756265       0.01148128       0.00870031      -0.00763000      -4.83961487
Cl      26.25600437      26.69679962      23.06783124      -0.01791732      -0.03923393      -0.01068916      -4.79814911
Cl      42.53272673      13.91099823      30.34076258      -0.02823108       0.02329048       0.00666449      -4.68420553
Cl      53.74477583      49.78203047      57.69078324       0.03204327      -0.02405725       0.02909666      -4.96361589
Cl      14.38222271      13.24729832      49.35362824       0.00995183      -0.03825552       0.04537011      -4.88074827
Cl      23.89483806       9.79190868       1.40557511      -0.02380507      -0.00337510      -0.06114327      -4.73894310
Cl      43.02461591      52.25636479      16.09723366      -0.03644334       0.08659589       0.04950450      -4.85334969
Cl      28.36336143      53.51761407       5.05941590      -0.02562146      -0.02212571       0.06002777      -4.72941303
Cl       7.19434176      54.68752139      35.03065728      -0.06069048       0.06241574      -0.05240619      -4.69972897
Cl      53.91682576      56.95106856      41.17242256       0.00358529      -0.02350387      -0.01635291      -4.84757614
Cl      30.60483987      16.72238544      42.32867286      -0.03206398      -0.01596489       0.02384123      -4.74745369
Cl      10.80458973      56.24734261      18.19355350      -0.03397284       0.05366653      -0.05248304      -4.74266958
Cl      50.79460232      43.69734099      47.68445658       0.02410210       0.00081450       0.03616149      -4.90441895
Na      34.48669453       9.22100727      19.33341015       0.04488057      -0.01534430      -0.01146165      -1.18342006
Na      52.88992783      39.43551137      42.61249343      -0.00570137       0.00921731      -0.03678936      -1.27358639
Na       6.69829156      46.24765293      53.03560339      -0.05274553      -0.01803240       0.07178953      -1.25611734
Na      42.15193387      39.06230155      36.81330153      -0.02632530       0.01433677       0.01783989      -1.03911674
Na       8.82148889      30.07387375      31.11397338      -0.01849012       0.02869324      -0.00273050      -1.16594791
Na      57.45876227      10.81982692      29.02454208      -0.00343369      -0.01881425       0.05290104      -1.22163725
Na      15.43963331      21.61662718      25.76038235       0.07712608      -0.00875637      -0.01173091      -1.18864667
Na      43.50186310      48.58279594       7.64605143       0.06369237       0.02127402      -0.00262086      -1.24549627
Na       6.96501871      52.20398006      15.98312130       0.03503909      -0.01228636      -0.04373911      -1.32131565
Na      19.57906519      13.46271544      14.63700537      -0.01631188      -0.01363368      -0.01715582      -1.16918087
Na      47.44461002      28.37804972      10.21112710       0.03780611      -0.02662491      -0.07024126      -1.10307431
Na      19.07744551      49.24856708      51.74199173       0.08457147      -0.01693036      -0.04402482      -1.22851777
Na      19.72401463      39.37187165      42.30990220       0.00651278      -0.01314920      -0.05081787      -1.25594640
Na       6.12380253      57.11467340       6.17241303      -0.08964387       0.07089286       0.08429561      -1.16375899
Na      42.47934090      21.42460596      33.32576149       0.02695893       0.05512708       0.02226806      -1.38379741
Na      56.17590613      11.59338614      25.59138979       0.00822259      -0.04112145       0.01813825      -1.24673593
Na      52.38951623       6.18953323      34.81360230      -0.01099024      -0.09854376      -0.02999100      -1.30422854
Na      30.10670822      44.79301035      21.09752068      -0.00329384      -0.01597572      -0.00310786      -1.23727393
Na      56.76620750       0.10350550      32.91805343      -0.00926373      -0.02737637      -0.00991131      -1.24766588
Na      51.72618615       2.66072507      28.09974803      -0.00901602      -0.01542191       0.03859880      -1.24622524
Na       2.02960310      52.26595527      50.69432114       0.03741929      -0.08310083       0.06304997      -1.21957827
Na      12.25550971      21.15475741      14.92501825       0.04865214       0.05360352       0.00004719      -1.20907640
Na      15.74359833      28.52655865      14.45760648       0.03015713      -0.03767733      -0.01153942      -1.40401804
Na       7.95266588      35.27274607      40.74060863      -0.01780585      -0.02945661       0.02390318      -1.26923585
Na      18.19670166      10.95649092      16.79341636       0.02094150       0.01489820      -0.02420279      -1.20583653
Na       9.41120053       5.04771153      16.51173132       0.03070112       0.06943728      -0.01677367      -1.36267257
Na      47.87428271      32.01174042      27.70354725       0.04307584      -0.10990673       0.09727953      -1.14941096
Na      26.26927347       7.37028969      55.61016862      -0.00235207       0.02337248      -0.05062877      -1.13219213
Na       1.75956378      51.37933999       0.99868386      -0.06298810       0.07219955       0.02160625      -1.28227782
Na      48.61062827       5.57183510       3.34042291      -0.00365812      -0.06044928      -0.05624698      -1.26266885
Na      55.57339053      47.29441537       4.54063488       0.05183311      -0.02498132      -0.00117985      -1.35231185
Na      55.24371771      53.51052844      47.09114867      -0.03938621      -0.00174770       0.00325760      -1.30939198
Na      24.98408798      43.76196086      53.33363233       0.01040077      -0.00722425      -0.01942658      -1.23267484
Na      20.72983692      53.64656416      23.01549729      -0.05200946       0.02367715      -0.00341171      -1.16137600
Na      54.93261905      47.66934240      27.07891039       0.03829621      -0.01932376       0.02266528      -1.26006961
Na      58.67848295      11.53470019      47.26756108       0.05600409      -0.06824584       0.06977838      -1.25874710
Na      39.31588031      18.76029635      52.57351934       0.04610127       0.00819243       0.01243841      -1.28974462
Na       4.84183503      50.13083656      42.42416356      -0.06472083       0.00073348       0.03622104      -1.17976046
Na      14.81675366      47.17789118      44.92281897      -0.07000479      -0.03368422      -0.00028674      -1.20172584
Na      17.23503589      17.87641233      53.80407937       0.03860571       0.01011151       0.10221722      -1.11785519
Na      16.51783824      12.08006849       6.79737322       0.02281089      -0.02499665      -0.00832603      -1.14850068
Na      22.78343751      40.96252732      17.70752477      -0.03203039       0.00309509       0.01784941      -1.27845716
Na      55.47418185      14.56325242      28.17593376       0.04054064       0.01735890      -0.01854740      -1.30761003
Na      46.08156869      24.88739152      25.52897571      -0.09549919       0.01157760       0.08263436      -1.15354168
Na      23.15904773      30.93804440      49.69595687      -0.05022907       0.02754618      -0.02704578      -1.31728101
Na      28.91296503       1.04985710      11.08318178       0.00633967       0.02909871      -0.01019194      -1.21386290
Na      22.03056165      42.75200670      40.94763922      -0.00009631       0.00927085      -0.04414570      -1.13764143
Na       1.72294716      18.82668973      48.28413705      -0.03401478      -0.01453780      -0.08100165      -1.18395042
Na       4.79236779      45.34267400      17.70385712      -0.02771761       0.04031619       0.11050250      -1.05262399
Na      11.07841011      27.63706631       6.06572521       0.06882746      -0.03583898      -0.03662819      -1.16658902
Cl       4.11986349      47.50906567       5.39092305       0.03342301      -0.01743003      -0.19539031      -4.64189148
Cl      29.08065660      38.59174809       9.74115450      -0.02635921      -0.07383766       0.07197616      -4.74177122
Cl       0.75645907      35.58055951      34.85613292       0.03539734      -0.01320296      -0.02175730      -4.85831785
Cl      36.00273194      54.86546131      25.57844808      -0.02536214       0.02754335      -0.03309425      -4.54522228
Cl       4.11103711      37.39523379      16.95034807       0.01820724       0.06819404       0.01137423      -4.96492815
Cl      15.04639368      31.50554376       8.75795436       0.06327637       0.01053640      -0.02392729      -4.85111618
Cl       1.29631016      55.11620870      44.79901482      -0.01075626       0.00332427       0.00892748      -4.87588739
Cl      29.15117147      31.55279307      33.52181461      -0.01458325      -0.03003719       0.00493197      -4.84151220
Cl      20.04377444      36.73240976      35.92894052      -0.02091768       0.09018506       0.05275811      -4.75690794
Cl      53.94398319      35.81302261      24.50408323      -0.09908149       0.05827360      -0.02589348      -4.55963373
Cl      55.54572379      53.63865794      42.09823580       0.03957043      -0.01114291       0.03180859      -4.97570896
Cl      10.58745869      21.86335212       4.12894795      -0.01692142      -0.03057877      -0.05777946      -4.57716322
Cl      49.66789368       4.01774471      -0.04666070      -0.05344180       0.01682442      -0.01334398      -4.72311974
Cl      20.58287719      25.79319287      44.88391474      -0.00932872      -0.01554150      -0.05776713      -5.00194597
Cl      39.58820408      31.38790175      -0.07176214      -0.01604283      -0.02558851       0.02068095      -4.85764980
Cl      11.76337790       4.87797212      36.01802492       0.05526043       0.00725122       0.00429920      -4.64363766
Cl      47.37219725      12.30794832      41.72025735      -0.03439775       0.00955203      -0.00942692      -4.94810867
Cl      11.16262584       0.99197113      20.55872711       0.02062551      -0.01774533       0.02786535      -4.78875971
Cl      17.74415677      14.24057428      22.27673751       0.11854767       0.00534569      -0.10387186      -4.64776134
Cl      47.07025334      10.99487296      48.66899823      -0.05856696      -0.09004507      -0.03156655      -4.84191704
Cl      47.23747020      10.25220050      52.34606320      -0.09461303       0.07473215       0.05332720      -4.82332563
Cl      28.77581681      42.38613598      41.42926223       0.01935696       0.00837734      -0.01939458      -4.79641247
Cl      37.09410818      43.88064305      37.31968888      -0.02882637       0.03476204       0.05792371      -4.81339312
Cl      46.65755500       8.13279970      42.10481952      -0.04308924       0.02290279      -0.01253896      -4.92758560
Cl      41.85714178      19.23473690      31.40207827       0.06295240       0.01938715      -0.01610679      -4.87657928
Cl      51.62257779      33.24879015      36.43281269      -0.03180891      -0.02030795       0.04600922      -4.82362795
Cl      36.12204609      22.65425846      42.51018750      -0.00793467      -0.03409720      -0.03109780      -5.00510502
Cl      23.05306254      32.53499833      40.21572243       0.13624226       0.03111459       0.09162430      -4.95990658
Cl      55.63862957      16.39561536      10.79750982       0.02033452      -0.02408090      -0.00952233      -4.75997877
Cl      17.81420048      58.41151482      16.26158550       0.01848316       0.09663908      -0.02079845      -4.67535591
Cl      46.23471940      48.61732932      45.67002211       0.00295489       0.13775685      -0.01384208      -4.80300665
Cl      28.19165130      34.99199114      41.85971700      -0.04540771      -0.04145711       0.01244357      -4.81946468
Cl      51.13156551      20.95588169      47.00746090      -0.02402305      -0.00350960       0.01743001      -4.81551266
Cl      34.20086362      19.60893293      40.01692738       0.01308668      -0.02671771      -0.08996226      -4.66216516
Cl      23.73721574      46.82432843       3.47924718       0.02504764       0.03441447      -0.01548818      -4.83569145
Cl      51.07613015      29.37683269      14.14762724      -0.03851032      -0.01182054      -0.04123762      -4.89428616
Cl      19.30834274       1.41126568      10.78171615       0.01700395      -0.05977901       0.05505798      -4.91935921
Cl       1.85420506      49.64445466       8.96196144       0.01148205       0.00870243      -0.00762983      -4.83961582
Cl      40.88787171      41.32866621      37.69969869      -0.01791728      -0.03923117      -0.01069592      -4.79815102
Cl      57.16459443      28.54286499      44.97262997      -0.02823049       0.02328853       0.00666279      -4.68420506
Cl       9.84917427       5.88642908      13.79518110       0.03204547      -0.02405602       0.02909888      -4.96361685
Cl      29.01408977      27.87916559       5.45802700       0.00995598      -0.03825688       0.04537249      -4.88074732
Cl      38.52670466      24.42377560      16.03744244      -0.02379688      -0.00337329      -0.06114145      -4.73894405
Cl      57.65648401       8.36076359      30.72910029      -0.03644528       0.08659057       0.04950325      -4.85335112
Cl      42.99522832       9.62201270      19.69128278      -0.02562238      -0.02212862       0.06002940      -4.72941399
Cl      21.82620910      10.79192023      49.66252427      -0.06069084       0.06241715      -0.05240498      -4.69973183
Cl      10.02122428      13.05546738      55.80428977       0.00357876      -0.02350561      -0.01635253      -4.84757614
Cl      45.23670688      31.35425219      56.96054093      -0.03206106      -0.01596582       0.02384153      -4.74745417
Cl      25.43645642      12.35174191      32.82542000      -0.03397574       0.05366310      -0.05248258      -4.74267006
Cl       6.89900148      58.32920857       3.78885493       0.02409812       0.00081700       0.03615699      -4.90442038
Na      34.48669436       9.22100723      33.96527723       0.04487965      -0.01534318      -0.01146373      -1.18342018
Na      52.88992809      39.43551101      57.24436166      -0.00570123       0.00921707      -0.03679571      -1.27358603
Na       6.69829158      46.24765302       9.14000194      -0.05274598      -0.01803415       0.07178550      -1.25611711
Na      42.15193370      39.06230183      51.44516919      -0.02632383       0.01433804       0.01784176      -1.03911662
Na       8.82148896      30.07387380      45.74584020      -0.01848986       0.02869179      -0.00273063      -1.16594815
Na      57.45876216      10.81982681      43.65640888      -0.00343429      -0.01881305       0.05289978      -1.22163916
Na      15.43963332      21.61662705      40.39224915       0.07712635      -0.00875576      -0.01173061      -1.18864596
Na      43.50186306      48.58279599      22.27791839       0.06369326       0.02127372      -0.00262029      -1.24549603
Na       6.96501878      52.20397998      30.61498829       0.03503909      -0.01228808      -0.04373872      -1.32131577
Na      19.57906524      13.46271554      29.26887241      -0.01631149      -0.01363356      -0.01715813      -1.16918039
Na      47.44461009      28.37804987      24.84299397       0.03780608      -0.02662468      -0.07024384      -1.10307395
Na      19.07744545      49.24856700       7.84639069       0.08456994      -0.01693320      -0.04402282      -1.22851729
Na      19.72401446      39.37187185      56.94176961       0.00651318      -0.01314763      -0.05081848      -1.25594652
Na       6.12380242      57.11467340      20.80428010      -0.08964308       0.07089304       0.08429733      -1.16375959
Na      42.47934089      21.42460595      47.95762847       0.02695630       0.05512629       0.02226460      -1.38379717
Na      56.17590607      11.59338614      40.22325663       0.00822535      -0.04112210       0.01815022      -1.24673641
Na      52.38951613       6.18953314      49.44546932      -0.01099056      -0.09854347      -0.02999109      -1.30422795
Na      30.10670823      44.79301058      35.72938783      -0.00329429      -0.01597718      -0.00310924      -1.23727369
Na      56.76620755       0.10350547      47.54992027      -0.00926372      -0.02737662      -0.00991148      -1.24766636
Na      51.72618618       2.66072508      42.73161491      -0.00901745      -0.01542316       0.03860538      -1.24622607
Na       2.02960307      52.26595534       6.79872015       0.03741773      -0.08310124       0.06304962      -1.21957898
Na      12.25550980      21.15475739      29.55688538       0.04865251       0.05360539       0.00004801      -1.20907617
Na      15.74359830      28.52655872      29.08947341       0.03015710      -0.03767617      -0.01154118      -1.40401793
Na       7.95266598      35.27274584      55.37247600      -0.01780811      -0.02945688       0.02390584      -1.26923537
Na      18.19670158      10.95649102      31.42528350       0.02094141       0.01489729      -0.02419838      -1.20583642
Na       9.41120044       5.04771151      31.14359841       0.03069992       0.06943786      -0.01677351      -1.36267233
Na      47.87428283      32.01174027      42.33541431       0.04307409      -0.10990846       0.09727778      -1.14941204
Na      26.26927363       7.37028974      11.71456700      -0.00235358       0.02337098      -0.05063188      -1.13219213
Na       1.75956369      51.37934012      15.63055091      -0.06298903       0.07220043       0.02160648      -1.28227782
Na      48.61062837       5.57183500      17.97228968      -0.00365707      -0.06044979      -0.05624699      -1.26266885
Na      55.57339041      47.29441538      19.17250220       0.05183277      -0.02498328      -0.00118052      -1.35231161
Na      55.24371789      53.51052839       3.19554721      -0.03938627      -0.00174762       0.00325968      -1.30939138
Na      24.98408795      43.76196089       9.43803092       0.01040046      -0.00722338      -0.01942816      -1.23267579
Na      20.72983690      53.64656405      37.64736414      -0.05201009       0.02367772      -0.00341224      -1.16137540
Na      54.93261898      47.66934245      41.71077733       0.03829671      -0.01932386       0.02266781      -1.26006997
Na      58.67848293      11.53470014       3.37195980       0.05600315      -0.06824570       0.06978075      -1.25874758
Na      39.31588032      18.76029628       8.67791794       0.04610123       0.00819290       0.01244441      -1.28974545
Na       4.84183510      50.13083677      57.05603084      -0.06472131       0.00073342       0.03622042      -1.17976069
Na      14.81675385      47.17789062       1.02721767      -0.07000498      -0.03368451      -0.00028811      -1.20172584
Na      17.23503588      17.87641248       9.90847852       0.03860515       0.01010912       0.10221895      -1.11785531
Na      16.51783836      12.08006852      21.42924064       0.02281024      -0.02499762      -0.00832878      -1.14850056
Na      22.78343752      40.96252721      32.33939163      -0.03203004       0.00309593       0.01785243      -1.27845657
Na      55.47418193      14.56325234      42.80780064       0.04054221       0.01736055      -0.01854387      -1.30761147
Na      46.08156886      24.88739149      40.16084242      -0.09549979       0.01157796       0.08263463      -1.15354133
Na      23.15904784      30.93804451       5.80035537      -0.05022990       0.02754615      -0.02704298      -1.31728125
Na      28.91296505       1.04985708      25.71504883       0.00633976       0.02910011      -0.01019415      -1.21386278
Na      22.03056163      42.75200650      55.57950672      -0.00009700       0.00927043      -0.04414600      -1.13764167
Na       1.72294714      18.82668950       4.38853611      -0.03401566      -0.01453125      -0.08099750      -1.18394995
Na       4.79236767      45.34267390      32.33572402      -0.02771744       0.04031719       0.11050158      -1.05262423
Na      11.07840998      27.63706625      20.69759226       0.06882700      -0.03583872      -0.03662435      -1.16658866
Cl       4.11986362      47.50906557      20.02278999       0.03342070      -0.01742705      -0.19539106      -4.64189053
Cl      29.08065665      38.59174813      24.37302154      -0.02635976      -0.07383709       0.07197665      -4.74177170
Cl       0.75645923      35.58055945      49.48800027       0.03539877      -0.01320307      -0.02175413      -4.85831881
Cl      36.00273196      54.86546136      40.21031515      -0.02536338       0.02753489      -0.03309683      -4.54522419
Cl       4.11103707      37.39523382      31.58221513       0.01820781       0.06819504       0.01137526      -4.96492815
Cl      15.04639376      31.50554380      23.38982152       0.06327600       0.01053635      -0.02392677      -4.85111570
Cl       1.29630970      55.11620885       0.90341326      -0.01075909       0.00332172       0.00892537      -4.87588930
Cl      29.15117142      31.55279299      48.15368154      -0.01458283      -0.03003799       0.00493314      -4.84151125
Cl      20.04377442      36.73240992      50.56080737      -0.02091864       0.09018210       0.05276107      -4.75690746
Cl      53.94398324      35.81302271      39.13594996      -0.09907895       0.05827658      -0.02588613      -4.55963278
Cl      55.54572379      53.63865827      56.73010333       0.03957035      -0.01114389       0.03181352      -4.97570896
Cl      10.58745870      21.86335212      18.76081495      -0.01692168      -0.03057881      -0.05777857      -4.57716322
Cl      49.66789357       4.01774429      14.58520813      -0.05344205       0.01682315      -0.01334327      -4.72311974
Cl      20.58287713      25.79319258       0.98831333      -0.00932360      -0.01553695      -0.05776824      -5.00194693
Cl      39.58820424      31.38790140      14.56010595      -0.01604342      -0.02558856       0.02068153      -4.85765076
Cl      11.76337779       4.87797230      50.64989220       0.05525912       0.00725422       0.00430793      -4.64363956
Cl      47.37219761      12.30794842      56.35212505      -0.03439640       0.00955370      -0.00942461      -4.94810820
Cl      11.16262586       0.99197119      35.19059411       0.02062404      -0.01774547       0.02786727      -4.78875971
Cl      17.74415689      14.24057433      36.90860478       0.11854523       0.00534615      -0.10387143      -4.64776182
Cl      47.07025342      10.99487324       4.77339733      -0.05857433      -0.09004045      -0.03156462      -4.84191608
Cl      47.23747003      10.25220048       8.45046209      -0.09461311       0.07473186       0.05332226      -4.82332516
Cl      28.77581670      42.38613598      56.06112995       0.01935781       0.00837876      -0.01939231      -4.79641294
Cl      37.09410823      43.88064315      51.95155552      -0.02882729       0.03476300       0.05792648      -4.81339359
Cl      46.65755503       8.13279994      56.73668689      -0.04308782       0.02290191      -0.01253810      -4.92758131
Cl      41.85714172      19.23473697      46.03394529       0.06295299       0.01938789      -0.01610929      -4.87657642
Cl      51.62257798      33.24879016      51.06467984      -0.03180803      -0.02030815       0.04601319      -4.82362747
Cl      36.12204614      22.65425870      57.14205557      -0.00793399      -0.03409649      -0.03109727      -5.00510550
Cl      23.05306248      32.53499842      54.84758969       0.13624001       0.03111333       0.09161847      -4.95990658
Cl      55.63862951      16.39561533      25.42937667       0.02033601      -0.02407895      -0.00952016      -4.75997925
Cl      17.81420055      58.41151476      30.89345240       0.01848499       0.09664033      -0.02079635      -4.67535591
Cl      46.23471961      48.61732919       1.77442127       0.00295481       0.13775733      -0.01384357      -4.80300665
Cl      28.19165115      34.99199123      56.49158414      -0.04540945      -0.04145633       0.01244536      -4.81946230
Cl      51.13156528      20.95588183       3.11185908      -0.02402116      -0.00350970       0.01743069      -4.81551170
Cl      34.20086364      19.60893308      54.64879389       0.01308778      -0.02671754      -0.08996081      -4.66216564
Cl      23.73721557      46.82432841      18.11111462       0.02504748       0.03441326      -0.01548925      -4.83569145
Cl      51.07613016      29.37683269      28.77949409      -0.03851101      -0.01182102      -0.04123481      -4.89428663
Cl      19.30834275       1.41126560      25.41358325       0.01700483      -0.05977903       0.05505806      -4.91935921
Cl       1.85420511      49.64445457      23.59382849       0.01148111       0.00870187      -0.00763054      -4.83961630
Cl      40.88787160      41.32866647      52.33156527      -0.01791674      -0.03923282      -0.01068889      -4.79814911
Cl      57.16459442      28.54286522       1.07702845      -0.02822965       0.02328939       0.00666020      -4.68420315
Cl       9.84917432       5.88642909      28.42704806       0.03204507      -0.02405602       0.02910003      -4.96361780
Cl      29.01408976      27.87916566      20.08989448       0.00995563      -0.03825724       0.04537044      -4.88074732
Cl      38.52670437      24.42377556      30.66930927      -0.02379589      -0.00337367      -0.06114023      -4.73894453
Cl      57.65648390       8.36076354      45.36096743      -0.03644540       0.08658998       0.04950339      -4.85334921
Cl      42.99522825       9.62201279      34.32315001      -0.02562153      -0.02212758       0.06002437      -4.72941303
Cl      21.82620912      10.79192021       5.76692301      -0.06069124       0.06241782      -0.05240605      -4.69973087
Cl      10.02122433      13.05546723      11.90868835       0.00358033      -0.02350679      -0.01635190      -4.84757614
Cl      45.23670699      31.35425238      13.06493889      -0.03206317      -0.01596596       0.02384149      -4.74745321
Cl      25.43645634      12.35174194      47.45728706      -0.03397388       0.05366405      -0.05248212      -4.74267006
Cl       6.89900148      58.32920854      18.42072242       0.02409793       0.00081746       0.03615604      -4.90442038
Na      34.48669450       9.22100722      48.59714412       0.04488016      -0.01534354      -0.01146302      -1.18341959
Na      52.88992783      39.43551130      13.34875961      -0.00570150       0.00921727      -0.03679500      -1.27358580
Na       6.69829150      46.24765305      23.77186917      -0.05274484      -0.01803397       0.07178454      -1.25611734
Na      42.15193393      39.06230163       7.54956730      -0.02632444       0.01433669       0.01783935      -1.03911710
Na       8.82148879      30.07387428       1.85023860      -0.01848870       0.02869454      -0.00272881      -1.16594791
Na      57.45876230      10.81982678      58.28827687      -0.00343394      -0.01881451       0.05290149      -1.22163820
Na      15.43963321      21.61662728      55.02411679       0.07712663      -0.00875586      -0.01172988      -1.18864679
Na      43.50186276      48.58279591      36.90978532       0.06369143       0.02127512      -0.00262195      -1.24549556
Na       6.96501877      52.20398007      45.24685532       0.03504005      -0.01228440      -0.04374220      -1.32131648
Na      19.57906524      13.46271542      43.90073948      -0.01631269      -0.01363448      -0.01715402      -1.16918099
Na      47.44460995      28.37804970      39.47486094       0.03780801      -0.02662394      -0.07024096      -1.10307443
Na      19.07744538      49.24856684      22.47825777       0.08457043      -0.01693354      -0.04402314      -1.22851789
Na      19.72401449      39.37187174      13.04616814       0.00651236      -0.01314784      -0.05082066      -1.25594616
Na       6.12380250      57.11467345      35.43614717      -0.08964401       0.07089178       0.08429717      -1.16375923
Na      42.47934094      21.42460594       4.06202727       0.02695746       0.05512656       0.02226619      -1.38379717
Na      56.17590629      11.59338621      54.85512418       0.00822370      -0.04112280       0.01813813      -1.24673605
Na      52.38951617       6.18953312       5.54986815      -0.01099054      -0.09854370      -0.02999166      -1.30422783
Na      30.10670831      44.79301051      50.36125510      -0.00329489      -0.01597670      -0.00310938      -1.23727369
Na      56.76620743       0.10350540       3.65431900      -0.00926402      -0.02737713      -0.00991224      -1.24766588
Na      51.72618612       2.66072517      57.36348257      -0.00901653      -0.01542324       0.03860255      -1.24622560
Na       2.02960316      52.26595543      21.43058719       0.03741798      -0.08310154       0.06305020      -1.21957874
Na      12.25550989      21.15475734      44.18875258       0.04865126       0.05360442       0.00005353      -1.20907664
Na      15.74359830      28.52655860      43.72134073       0.03015703      -0.03767647      -0.01154021      -1.40401828
Na       7.95266595      35.27274604      11.47687461      -0.01780702      -0.02945634       0.02390395      -1.26923585
Na      18.19670155      10.95649102      46.05715051       0.02094543       0.01489811      -0.02420523      -1.20583725
Na       9.41120056       5.04771143      45.77546539       0.03070206       0.06943715      -0.01677546      -1.36267281
Na      47.87428278      32.01174034      56.96728140       0.04307470      -0.10990793       0.09727977      -1.14941072
Na      26.26927348       7.37028967      26.34643402      -0.00235265       0.02337207      -0.05062949      -1.13219190
Na       1.75956356      51.37934011      30.26241795      -0.06298771       0.07219942       0.02160617      -1.28227782
Na      48.61062838       5.57183504      32.60415668      -0.00365840      -0.06044922      -0.05624573      -1.26266885
Na      55.57339040      47.29441529      33.80436907       0.05183326      -0.02498291      -0.00118538      -1.35231173
Na      55.24371794      53.51052852      17.82741470      -0.03938626      -0.00174769       0.00325780      -1.30939150
Na      24.98408805      43.76196087      24.06989815       0.01039916      -0.00722430      -0.01942965      -1.23267567
Na      20.72983692      53.64656415      52.27923118      -0.05200900       0.02367785      -0.00341160      -1.16137564
Na      54.93261895      47.66934247      56.34264486       0.03829582      -0.01932293       0.02267000      -1.26007020
Na      58.67848298      11.53470012      18.00382695       0.05600309      -0.06824575       0.06978250      -1.25874758
Na      39.31588020      18.76029626      23.30978504       0.04610107       0.00819170       0.01244058      -1.28974509
Na       4.84183497      50.13083648      13.16042988      -0.06472184       0.00073408       0.03622046      -1.17976046
Na      14.81675367      47.17789119      15.65908495      -0.07000504      -0.03368462      -0.00028844      -1.20172548
Na      17.23503595      17.87641245      24.54034560       0.03860002       0.01010769       0.10221511      -1.11785507
Na      16.51783833      12.08006856      36.06110752       0.02280938      -0.02499622      -0.00832765      -1.14850092
Na      22.78343738      40.96252740      46.97125894      -0.03202981       0.00309496       0.01784872      -1.27845740
Na      55.47418152      14.56325239      57.43966829       0.04054301       0.01736121      -0.01854126      -1.30761051
Na      46.08156901      24.88739137      54.79270980      -0.09549917       0.01157569       0.08263628      -1.15354216
Na      23.15904783      30.93804440      20.43222262      -0.05023008       0.02754565      -0.02704198      -1.31728148
Na      28.91296500       1.04985708      40.34691580       0.00634130       0.02909992      -0.01019445      -1.21386290
Na      22.03056152      42.75200663      11.68390519      -0.00009681       0.00927029      -0.04414845      -1.13764179
Na       1.72294728      18.82668958      19.02040306      -0.03401522      -0.01453100      -0.08099774      -1.18395007
Na       4.79236774      45.34267376      46.96759102      -0.02771831       0.04031593       0.11050250      -1.05262423
Na      11.07840994      27.63706637      35.32945941       0.06882812      -0.03583858      -0.03662970      -1.16658819
Cl       4.11986365      47.50906571      34.65465707       0.03342439      -0.01743060      -0.19538714      -4.64189100
Cl      29.08065657      38.59174833      39.00488844      -0.02635656      -0.07383880       0.07198014      -4.74177170
Cl       0.75645907      35.58055950       5.59239894       0.03539688      -0.01320423      -0.02175914      -4.85831833
Cl      36.00273166      54.86546119      54.84218238      -0.02536191       0.02754208      -0.03309631      -4.54522276
Cl       4.11103703      37.39523380      46.21408202       0.01820702       0.06819306       0.01137503      -4.96492767
Cl      15.04639395      31.50554384      38.02168855       0.06327344       0.01053578      -0.02392996      -4.85111713
Cl       1.29631012      55.11620854      15.53528071      -0.01075993       0.00332186       0.00892576      -4.87588882
Cl      29.15117143      31.55279306       4.25808030      -0.01458360      -0.03003802       0.00493236      -4.84151220
Cl      20.04377437      36.73240962       6.66520632      -0.02091760       0.09018649       0.05275632      -4.75690794
Cl      53.94398356      35.81302268      53.76781734      -0.09908116       0.05827197      -0.02589414      -4.55963469
Cl      55.54572363      53.63865793      12.83450189       0.03956991      -0.01114491       0.03180948      -4.97570992
Cl      10.58745868      21.86335202      33.39268183      -0.01692209      -0.03057983      -0.05777740      -4.57716322
Cl      49.66789355       4.01774425      29.21707516      -0.05344217       0.01682378      -0.01334329      -4.72312021
Cl      20.58287717      25.79319280      15.62018085      -0.00932851      -0.01553679      -0.05776835      -5.00194645
Cl      39.58820422      31.38790146      29.19197299      -0.01604393      -0.02558876       0.02068253      -4.85765123
Cl      11.76337775       4.87797208       6.75429110       0.05526013       0.00725225       0.00429899      -4.64363909
Cl      47.37219730      12.30794817      12.45652348      -0.03439710       0.00955285      -0.00942835      -4.94810820
Cl      11.16262579       0.99197107      49.82246093       0.02062543      -0.01774599       0.02786706      -4.78875971
Cl      17.74415677      14.24057427      51.54047180       0.11854859       0.00534696      -0.10386858      -4.64776230
Cl      47.07025342      10.99487308      19.40526450      -0.05857585      -0.09003971      -0.03155936      -4.84191608
Cl      47.23747005      10.25220048      23.08232902      -0.09461485       0.07473113       0.05332528      -4.82332516
Cl      28.77581665      42.38613595      12.16552822       0.01935763       0.00837659      -0.01939078      -4.79641294
Cl      37.09410816      43.88064314       8.05595450      -0.02882569       0.03476222       0.05792551      -4.81339216
Cl      46.65755492       8.13279978      12.84108548      -0.04308782       0.02290232      -0.01253832      -4.92758369
Cl      41.85714171      19.23473687       2.13834387       0.06295294       0.01938378      -0.01610441      -4.87657785
Cl      51.62257791      33.24879008       7.16907842      -0.03180937      -0.02030683       0.04600852      -4.82362747
Cl      36.12204611      22.65425839      13.24645348      -0.00793421      -0.03409821      -0.03109503      -5.00510645
Cl      23.05306249      32.53499832      10.95198828       0.13624077       0.03111334       0.09162518      -4.95990610
Cl      55.63862970      16.39561551      40.06124398       0.02033490      -0.02408119      -0.00952320      -4.75997925
Cl      17.81420060      58.41151499      45.52531968       0.01848333       0.09664110      -0.02079422      -4.67535591
Cl      46.23471949      48.61732918      16.40628835       0.00295419       0.13775717      -0.01384370      -4.80300713
Cl      28.19165115      34.99199123      12.59598294      -0.04541043      -0.04145680       0.01244542      -4.81946278
Cl      51.13156540      20.95588193      17.74372671      -0.02402155      -0.00350880       0.01743127      -4.81551218
Cl      34.20086361      19.60893294      10.75319297       0.01308608      -0.02671889      -0.08996341      -4.66216564
Cl      23.73721562      46.82432841      32.74298201       0.02504712       0.03441209      -0.01548559      -4.83569098
Cl      51.07613031      29.37683277      43.41136119      -0.03850937      -0.01181998      -0.04123798      -4.89428568
Cl      19.30834268       1.41126571      40.04545037       0.01700401      -0.05978017       0.05505516      -4.91935873
Cl       1.85420506      49.64445467      38.22569573       0.01148079       0.00870110      -0.00763189      -4.83961630
Cl      40.88787163      41.32866631       8.43596433      -0.01791661      -0.03923284      -0.01069201      -4.79814911
Cl      57.16459444      28.54286496      15.70889582      -0.02823024       0.02328908       0.00666346      -4.68420553
Cl       9.84917424       5.88642912      43.05891520       0.03204575      -0.02405557       0.02909952      -4.96361732
Cl      29.01408980      27.87916540      34.72176152       0.00995707      -0.03825596       0.04537424      -4.88074684
Cl      38.52670462      24.42377558      45.30117628      -0.02379844      -0.00337360      -0.06114560      -4.73894215
Cl      57.65648416       8.36076351       1.46536595      -0.03644586       0.08659030       0.04950281      -4.85334969
Cl      42.99522834       9.62201287      48.95501649      -0.02562321      -0.02213148       0.06002592      -4.72941494
Cl      21.82620903      10.79192022      20.39879025      -0.06068749       0.06241700      -0.05240500      -4.69973183
Cl      10.02122428      13.05546727      26.54055542       0.00358088      -0.02350627      -0.01635097      -4.84757614
Cl      45.23670702      31.35425235      27.69680588      -0.03206254      -0.01596557       0.02384237      -4.74745274
Cl      25.43645624      12.35174158       3.56168583      -0.03397384       0.05366335      -0.05248340      -4.74267006
Cl       6.89900152      58.32920866      33.05258912       0.02409787       0.00081638       0.03615705      -4.90442133
Na      34.48669433       9.22100737       4.70154296       0.04487981      -0.01534440      -0.01146049      -1.18342006
Na      52.88992780      39.43551129      27.98062655      -0.00570081       0.00921739      -0.03679619      -1.27358556
Na       6.69829154      46.24765299      38.40373593      -0.05274531      -0.01803339       0.07178752      -1.25611687
Na      42.15193381      39.06230170      22.18143465      -0.02632307       0.01433695       0.01783633      -1.03911698
Na       8.82148894      30.07387395      16.48210636      -0.01849060       0.02869277      -0.00273002      -1.16594768
Na      57.45876244      10.81982696      14.39267509      -0.00343425      -0.01881350       0.05290055      -1.22163796
Na      15.43963333      21.61662715      11.12851516       0.07712595      -0.00875587      -0.01173052      -1.18864667
Na      43.50186315      48.58279580      51.54165233       0.06369163       0.02127364      -0.00262176      -1.24549556
Na       6.96501846      52.20397994       1.35125350       0.03503954      -0.01228628      -0.04373956      -1.32131624
Na      19.57906539      13.46271555       0.00513777      -0.01631116      -0.01363334      -0.01715532      -1.16918099
Na      47.44461004      28.37804976      54.10672820       0.03780719      -0.02662443      -0.07024160      -1.10307360
Na      19.07744548      49.24856702      37.11012457       0.08457062      -0.01693400      -0.04402180      -1.22851706
Na      19.72401453      39.37187167      27.67803517       0.00651172      -0.01314783      -0.05082199      -1.25594592
Na       6.12380254      57.11467348      50.06801413      -0.08964430       0.07089239       0.08429682      -1.16375875
Na      42.47934085      21.42460602      18.69389457       0.02695703       0.05512676       0.02226559      -1.38379717
Na      56.17590615      11.59338616      10.95952267       0.00822392      -0.04112250       0.01814470      -1.24673641
Na      52.38951626       6.18953324      20.18173529      -0.01099041      -0.09854389      -0.02999233      -1.30422831
Na      30.10670800      44.79301029       6.46565367      -0.00329454      -0.01597682      -0.00310836      -1.23727369
Na      56.76620739       0.10350549      18.28618645      -0.00926313      -0.02737702      -0.00991152      -1.24766564
Na      51.72618611       2.66072511      13.46788102      -0.00901716      -0.01542234       0.03860058      -1.24622583
Na       2.02960324      52.26595535      36.06245420       0.03741704      -0.08310048       0.06304996      -1.21957934
Na      12.25551003      21.15475710       0.29315051       0.04865122       0.05360352       0.00004607      -1.20907700
Na      15.74359830      28.52655874      58.35320817       0.03015622      -0.03767702      -0.01153649      -1.40401840
Na       7.95266587      35.27274608      26.10874149      -0.01780714      -0.02945635       0.02390238      -1.26923585
Na      18.19670134      10.95649108       2.16154894       0.02094262       0.01489687      -0.02419982      -1.20583713
Na       9.41120055       5.04771142       1.87986371       0.03070113       0.06943645      -0.01677318      -1.36267292
Na      47.87428276      32.01174035      13.07168042       0.04307585      -0.10990769       0.09727731      -1.14941144
Na      26.26927341       7.37028979      40.97830102      -0.00235579       0.02336716      -0.05063588      -1.13219166
Na       1.75956369      51.37934006      44.89428497      -0.06298888       0.07220080       0.02160716      -1.28227806
Na      48.61062839       5.57183502      47.23602365      -0.00365913      -0.06044956      -0.05624566      -1.26266873
Na      55.57339039      47.29441529      48.43623582       0.05183299      -0.02498518      -0.00118548      -1.35231197
Na      55.24371801      53.51052860      32.45928185      -0.03938634      -0.00174774       0.00325979      -1.30939138
Na      24.98408791      43.76196089      38.70176489       0.01040325      -0.00722227      -0.01942278      -1.23267496
Na      20.72983691      53.64656414       8.38363027      -0.05200990       0.02367622      -0.00341104      -1.16137528
Na      54.93261898      47.66934235      12.44704332       0.03829516      -0.01932373       0.02266627      -1.26006961
Na      58.67848287      11.53470018      32.63569415       0.05600217      -0.06824593       0.06978568      -1.25874710
Na      39.31588039      18.76029623      37.94165192       0.04609971       0.00819228       0.01244544      -1.28974533
Na       4.84183505      50.13083645      27.79229679      -0.06472096       0.00073394       0.03621953      -1.17976046
Na      14.81675369      47.17789122      30.29095196      -0.07000532      -0.03368493      -0.00028835      -1.20172536
Na      17.23503593      17.87641248      39.17221236       0.03860301       0.01010593       0.10221826      -1.11785448
Na      16.51783838      12.08006859      50.69297479       0.02280935      -0.02499705      -0.00832614      -1.14850032
Na      22.78343754      40.96252720       3.07565731      -0.03203026       0.00309574       0.01785045      -1.27845716
Na      55.47418180      14.56325243      13.54406663       0.04054214       0.01736021      -0.01854568      -1.30761075
Na      46.08156873      24.88739151      10.89710862      -0.09549965       0.01157769       0.08263608      -1.15354192
Na      23.15904774      30.93804454      35.06408937      -0.05022977       0.02754575      -0.02704546      -1.31728089
Na      28.91296507       1.04985710      54.97878314       0.00633996       0.02909756      -0.01019067      -1.21386242
Na      22.03056158      42.75200672      26.31577219      -0.00009695       0.00927094      -0.04414955      -1.13764167
Na       1.72294721      18.82668963      33.65226984      -0.03401584      -0.01453195      -0.08100162      -1.18395042
Na       4.79236725      45.34267346       3.07199015      -0.02771791       0.04031656       0.11050152      -1.05262375
Na      11.07841003      27.63706615      49.96132665       0.06882701      -0.03583819      -0.03662939      -1.16658890
Cl       4.11986350      47.50906557      49.28652419       0.03342104      -0.01742654      -0.19539103      -4.64188910
Cl      29.08065667      38.59174821      53.63675548      -0.02636133      -0.07383832       0.07197465      -4.74177170
Cl       0.75645921      35.58055967      20.22426611       0.03539776      -0.01320441      -0.02175760      -4.85831833
Cl      36.00273196      54.86546128      10.94658100      -0.02536182       0.02754221      -0.03309583      -4.54522276
Cl       4.11103695      37.39523378       2.31848107       0.01820797       0.06819385       0.01137425      -4.96492815
Cl      15.04639369      31.50554381      52.65355571       0.06327648       0.01053581      -0.02392827      -4.85111666
Cl       1.29631009      55.11620864      30.16714775      -0.01076000       0.00332178       0.00892251      -4.87589025
Cl      29.15117152      31.55279293      18.88994756      -0.01458434      -0.03003712       0.00493263      -4.84151268
Cl      20.04377441      36.73240965      21.29707349      -0.02091793       0.09018511       0.05275638      -4.75690746
Cl      53.94398306      35.81302258       9.87221612      -0.09907187       0.05827720      -0.02589110      -4.55963326
Cl      55.54572372      53.63865805      27.46636882       0.03956978      -0.01114593       0.03181173      -4.97570992
Cl      10.58745869      21.86335186      48.02454908      -0.01692209      -0.03058014      -0.05777701      -4.57716322
Cl      49.66789354       4.01774433      43.84894218      -0.05344189       0.01682268      -0.01334459      -4.72311926
Cl      20.58287709      25.79319277      30.25204781      -0.00932299      -0.01553703      -0.05776881      -5.00194740
Cl      39.58820421      31.38790131      43.82384032      -0.01604284      -0.02558601       0.02067900      -4.85765076
Cl      11.76337789       4.87797215      21.38615821       0.05525848       0.00725261       0.00430194      -4.64363861
Cl      47.37219735      12.30794812      27.08839061      -0.03439612       0.00955158      -0.00942531      -4.94810867
Cl      11.16262579       0.99197107       5.92685989       0.02062519      -0.01774509       0.02786545      -4.78876019
Cl      17.74415673      14.24057425       7.64487048       0.11854667       0.00534589      -0.10387298      -4.64776134
Cl      47.07025340      10.99487296      34.03713131      -0.05857407      -0.09004007      -0.03156662      -4.84191513
Cl      47.23746996      10.25220050      37.71419621      -0.09461461       0.07473178       0.05332708      -4.82332516
Cl      28.77581676      42.38613614      26.79739507       0.01935743       0.00837580      -0.01939107      -4.79641342
Cl      37.09410823      43.88064310      22.68782163      -0.02882620       0.03476244       0.05792598      -4.81339216
Cl      46.65755488       8.13279978      27.47295243      -0.04308806       0.02290241      -0.01253762      -4.92758417
Cl      41.85714183      19.23473682      16.77021131       0.06295247       0.01938664      -0.01610503      -4.87657738
Cl      51.62257782      33.24879014      21.80094559      -0.03180909      -0.02030615       0.04601008      -4.82362700
Cl      36.12204617      22.65425846      27.87832050      -0.00793385      -0.03409797      -0.03109498      -5.00510693
Cl      23.05306262      32.53499828      25.58385514       0.13624042       0.03111313       0.09162818      -4.95990658
Cl      55.63862951      16.39561547      54.69311106       0.02033508      -0.02407982      -0.00952280      -4.75998020
Cl      17.81420053      58.41151473       1.62971786       0.01848415       0.09663989      -0.02079942      -4.67535496
Cl      46.23471953      48.61732927      31.03815525       0.00295547       0.13775666      -0.01384110      -4.80300665
Cl      28.19165117      34.99199120      27.22784981      -0.04540964      -0.04145673       0.01244577      -4.81946373
Cl      51.13156543      20.95588187      32.37559371      -0.02402268      -0.00350835       0.01742760      -4.81551170
Cl      34.20086355      19.60893294      25.38505997       0.01308553      -0.02671843      -0.08996136      -4.66216612
Cl      23.73721562      46.82432848      47.37484877       0.02504737       0.03441359      -0.01548156      -4.83569145
Cl      51.07613020      29.37683275      58.04322889      -0.03851053      -0.01182095      -0.04123654      -4.89428568
Cl      19.30834253       1.41126585      54.67731712       0.01700454      -0.05977980       0.05505642      -4.91935921
Cl       1.85420504      49.64445466      52.85756269       0.01148001       0.00870182      -0.00763152      -4.83961582
Cl      40.88787163      41.32866626      23.06783141      -0.01791660      -0.03923322      -0.01069019      -4.79815006
Cl      57.16459439      28.54286499      30.34076277      -0.02823073       0.02328870       0.00666277      -4.68420601
Cl       9.84917424       5.88642909      57.69078285       0.03204709      -0.02405540       0.02909762      -4.96361542
Cl      29.01408965      27.87916544      49.35362827       0.00995510      -0.03825872       0.04536739      -4.88074589
Cl      38.52670465      24.42377559       1.40557489      -0.02379714      -0.00337340      -0.06114069      -4.73894405
Cl      57.65648390       8.36076356      16.09723341      -0.03644450       0.08659075       0.04950326      -4.85334969
Cl      42.99522828       9.62201282       5.05941569      -0.02562195      -0.02212861       0.06002647      -4.72941351
Cl      21.82620897      10.79192012      35.03065721      -0.06068710       0.06241992      -0.05240630      -4.69973040
Cl      10.02122436      13.05546727      41.17242250       0.00357965      -0.02350727      -0.01635403      -4.84757566
Cl      45.23670703      31.35425235      42.32867291      -0.03206445      -0.01596566       0.02383975      -4.74745321
Cl      25.43645630      12.35174196      18.19355325      -0.03397411       0.05366253      -0.05248609      -4.74267054
Cl       6.89900154      58.32920861      47.68445622       0.02409738       0.00081642       0.03615879      -4.90442181
Na      34.48669443      23.85287421      19.33341017       0.04488136      -0.01534384      -0.01146197      -1.18341970
Na      52.88992789      54.06737807      42.61249348      -0.00570054       0.00921658      -0.03679022      -1.27358675
Na       6.69829169       2.35205163      53.03560346      -0.05274518      -0.01802929       0.07178807      -1.25611734
Na      42.15193365      53.69416876      36.81330146      -0.02631933       0.01433544       0.01784029      -1.03911698
Na       8.82148886      44.70574088      31.11397319      -0.01849150       0.02869019      -0.00273028      -1.16594744
Na      57.45876233      25.45169393      29.02454206      -0.00343408      -0.01881609       0.05290122      -1.22163749
Na      15.43963334      36.24849407      25.76038240       0.07712685      -0.00875525      -0.01173072      -1.18864751
Na      43.50186296       4.68719456       7.64605134       0.06369297       0.02127254      -0.00262110      -1.24549615
Na       6.96501884       8.30837915      15.98312123       0.03503830      -0.01228831      -0.04373891      -1.32131600
Na      19.57906518      28.09458261      14.63700537      -0.01630993      -0.01363948      -0.01715530      -1.16918075
Na      47.44460996      43.00991647      10.21112699       0.03780553      -0.02663029      -0.07023858      -1.10307407
Na      19.07744551       5.35296597      51.74199185       0.08457263      -0.01693353      -0.04402395      -1.22851777
Na      19.72401469      54.00373861      42.30990221       0.00651250      -0.01314528      -0.05081766      -1.25594676
Na       6.12380172      13.21907181       6.17241323      -0.08964442       0.07089406       0.08429564      -1.16375995
Na      42.47934081      36.05647280      33.32576143       0.02695715       0.05512772       0.02226771      -1.38379836
Na      56.17590615      26.22525321      25.59138985       0.00822198      -0.04112635       0.01814018      -1.24673569
Na      52.38951629      20.82140036      34.81360216      -0.01098989      -0.09854364      -0.02999227      -1.30422831
Na      30.10670792       0.89740829      21.09752088      -0.00329451      -0.01597187      -0.00310561      -1.23727393
Na      56.76620691      14.73537314      32.91805344      -0.00926298      -0.02737677      -0.00990824      -1.24766636
Na      51.72618639      17.29259281      28.09974832      -0.00901659      -0.01542281       0.03859973      -1.24622607
Na       2.02960312       8.37035417      50.69432120       0.03742186      -0.08309525       0.06305195      -1.21957827
Na      12.25550964      35.78662447      14.92501830       0.04865011       0.05360162       0.00004454      -1.20907688
Na      15.74359838      43.15842557      14.45760644       0.03015712      -0.03767772      -0.01153958      -1.40401793
Na       7.95266579      49.90461317      40.74060867      -0.01780616      -0.02945594       0.02390295      -1.26923537
Na      18.19670167      25.58835796      16.79341636       0.02094497       0.01489822      -0.02420541      -1.20583677
Na       9.41120054      19.67957897      16.51173121       0.03070118       0.06943697      -0.01677416      -1.36267233
Na      47.87428254      46.64360731      27.70354702       0.04307622      -0.10990833       0.09727918      -1.14941096
Na      26.26927334      22.00215707      55.61016855      -0.00234918       0.02337108      -0.05062676      -1.13219166
Na       1.75956385       7.48373893       0.99868389      -0.06298848       0.07220258       0.02160614      -1.28227735
Na      48.61062847      20.20370234       3.34042274      -0.00365785      -0.06044977      -0.05624649      -1.26266909
Na      55.57339053       3.39881364       4.54063475       0.05183235      -0.02498307      -0.00118046      -1.35231161
Na      55.24371782       9.61492725      47.09114865      -0.03938653      -0.00174581       0.00325897      -1.30939078
Na      24.98408780      58.39382847      53.33363227       0.01040271      -0.00722506      -0.01942736      -1.23267531
Na      20.72983697       9.75096317      23.01549729      -0.05200956       0.02367759      -0.00341062      -1.16137624
Na      54.93261893       3.77374101      27.07891062       0.03829719      -0.01932663       0.02266607      -1.26006961
Na      58.67848302      26.16656726      47.26756108       0.05600326      -0.06824449       0.06977929      -1.25874686
Na      39.31588022      33.39216331      52.57351938       0.04610266       0.00819404       0.01243924      -1.28974509
Na       4.84183520       6.23523536      42.42416356      -0.06471951       0.00073615       0.03622075      -1.17976069
Na      14.81675365       3.28228983      44.92281854      -0.07000595      -0.03368159      -0.00028729      -1.20172524
Na      17.23503584      32.50827921      53.80407944       0.03860675       0.01011428       0.10221779      -1.11785483
Na      16.51783824      26.71193554       6.79737323       0.02280929      -0.02499651      -0.00832725      -1.14850044
Na      22.78343796      55.59439472      17.70752476      -0.03202951       0.00309773       0.01784999      -1.27845764
Na      55.47418189      29.19511941      28.17593380       0.04054110       0.01735907      -0.01854685      -1.30760992
Na      46.08156875      39.51925852      25.52897558      -0.09550027       0.01157388       0.08263347      -1.15354276
Na      23.15904773      45.56991156      49.69595673      -0.05022820       0.02754216      -0.02704553      -1.31728077
Na      28.91296500      15.68172480      11.08318179       0.00634114       0.02909881      -0.01019143      -1.21386313
Na      22.03056199      57.38387321      40.94763937      -0.00009561       0.00927510      -0.04414516      -1.13764131
Na       1.72294714      33.45855660      48.28413703      -0.03401424      -0.01453591      -0.08100187      -1.18395042
Na       4.79236725       1.44707221      17.70385633      -0.02771489       0.04031695       0.11050572      -1.05262315
Na      11.07841009      42.26893298       6.06572525       0.06882718      -0.03583939      -0.03662762      -1.16658854
Cl       4.11986350       3.61346447       5.39092309       0.03342083      -0.01742958      -0.19539282      -4.64189053
Cl      29.08065656      53.22361536       9.74115457      -0.02635864      -0.07383732       0.07197575      -4.74177170
Cl       0.75645916      50.21242670      34.85613297       0.03539886      -0.01319945      -0.02175480      -4.85831642
Cl      36.00273168      10.96986022      25.57844794      -0.02536188       0.02754017      -0.03309415      -4.54522276
Cl       4.11103713      52.02710111      16.95034808       0.01820719       0.06819584       0.01137499      -4.96493006
Cl      15.04639384      46.13741055       8.75795456       0.06327722       0.01054143      -0.02392608      -4.85111713
Cl       1.29631061      11.22060704      44.79901461      -0.01075845       0.00332023       0.00892643      -4.87588882
Cl      29.15117129      46.18465940      33.52181474      -0.01458098      -0.03003172       0.00493194      -4.84151220
Cl      20.04377453      51.36427713      35.92894007      -0.02091611       0.09018515       0.05275780      -4.75690937
Cl      53.94398312      50.44488974      24.50408317      -0.09908299       0.05827294      -0.02589242      -4.55963373
Cl      55.54572366       9.74305666      42.09823598       0.03957099      -0.01115041       0.03180918      -4.97570848
Cl      10.58745870      36.49521922       4.12894787      -0.01692108      -0.03057868      -0.05777832      -4.57716179
Cl      49.66789377      18.64961227      -0.04666067      -0.05344194       0.01682435      -0.01334439      -4.72311926
Cl      20.58287722      40.42506005      44.88391471      -0.00932899      -0.01553806      -0.05776802      -5.00194645
Cl      39.58820419      46.01976849      -0.07176218      -0.01604319      -0.02558266       0.02068052      -4.85765171
Cl      11.76337782      19.50983963      36.01802516       0.05525990       0.00725159       0.00430036      -4.64363766
Cl      47.37219719      26.93981531      41.72025731      -0.03439706       0.00955119      -0.00942703      -4.94810867
Cl      11.16262568      15.62383901      20.55872781       0.02062652      -0.01775166       0.02786499      -4.78875828
Cl      17.74415684      28.87244124      22.27673753       0.11854509       0.00534738      -0.10387363      -4.64776134
Cl      47.07025340      25.62674005      48.66899818      -0.05857470      -0.09003995      -0.03156329      -4.84191751
Cl      47.23747021      24.88406757      52.34606316      -0.09461352       0.07473193       0.05332584      -4.82332516
Cl      28.77581670      57.01800363      41.42926185       0.01935658       0.00837489      -0.01939001      -4.79641104
Cl      37.09410835      58.51251114      37.31968891      -0.02882553       0.03475657       0.05792364      -4.81339359
Cl      46.65755505      22.76466671      42.10481961      -0.04309011       0.02290247      -0.01253947      -4.92758608
Cl      41.85714183      33.86660392      31.40207833       0.06295207       0.01938597      -0.01610552      -4.87657785
Cl      51.62257771      47.88065712      36.43281269      -0.03180792      -0.02030416       0.04600940      -4.82362986
Cl      36.12204616      37.28612535      42.51018735      -0.00793478      -0.03409431      -0.03109707      -5.00510550
Cl      23.05306255      47.16686506      40.21572243       0.13624313       0.03111722       0.09162521      -4.95990705
Cl      55.63862964      31.02748246      10.79750985       0.02033450      -0.02408400      -0.00952325      -4.75997972
Cl      17.81420027      14.51591318      16.26158555       0.01849061       0.09663881      -0.02079883      -4.67535400
Cl      46.23471946       4.72172798      45.67002227       0.00295452       0.13775541      -0.01384132      -4.80300713
Cl      28.19165141      49.62385808      41.85971694      -0.04541282      -0.04145519       0.01244496      -4.81946373
Cl      51.13156552      35.58774861      47.00746100      -0.02402526      -0.00351336       0.01743071      -4.81551313
Cl      34.20086359      34.24080002      40.01692742       0.01308635      -0.02671793      -0.08996106      -4.66216278
Cl      23.73721555       2.92872686       3.47924715       0.02504769       0.03441416      -0.01548836      -4.83569098
Cl      51.07613001      44.00869938      14.14762710      -0.03850801      -0.01181243      -0.04123705      -4.89428568
Cl      19.30834333      16.04313237      10.78171675       0.01700323      -0.05978012       0.05505878      -4.91935921
Cl       1.85420509       5.74885357       8.96196151       0.01147967       0.00870487      -0.00763085      -4.83961725
Cl      40.88787171      55.96053394      37.69969840      -0.01791793      -0.03923010      -0.01069487      -4.79814959
Cl      57.16459432      43.17473198      44.97262994      -0.02823063       0.02329152       0.00666398      -4.68420506
Cl       9.84917429      20.51829633      13.79518119       0.03204518      -0.02405694       0.02909905      -4.96361780
Cl      29.01408979      42.51103280       5.45802704       0.00995592      -0.03825497       0.04537372      -4.88074732
Cl      38.52670470      39.05564266      16.03744244      -0.02379850      -0.00337132      -0.06114334      -4.73894358
Cl      57.65648388      22.99263064      30.72910029      -0.03644438       0.08659305       0.04950346      -4.85335064
Cl      42.99522823      24.25387964      19.69128275      -0.02562213      -0.02212786       0.06002925      -4.72941399
Cl      21.82620917      25.42378720      49.66252427      -0.06069173       0.06241544      -0.05240478      -4.69973183
Cl      10.02122423      27.68733448      55.80428989       0.00357918      -0.02350532      -0.01635321      -4.84757662
Cl      45.23670680      45.98611923      56.96054095      -0.03206184      -0.01596264       0.02384020      -4.74745464
Cl      25.43645632      26.98360868      32.82541973      -0.03397454       0.05366332      -0.05248138      -4.74267006
Cl       6.89900124      14.43360698       3.78885516       0.02409920       0.00081567       0.03615807      -4.90442085
Na      34.48669456      23.85287426      33.96527725       0.04487915      -0.01534449      -0.01146453      -1.18341994
Na      52.88992812      54.06737785      57.24436156      -0.00570033       0.00921672      -0.03679543      -1.27358580
Na       6.69829161       2.35205170       9.14000211      -0.05274536      -0.01802989       0.07178632      -1.25611758
Na      42.15193360      53.69416900      51.44516888      -0.02631947       0.01433599       0.01784044      -1.03911686
Na       8.82148884      44.70574080      45.74584021      -0.01849085       0.02868781      -0.00273325      -1.16594779
Na      57.45876210      25.45169382      43.65640879      -0.00343614      -0.01881517       0.05290027      -1.22163868
Na      15.43963339      36.24849412      40.39224922       0.07712690      -0.00875583      -0.01172913      -1.18864667
Na      43.50186311       4.68719454      22.27791829       0.06369276       0.02127204      -0.00262107      -1.24549627
Na       6.96501884       8.30837910      30.61498826       0.03503896      -0.01228901      -0.04373872      -1.32131600
Na      19.57906519      28.09458271      29.26887241      -0.01631018      -0.01363910      -0.01715802      -1.16918075
Na      47.44460999      43.00991657      24.84299399       0.03780469      -0.02662975      -0.07024191      -1.10307384
Na      19.07744538       5.35296579       7.84639076       0.08457117      -0.01693483      -0.04402134      -1.22851753
Na      19.72401453      54.00373872      56.94176960       0.00651303      -0.01314628      -0.05081838      -1.25594711
Na       6.12380162      13.21907186      20.80428028      -0.08964388       0.07089356       0.08429735      -1.16375983
Na      42.47934099      36.05647270      47.95762852       0.02695362       0.05512707       0.02226364      -1.38379872
Na      56.17590622      26.22525315      40.22325680       0.00822386      -0.04112752       0.01815181      -1.24673581
Na      52.38951620      20.82140029      49.44546931      -0.01099049      -0.09854358      -0.02999209      -1.30422783
Na      30.10670789       0.89740842      35.72938802      -0.00329435      -0.01597522      -0.00311106      -1.23727405
Na      56.76620695      14.73537319      47.54992064      -0.00926303      -0.02737691      -0.00990934      -1.24766684
Na      51.72618650      17.29259288      42.73161491      -0.00901742      -0.01542387       0.03860657      -1.24622679
Na       2.02960307       8.37035425       6.79872014       0.03742086      -0.08309630       0.06305192      -1.21957803
Na      12.25550973      35.78662447      29.55688530       0.04865096       0.05360087       0.00004784      -1.20907688
Na      15.74359840      43.15842562      29.08947338       0.03015736      -0.03767717      -0.01154089      -1.40401769
Na       7.95266596      49.90461297      55.37247603      -0.01780846      -0.02945708       0.02390610      -1.26923490
Na      18.19670161      25.58835799      31.42528354       0.02094141       0.01489703      -0.02420019      -1.20583677
Na       9.41120055      19.67957896      31.14359836       0.03070009       0.06943718      -0.01677403      -1.36267233
Na      47.87428278      46.64360720      42.33541427       0.04307531      -0.10991000       0.09727941      -1.14941180
Na      26.26927345      22.00215710      11.71456695      -0.00235275       0.02337092      -0.05063165      -1.13219190
Na       1.75956382       7.48373915      15.63055086      -0.06298767       0.07220284       0.02160707      -1.28227711
Na      48.61062813      20.20370213      17.97228959      -0.00365695      -0.06045005      -0.05624718      -1.26266861
Na      55.57339053       3.39881360      19.17250212       0.05183239      -0.02498415      -0.00118239      -1.35231161
Na      55.24371781       9.61492715       3.19554714      -0.03938682      -0.00174574       0.00325868      -1.30939126
Na      24.98408792      58.39382844       9.43803105       0.01040307      -0.00722314      -0.01942539      -1.23267579
Na      20.72983692       9.75096315      37.64736423      -0.05200899       0.02367795      -0.00341214      -1.16137636
Na      54.93261896       3.77374095      41.71077745       0.03829415      -0.01932477       0.02266953      -1.26006961
Na      58.67848293      26.16656712       3.37195972       0.05600262      -0.06824510       0.06978127      -1.25874758
Na      39.31588019      33.39216332       8.67791790       0.04610194       0.00819378       0.01244402      -1.28974521
Na       4.84183524       6.23523565      57.05603086      -0.06471945       0.00073600       0.03622054      -1.17976022
Na      14.81675384       3.28228938       1.02721741      -0.07000560      -0.03368199      -0.00028707      -1.20172524
Na      17.23503583      32.50827940       9.90847868       0.03860550       0.01011338       0.10221830      -1.11785519
Na      16.51783828      26.71193562      21.42924062       0.02281120      -0.02499661      -0.00832838      -1.14850056
Na      22.78343794      55.59439478      32.33939172      -0.03202939       0.00309722       0.01784809      -1.27845693
Na      55.47418200      29.19511935      42.80780076       0.04054189       0.01736023      -0.01854357      -1.30761099
Na      46.08156881      39.51925844      40.16084242      -0.09549940       0.01157846       0.08263386      -1.15354192
Na      23.15904780      45.56991150       5.80035543      -0.05022850       0.02754148      -0.02704210      -1.31728137
Na      28.91296503      15.68172470      25.71504895       0.00634097       0.02909932      -0.01019416      -1.21386313
Na      22.03056200      57.38387309      55.57950712      -0.00009534       0.00927493      -0.04414529      -1.13764095
Na       1.72294709      33.45855632       4.38853613      -0.03401557      -0.01453488      -0.08099876      -1.18394971
Na       4.79236716       1.44707217      32.33572335      -0.02771544       0.04031786       0.11050475      -1.05262327
Na      11.07841003      42.26893300      20.69759217       0.06882715      -0.03583869      -0.03662491      -1.16658854
Cl       4.11986352       3.61346444      20.02279011       0.03342091      -0.01742811      -0.19539256      -4.64189005
Cl      29.08065653      53.22361540      24.37302158      -0.02635875      -0.07383787       0.07197595      -4.74177265
Cl       0.75645926      50.21242681      49.48800040       0.03540137      -0.01319906      -0.02175189      -4.85831785
Cl      36.00273160      10.96986016      40.21031484      -0.02536194       0.02753898      -0.03309617      -4.54522371
Cl       4.11103712      52.02710109      31.58221506       0.01820803       0.06819671       0.01137574      -4.96492958
Cl      15.04639391      46.13741069      23.38982165       0.06327614       0.01054118      -0.02392538      -4.85111618
Cl       1.29631027      11.22060702       0.90341318      -0.01075936       0.00332079       0.00892450      -4.87589025
Cl      29.15117127      46.18465933      48.15368178      -0.01458120      -0.03003179       0.00493312      -4.84151125
Cl      20.04377461      51.36427686      50.56080707      -0.02091857       0.09018253       0.05276067      -4.75690842
Cl      53.94398330      50.44488988      39.13595013      -0.09908181       0.05827145      -0.02589512      -4.55963326
Cl      55.54572374       9.74305684      56.73010344       0.03956990      -0.01115211       0.03181115      -4.97570896
Cl      10.58745882      36.49521918      18.76081493      -0.01692139      -0.03057982      -0.05777839      -4.57716227
Cl      49.66789359      18.64961169      14.58520823      -0.05344167       0.01682273      -0.01334411      -4.72312021
Cl      20.58287712      40.42505987       0.98831322      -0.00932154      -0.01554018      -0.05776738      -5.00194740
Cl      39.58820427      46.01976847      14.56010589      -0.01604310      -0.02558239       0.02067951      -4.85765362
Cl      11.76337780      19.50983974      50.64989217       0.05525778       0.00725381       0.00430772      -4.64363956
Cl      47.37219757      26.93981556      56.35212514      -0.03439620       0.00955425      -0.00942486      -4.94810820
Cl      11.16262579      15.62383919      35.19059469       0.02062266      -0.01775241       0.02786760      -4.78875875
Cl      17.74415690      28.87244130      36.90860467       0.11854452       0.00534411      -0.10387336      -4.64776182
Cl      47.07025341      25.62674034       4.77339733      -0.05857696      -0.09003804      -0.03156212      -4.84191608
Cl      47.23747005      24.88406761       8.45046205      -0.09461402       0.07473321       0.05332310      -4.82332420
Cl      28.77581660      57.01800357      56.06112972       0.01935596       0.00837563      -0.01939365      -4.79641199
Cl      37.09410837      58.51251126      51.95155551      -0.02882599       0.03475661       0.05792560      -4.81339407
Cl      46.65755509      22.76466686      56.73668691      -0.04308785       0.02290245      -0.01253746      -4.92758131
Cl      41.85714179      33.86660408      46.03394525       0.06295101       0.01938646      -0.01611000      -4.87657595
Cl      51.62257788      47.88065725      51.06467982      -0.03180865      -0.02030483       0.04601333      -4.82362890
Cl      36.12204612      37.28612551      57.14205567      -0.00793382      -0.03409471      -0.03109666      -5.00510550
Cl      23.05306247      47.16686518      54.84758970       0.13624099       0.03111616       0.09161839      -4.95990753
Cl      55.63862952      31.02748232      25.42937670       0.02033525      -0.02408361      -0.00952165      -4.75997925
Cl      17.81420029      14.51591315      30.89345253       0.01849062       0.09663942      -0.02079683      -4.67535496
Cl      46.23471955       4.72172771       1.77442133       0.00295315       0.13775592      -0.01384354      -4.80300760
Cl      28.19165124      49.62385818      56.49158419      -0.04540959      -0.04145564       0.01244517      -4.81946230
Cl      51.13156551      35.58774868       3.11185920      -0.02402361      -0.00351222       0.01743272      -4.81551218
Cl      34.20086368      34.24080034      54.64879404       0.01308722      -0.02671797      -0.08996071      -4.66216564
Cl      23.73721535       2.92872704      18.11111463       0.02504736       0.03441305      -0.01548853      -4.83569098
Cl      51.07613003      44.00869935      28.77949406      -0.03850804      -0.01181242      -0.04123512      -4.89428568
Cl      19.30834338      16.04313251      25.41358382       0.01700450      -0.05977912       0.05505900      -4.91935968
Cl       1.85420508       5.74885350      23.59382855       0.01148029       0.00870444      -0.00762974      -4.83961773
Cl      40.88787161      55.96053414      52.33156536      -0.01791784      -0.03923227      -0.01068970      -4.79814768
Cl      57.16459433      43.17473238       1.07702832      -0.02822653       0.02329031       0.00666150      -4.68420362
Cl       9.84917429      20.51829633      28.42704818       0.03204516      -0.02405619       0.02910135      -4.96361828
Cl      29.01408975      42.51103284      20.08989444       0.00995538      -0.03825656       0.04537157      -4.88074732
Cl      38.52670448      39.05564263      30.66930945      -0.02379723      -0.00337182      -0.06114161      -4.73894405
Cl      57.65648397      22.99263064      45.36096738      -0.03644354       0.08659254       0.04950466      -4.85334873
Cl      42.99522830      24.25387976      34.32314999      -0.02562227      -0.02212712       0.06002487      -4.72941303
Cl      21.82620913      25.42378723       5.76692311      -0.06069123       0.06241541      -0.05240640      -4.69973135
Cl      10.02122433      27.68733428      11.90868836       0.00358015      -0.02350428      -0.01635140      -4.84757614
Cl      45.23670691      45.98611929      13.06493895      -0.03206338      -0.01596361       0.02384134      -4.74745321
Cl      25.43645634      26.98360897      47.45728710      -0.03397331       0.05366425      -0.05248143      -4.74267006
Cl       6.89900122      14.43360693      18.42072278       0.02409908       0.00081601       0.03615733      -4.90442085
Na      34.48669456      23.85287419      48.59714415       0.04488005      -0.01534511      -0.01146265      -1.18341947
Na      52.88992789      54.06737804      13.34875957      -0.00570047       0.00921717      -0.03679351      -1.27358603
Na       6.69829157       2.35205164      23.77186938      -0.05274595      -0.01803048       0.07178439      -1.25611782
Na      42.15193367      53.69416882       7.54956717      -0.02631962       0.01433464       0.01783857      -1.03911698
Na       8.82148863      44.70574099       1.85023843      -0.01849097       0.02869017      -0.00273037      -1.16594732
Na      57.45876245      25.45169382      58.28827691      -0.00343553      -0.01881518       0.05290062      -1.22163820
Na      15.43963325      36.24849432      55.02411679       0.07712564      -0.00875575      -0.01172998      -1.18864632
Na      43.50186285       4.68719461      36.90978530       0.06369080       0.02127308      -0.00262390      -1.24549603
Na       6.96501883       8.30837920      45.24685527       0.03503872      -0.01228695      -0.04373994      -1.32131624
Na      19.57906522      28.09458250      43.90073941      -0.01631228      -0.01363334      -0.01715400      -1.16918147
Na      47.44460983      43.00991651      39.47486080       0.03780542      -0.02662975      -0.07024087      -1.10307372
Na      19.07744535       5.35296580      22.47825778       0.08457160      -0.01693418      -0.04402309      -1.22851777
Na      19.72401460      54.00373873      13.04616816       0.00651344      -0.01314461      -0.05081907      -1.25594664
Na       6.12380156      13.21907184      35.43614729      -0.08964453       0.07089297       0.08429772      -1.16375959
Na      42.47934090      36.05647291       4.06202728       0.02695555       0.05512751       0.02226647      -1.38379812
Na      56.17590623      26.22525327      54.85512427       0.00822234      -0.04112566       0.01813939      -1.24673581
Na      52.38951626      20.82140025       5.54986807      -0.01099202      -0.09854355      -0.02999160      -1.30422807
Na      30.10670800       0.89740847      50.36125527      -0.00329463      -0.01597175      -0.00310641      -1.23727429
Na      56.76620695      14.73537310       3.65431925      -0.00926419      -0.02737720      -0.00991119      -1.24766612
Na      51.72618631      17.29259287      57.36348271      -0.00901645      -0.01542316       0.03860298      -1.24622631
Na       2.02960312       8.37035430      21.43058720       0.03741913      -0.08309713       0.06305138      -1.21957827
Na      12.25550974      35.78662453      44.18875255       0.04865235       0.05360061       0.00005339      -1.20907700
Na      15.74359839      43.15842551      43.72134060       0.03015705      -0.03767756      -0.01153827      -1.40401816
Na       7.95266590      49.90461307      11.47687462      -0.01780722      -0.02945621       0.02390299      -1.26923537
Na      18.19670157      25.58835799      46.05715051       0.02094609       0.01489855      -0.02420560      -1.20583701
Na       9.41120062      19.67957893      45.77546532       0.03070232       0.06943771      -0.01677592      -1.36267281
Na      47.87428271      46.64360725      56.96728126       0.04307532      -0.10991058       0.09727975      -1.14941072
Na      26.26927350      22.00215711      26.34643399      -0.00235289       0.02337165      -0.05063024      -1.13219202
Na       1.75956375       7.48373910      30.26241795      -0.06298786       0.07220259       0.02160548      -1.28227723
Na      48.61062824      20.20370220      32.60415660      -0.00365714      -0.06045023      -0.05624654      -1.26266909
Na      55.57339049       3.39881361      33.80436904       0.05183213      -0.02498415      -0.00118583      -1.35231161
Na      55.24371784       9.61492733      17.82741458      -0.03938686      -0.00174587       0.00325847      -1.30939102
Na      24.98408795      58.39382841      24.06989817       0.01040018      -0.00722440      -0.01942847      -1.23267615
Na      20.72983692       9.75096326      52.27923126      -0.05200762       0.02367714      -0.00341092      -1.16137564
Na      54.93261894       3.77374094      56.34264501       0.03829528      -0.01932408       0.02267114      -1.26007032
Na      58.67848298      26.16656717      18.00382710       0.05600384      -0.06824538       0.06977922      -1.25874734
Na      39.31588021      33.39216344      23.30978494       0.04610211       0.00819410       0.01244157      -1.28974557
Na       4.84183512       6.23523534      13.16042982      -0.06471976       0.00073651       0.03622035      -1.17976046
Na      14.81675369       3.28228982      15.65908454      -0.07000543      -0.03368140      -0.00028788      -1.20172477
Na      17.23503586      32.50827945      24.54034565       0.03860468       0.01011363       0.10221727      -1.11785531
Na      16.51783827      26.71193567      36.06110750       0.02281039      -0.02499342      -0.00832640      -1.14850068
Na      22.78343789      55.59439479      46.97125887      -0.03202998       0.00309740       0.01784814      -1.27845716
Na      55.47418154      29.19511933      57.43966821       0.04054295       0.01736052      -0.01854128      -1.30761051
Na      46.08156897      39.51925843      54.79270970      -0.09549833       0.01157794       0.08263580      -1.15354276
Na      23.15904778      45.56991150      20.43222271      -0.05022860       0.02754170      -0.02704062      -1.31728148
Na      28.91296501      15.68172485      40.34691578       0.00634072       0.02909950      -0.01019375      -1.21386266
Na      22.03056191      57.38387318      11.68390550      -0.00009549       0.00927397      -0.04414618      -1.13764143
Na       1.72294727      33.45855638      19.02040315      -0.03401639      -0.01453502      -0.08099968      -1.18394959
Na       4.79236724       1.44707224      46.96759037      -0.02771610       0.04031646       0.11050369      -1.05262303
Na      11.07840996      42.26893315      35.32945916       0.06882743      -0.03583996      -0.03662989      -1.16658807
Cl       4.11986365       3.61346445      34.65465725       0.03342294      -0.01743023      -0.19538844      -4.64189053
Cl      29.08065655      53.22361546      39.00488856      -0.02635854      -0.07383717       0.07197564      -4.74177170
Cl       0.75645911      50.21242667       5.59239896       0.03539942      -0.01320038      -0.02175684      -4.85831690
Cl      36.00273143      10.96986013      54.84218216      -0.02536236       0.02753995      -0.03309601      -4.54522276
Cl       4.11103709      52.02710097      46.21408203       0.01820798       0.06819628       0.01137660      -4.96492910
Cl      15.04639411      46.13741067      38.02168846       0.06327554       0.01054267      -0.02391722      -4.85111713
Cl       1.29631040      11.22060696      15.53528053      -0.01075791       0.00332002       0.00892503      -4.87589025
Cl      29.15117129      46.18465961       4.25808056      -0.01458105      -0.03003269       0.00493224      -4.84151220
Cl      20.04377457      51.36427685       6.66520606      -0.02091685       0.09018676       0.05275631      -4.75690937
Cl      53.94398357      50.44488985      53.76781729      -0.09908199       0.05827307      -0.02589431      -4.55963469
Cl      55.54572357       9.74305660      12.83450201       0.03957030      -0.01115101       0.03180832      -4.97570896
Cl      10.58745867      36.49521925      33.39268178      -0.01692136      -0.03057996      -0.05777728      -4.57716179
Cl      49.66789359      18.64961164      29.21707531      -0.05344306       0.01682317      -0.01334436      -4.72311974
Cl      20.58287725      40.42505996      15.62018081      -0.00932730      -0.01553952      -0.05776783      -5.00194788
Cl      39.58820417      46.01976846      29.19197287      -0.01604398      -0.02558339       0.02068184      -4.85765314
Cl      11.76337777      19.50983952       6.75429111       0.05525920       0.00725145       0.00429909      -4.64363909
Cl      47.37219738      26.93981525      12.45652348      -0.03439627       0.00955407      -0.00942773      -4.94810867
Cl      11.16262566      15.62383894      49.82246175       0.02062570      -0.01775184       0.02786809      -4.78875828
Cl      17.74415684      28.87244116      51.54047183       0.11854503       0.00534660      -0.10387173      -4.64776182
Cl      47.07025343      25.62674019      19.40526450      -0.05857725      -0.09003899      -0.03156021      -4.84191704
Cl      47.23747009      24.88406758      23.08232905      -0.09461510       0.07473182       0.05332416      -4.82332563
Cl      28.77581667      57.01800361      12.16552806       0.01935552       0.00837396      -0.01939335      -4.79641199
Cl      37.09410831      58.51251123       8.05595445      -0.02882529       0.03475651       0.05792674      -4.81339264
Cl      46.65755497      22.76466675      12.84108554      -0.04308832       0.02290168      -0.01253740      -4.92758274
Cl      41.85714164      33.86660389       2.13834396       0.06295219       0.01938648      -0.01610590      -4.87657738
Cl      51.62257777      47.88065721       7.16907842      -0.03180991      -0.02030466       0.04600822      -4.82362890
Cl      36.12204619      37.28612534      13.24645345      -0.00793356      -0.03409481      -0.03109534      -5.00510693
Cl      23.05306256      47.16686517      10.95198830       0.13624217       0.03111645       0.09162602      -4.95990658
Cl      55.63862961      31.02748254      40.06124404       0.02033542      -0.02408739      -0.00952535      -4.75997925
Cl      17.81420024      14.51591313      45.52531954       0.01849125       0.09663829      -0.02079964      -4.67535400
Cl      46.23471949       4.72172789      16.40628844       0.00295475       0.13775563      -0.01384294      -4.80300713
Cl      28.19165132      49.62385815      12.59598289      -0.04541034      -0.04145661       0.01244609      -4.81946325
Cl      51.13156545      35.58774872      17.74372683      -0.02402305      -0.00351189       0.01743390      -4.81551218
Cl      34.20086360      34.24080001      10.75319305       0.01308623      -0.02671865      -0.08996194      -4.66216469
Cl      23.73721538       2.92872700      32.74298209       0.02504685       0.03441286      -0.01548661      -4.83569098
Cl      51.07613014      44.00869943      43.41136108      -0.03851255      -0.01182103      -0.04124003      -4.89428520
Cl      19.30834329      16.04313256      40.04545102       0.01700338      -0.05977995       0.05505723      -4.91935921
Cl       1.85420513       5.74885353      38.22569575       0.01147907       0.00870426      -0.00763064      -4.83961821
Cl      40.88787162      55.96053399       8.43596436      -0.01791846      -0.03923082      -0.01069398      -4.79814863
Cl      57.16459427      43.17473208      15.70889583      -0.02823065       0.02329117       0.00666453      -4.68420601
Cl       9.84917417      20.51829634      43.05891526       0.03204652      -0.02405678       0.02909926      -4.96361828
Cl      29.01408971      42.51103256      34.72176141       0.00995612      -0.03825438       0.04537481      -4.88074732
Cl      38.52670469      39.05564264      45.30117638      -0.02379934      -0.00337151      -0.06114635      -4.73894215
Cl      57.65648403      22.99263049       1.46536577      -0.03644511       0.08659115       0.04950323      -4.85334969
Cl      42.99522823      24.25387970      48.95501655      -0.02562211      -0.02212859       0.06002607      -4.72941589
Cl      21.82620913      25.42378720      20.39879025      -0.06069154       0.06241477      -0.05240559      -4.69973183
Cl      10.02122421      27.68733430      26.54055542       0.00358125      -0.02350383      -0.01635074      -4.84757566
Cl      45.23670698      45.98611926      27.69680583      -0.03206322      -0.01596374       0.02384108      -4.74745369
Cl      25.43645625      26.98360852       3.56168583      -0.03397357       0.05366398      -0.05248190      -4.74267006
Cl       6.89900120      14.43360710      33.05258955       0.02409961       0.00081495       0.03615889      -4.90442085
Na      34.48669441      23.85287437       4.70154293       0.04488147      -0.01534642      -0.01145891      -1.18341982
Na      52.88992795      54.06737802      27.98062663      -0.00570096       0.00921748      -0.03679656      -1.27358556
Na       6.69829157       2.35205162      38.40373620      -0.05274600      -0.01803052       0.07178605      -1.25611711
Na      42.15193367      53.69416889      22.18143444      -0.02631919       0.01433591       0.01783579      -1.03911686
Na       8.82148896      44.70574085      16.48210613      -0.01849292       0.02868935      -0.00272776      -1.16594696
Na      57.45876256      25.45169397      14.39267515      -0.00343461      -0.01881511       0.05290154      -1.22163868
Na      15.43963331      36.24849412      11.12851525       0.07712642      -0.00875405      -0.01173070      -1.18864775
Na      43.50186313       4.68719459      51.54165226       0.06369226       0.02127217      -0.00262234      -1.24549580
Na       6.96501867       8.30837898       1.35125348       0.03503769      -0.01228851      -0.04374019      -1.32131600
Na      19.57906538      28.09458264       0.00513771      -0.01631102      -0.01363790      -0.01715554      -1.16918099
Na      47.44461009      43.00991638      54.10672842       0.03780430      -0.02663095      -0.07024098      -1.10307372
Na      19.07744545       5.35296586      37.11012474       0.08457266      -0.01693216      -0.04402539      -1.22851765
Na      19.72401459      54.00373869      27.67803516       0.00651314      -0.01314456      -0.05082053      -1.25594664
Na       6.12380167      13.21907176      50.06801438      -0.08964458       0.07089337       0.08429328      -1.16376007
Na      42.47934084      36.05647283      18.69389461       0.02695505       0.05512781       0.02226469      -1.38379824
Na      56.17590618      26.22525325      10.95952269       0.00822326      -0.04112808       0.01814574      -1.24673617
Na      52.38951629      20.82140036      20.18173531      -0.01099015      -0.09854411      -0.02999244      -1.30422831
Na      30.10670777       0.89740828       6.46565401      -0.00329547      -0.01597269      -0.00310633      -1.23727345
Na      56.76620694      14.73537314      18.28618653      -0.00926356      -0.02737649      -0.00991031      -1.24766612
Na      51.72618642      17.29259282      13.46788133      -0.00901681      -0.01542347       0.03860151      -1.24622607
Na       2.02960319       8.37035424      36.06245419       0.03741970      -0.08309554       0.06305031      -1.21957898
Na      12.25551005      35.78662419       0.29315046       0.04864926       0.05359904       0.00004556      -1.20907712
Na      15.74359837      43.15842575      58.35320806       0.03015755      -0.03767742      -0.01153672      -1.40401840
Na       7.95266583      49.90461320      26.10874149      -0.01780651      -0.02945651       0.02390294      -1.26923537
Na      18.19670131      25.58835808       2.16154895       0.02094279       0.01489776      -0.02420086      -1.20583701
Na       9.41120060      19.67957897       1.87986362       0.03070157       0.06943641      -0.01677300      -1.36267281
Na      47.87428256      46.64360728      13.07168019       0.04307624      -0.10991045       0.09727801      -1.14941096
Na      26.26927339      22.00215712      40.97830101      -0.00235807       0.02336723      -0.05063609      -1.13219202
Na       1.75956376       7.48373913      44.89428499      -0.06298764       0.07220366       0.02160865      -1.28227794
Na      48.61062832      20.20370220      47.23602359      -0.00365857      -0.06045093      -0.05624565      -1.26266909
Na      55.57339043       3.39881365      48.43623575       0.05183199      -0.02498514      -0.00118541      -1.35231161
Na      55.24371794       9.61492725      32.45928177      -0.03938678      -0.00174564       0.00325879      -1.30939090
Na      24.98408776      58.39382840      38.70176505       0.01040458      -0.00722277      -0.01942352      -1.23267591
Na      20.72983696       9.75096318       8.38363029      -0.05200874       0.02367798      -0.00341086      -1.16137612
Na      54.93261893       3.77374098      12.44704356       0.03829508      -0.01932486       0.02266727      -1.26006985
Na      58.67848293      26.16656721      32.63569413       0.05600208      -0.06824692       0.06978351      -1.25874734
Na      39.31588031      33.39216329      37.94165184       0.04609941       0.00819471       0.01244607      -1.28974533
Na       4.84183515       6.23523535      27.79229686      -0.06472035       0.00073680       0.03621981      -1.17976058
Na      14.81675363       3.28228983      30.29095161      -0.07000472      -0.03368163      -0.00028798      -1.20172477
Na      17.23503553      32.50827936      39.17221229       0.03861039       0.01011456       0.10222152      -1.11785531
Na      16.51783831      26.71193563      50.69297472       0.02281041      -0.02499558      -0.00832651      -1.14850008
Na      22.78343810      55.59439474       3.07565739      -0.03202985       0.00309869       0.01785067      -1.27845716
Na      55.47418183      29.19511932      13.54406664       0.04054266       0.01735956      -0.01854548      -1.30761075
Na      46.08156880      39.51925852      10.89710847      -0.09550001       0.01157389       0.08263705      -1.15354276
Na      23.15904773      45.56991157      35.06408940      -0.05022808       0.02754243      -0.02704460      -1.31728053
Na      28.91296501      15.68172479      54.97878315       0.00634079       0.02909763      -0.01018938      -1.21386230
Na      22.03056195      57.38387315      26.31577248      -0.00009461       0.00927355      -0.04414703      -1.13764155
Na       1.72294716      33.45855639      33.65226992      -0.03401611      -0.01453549      -0.08100297      -1.18395007
Na       4.79236690       1.44707187       3.07198936      -0.02771478       0.04031707       0.11050464      -1.05262280
Na      11.07841005      42.26893281      49.96132654       0.06882738      -0.03583972      -0.03662972      -1.16658866
Cl       4.11986352       3.61346440      49.28652417       0.03341998      -0.01742851      -0.19539315      -4.64188957
Cl      29.08065669      53.22361540      53.63675565      -0.02635903      -0.07383744       0.07197529      -4.74177122
Cl       0.75645918      50.21242674      20.22426621       0.03540071      -0.01319933      -0.02175577      -4.85831738
Cl      36.00273162      10.96986016      10.94658086      -0.02536152       0.02753973      -0.03309570      -4.54522276
Cl       4.11103697      52.02710110       2.31848112       0.01820810       0.06819619       0.01137428      -4.96492910
Cl      15.04639396      46.13741069      52.65355570       0.06327652       0.01054149      -0.02392649      -4.85111666
Cl       1.29631047      11.22060693      30.16714739      -0.01075839       0.00331958       0.00892678      -4.87589121
Cl      29.15117141      46.18465936      18.88994777      -0.01458002      -0.03003149       0.00493182      -4.84151220
Cl      20.04377451      51.36427692      21.29707305      -0.02091705       0.09018652       0.05275535      -4.75690889
Cl      53.94398309      50.44488980       9.87221616      -0.09908173       0.05827425      -0.02589117      -4.55963326
Cl      55.54572349       9.74305663      27.46636899       0.03957074      -0.01115255       0.03180917      -4.97570992
Cl      10.58745878      36.49521924      48.02454880      -0.01692306      -0.03058077      -0.05777649      -4.57716179
Cl      49.66789338      18.64961173      43.84894222      -0.05344165       0.01682433      -0.01334599      -4.72311831
Cl      20.58287713      40.42505996      30.25204780      -0.00932135      -0.01553966      -0.05776870      -5.00194931
Cl      39.58820416      46.01976859      43.82384019      -0.01604287      -0.02558216       0.02067877      -4.85765171
Cl      11.76337780      19.50983967      21.38615822       0.05525886       0.00725337       0.00430225      -4.64363861
Cl      47.37219730      26.93981524      27.08839060      -0.03439600       0.00955338      -0.00942522      -4.94810867
Cl      11.16262565      15.62383909       5.92686055       0.02062653      -0.01775175       0.02786627      -4.78875828
Cl      17.74415682      28.87244127       7.64487046       0.11854682       0.00534737      -0.10387304      -4.64776230
Cl      47.07025333      25.62674005      34.03713142      -0.05856848      -0.09004389      -0.03157114      -4.84191608
Cl      47.23746993      24.88406761      37.71419625      -0.09461387       0.07473131       0.05332655      -4.82332516
Cl      28.77581664      57.01800363      26.79739503       0.01935608       0.00837351      -0.01939290      -4.79641247
Cl      37.09410841      58.51251122      22.68782169      -0.02882601       0.03475717       0.05792484      -4.81339216
Cl      46.65755490      22.76466675      27.47295244      -0.04308994       0.02290230      -0.01253651      -4.92758512
Cl      41.85714179      33.86660406      16.77021125       0.06295121       0.01938673      -0.01610608      -4.87657738
Cl      51.62257774      47.88065698      21.80094561      -0.03180870      -0.02030388       0.04600982      -4.82362843
Cl      36.12204621      37.28612544      27.87832045      -0.00793335      -0.03409415      -0.03109463      -5.00510693
Cl      23.05306255      47.16686515      25.58385500       0.13624285       0.03111609       0.09162880      -4.95990753
Cl      55.63862955      31.02748253      54.69311108       0.02033518      -0.02408408      -0.00952372      -4.75998068
Cl      17.81420023      14.51591297       1.62971794       0.01849032       0.09663873      -0.02079944      -4.67535305
Cl      46.23471954       4.72172790      31.03815527       0.00295454       0.13775532      -0.01384140      -4.80300713
Cl      28.19165116      49.62385810      27.22784980      -0.04540934      -0.04145570       0.01244511      -4.81946373
Cl      51.13156508      35.58774881      32.37559380      -0.02402483      -0.00351155       0.01743035      -4.81551266
Cl      34.20086346      34.24080009      25.38506012       0.01308617      -0.02671881      -0.08996024      -4.66216516
Cl      23.73721541       2.92872711      47.37484870       0.02504698       0.03441190      -0.01548335      -4.83569050
Cl      51.07613020      44.00869960      58.04322882      -0.03851288      -0.01182228      -0.04123600      -4.89428425
Cl      19.30834314      16.04313275      54.67731771       0.01700322      -0.05978158       0.05505684      -4.91935921
Cl       1.85420502       5.74885363      52.85756274       0.01147844       0.00870398      -0.00763090      -4.83961725
Cl      40.88787160      55.96053404      23.06783151      -0.01791744      -0.03923161      -0.01069192      -4.79814816
Cl      57.16459429      43.17473206      30.34076275      -0.02823088       0.02329098       0.00666258      -4.68420601
Cl       9.84917424      20.51829630      57.69078289       0.03204669      -0.02405682       0.02909679      -4.96361542
Cl      29.01408963      42.51103255      49.35362809       0.00995552      -0.03825308       0.04537796      -4.88074875
Cl      38.52670455      39.05564272       1.40557500      -0.02379790      -0.00337115      -0.06114192      -4.73894310
Cl      57.65648390      22.99263063      16.09723337      -0.03644451       0.08659247       0.04950409      -4.85334921
Cl      42.99522823      24.25387982       5.05941565      -0.02562188      -0.02212751       0.06002699      -4.72941446
Cl      21.82620910      25.42378717      35.03065723      -0.06069037       0.06241561      -0.05240627      -4.69973135
Cl      10.02122428      27.68733424      41.17242242       0.00357898      -0.02350591      -0.01635462      -4.84757519
Cl      45.23670695      45.98611931      42.32867287      -0.03206374      -0.01596379       0.02384023      -4.74745464
Cl      25.43645631      26.98360897      18.19355316      -0.03397416       0.05366290      -0.05248616      -4.74267101
Cl       6.89900124      14.43360701      47.68445653       0.02409914       0.00081450       0.03616225      -4.90441990
Na      34.48669450      38.48474155      19.33341000       0.04488115      -0.01534636      -0.01146250      -1.18342054
Na      52.88992785      10.17177725      42.61249354      -0.00570082       0.00921863      -0.03679662      -1.27358675
Na       6.69829161      16.98391896      53.03560344      -0.05274550      -0.01803061       0.07178815      -1.25611770
Na      42.15193406       9.79856746      36.81330138      -0.02632592       0.01433859       0.01783947      -1.03911662
Na       8.82148867       0.81013952      31.11397334      -0.01849036       0.02869140      -0.00273021      -1.16594744
Na      57.45876232      40.08356084      29.02454194      -0.00343300      -0.01881611       0.05290113      -1.22163713
Na      15.43963341      50.88036115      25.76038236       0.07712702      -0.00875434      -0.01173012      -1.18864703
Na      43.50186301      19.31906206       7.64605141       0.06369154       0.02127221      -0.00262133      -1.24549627
Na       6.96501874      22.94024610      15.98312129       0.03503776      -0.01228974      -0.04373834      -1.32131600
Na      19.57906518      42.72644959      14.63700536      -0.01631067      -0.01363168      -0.01715599      -1.16918063
Na      47.44460975      57.64178499      10.21112732       0.03780656      -0.02662589      -0.07023996      -1.10307431
Na      19.07744559      19.98483301      51.74199179       0.08457045      -0.01693566      -0.04402356      -1.22851777
Na      19.72401473      10.10813738      42.30990223       0.00651231      -0.01314491      -0.05081864      -1.25594652
Na       6.12380174      27.85093892       6.17241325      -0.08964321       0.07089263       0.08429648      -1.16375971
Na      42.47934098      50.68833972      33.32576138       0.02695705       0.05512793       0.02226769      -1.38379812
Na      56.17590619      40.85712023      25.59138971       0.00822216      -0.04112560       0.01814018      -1.24673533
Na      52.38951625      35.45326735      34.81360243      -0.01098744      -0.09854268      -0.02999241      -1.30422854
Na      30.10670812      15.52927635      21.09752070      -0.00329382      -0.01597187      -0.00310469      -1.23727417
Na      56.76620688      29.36724024      32.91805358      -0.00926379      -0.02737724      -0.00991079      -1.24766624
Na      51.72618645      31.92445955      28.09974843      -0.00901610      -0.01541940       0.03859863      -1.24622631
Na       2.02960319      23.00222115      50.69432122       0.03741928      -0.08309752       0.06305185      -1.21957791
Na      12.25550975      50.41849120      14.92501842       0.04865406       0.05360565       0.00004808      -1.20907640
Na      15.74359816      57.79029340      14.45760661       0.03015655      -0.03768037      -0.01153933      -1.40401769
Na       7.95266593       6.00901207      40.74060895      -0.01780566      -0.02945487       0.02390310      -1.26923525
Na      18.19670165      40.22022491      16.79341651       0.02094564       0.01489546      -0.02420386      -1.20583630
Na       9.41120058      34.31144594      16.51173124       0.03070100       0.06943714      -0.01677479      -1.36267281
Na      47.87428260       2.74800612      27.70354700       0.04307625      -0.10990577       0.09727962      -1.14941120
Na      26.26927334      36.63402393      55.61016858      -0.00235183       0.02336550      -0.05063211      -1.13219225
Na       1.75956378      22.11560597       0.99868391      -0.06298904       0.07220227       0.02160664      -1.28227735
Na      48.61062828      34.83556923       3.34042273      -0.00365699      -0.06044676      -0.05624709      -1.26266909
Na      55.57339049      18.03068112       4.54063480       0.05183195      -0.02498311      -0.00118026      -1.35231185
Na      55.24371784      24.24679431      47.09114866      -0.03938696      -0.00174535       0.00325784      -1.30939078
Na      24.98408800      14.49822689      53.33363228       0.01040035      -0.00722568      -0.01942875      -1.23267519
Na      20.72983699      24.38283022      23.01549735      -0.05200940       0.02367829      -0.00341008      -1.16137612
Na      54.93261902      18.40560836      27.07891043       0.03829648      -0.01932763       0.02266514      -1.26006961
Na      58.67848288      40.79843438      47.26756111       0.05600427      -0.06824926       0.06977969      -1.25874710
Na      39.31588027      48.02403025      52.57351928       0.04610230       0.00819353       0.01243876      -1.28974462
Na       4.84183514      20.86710268      42.42416359      -0.06471993       0.00073417       0.03621992      -1.17976105
Na      14.81675365      17.91415705      44.92281885      -0.07000448      -0.03368306      -0.00028738      -1.20172596
Na      17.23503577      47.14014596      53.80407942       0.03860671       0.01011270       0.10221875      -1.11785460
Na      16.51783830      41.34380278       6.79737334       0.02281071      -0.02500296      -0.00832864      -1.14850020
Na      22.78343753      11.69879347      17.70752488      -0.03203031       0.00309867       0.01785036      -1.27845657
Na      55.47418185      43.82698647      28.17593380       0.04054171       0.01735498      -0.01854711      -1.30760980
Na      46.08156896      54.15112595      25.52897535      -0.09549859       0.01157511       0.08263624      -1.15354180
Na      23.15904784       1.67430953      49.69595705      -0.05022806       0.02754568      -0.02704281      -1.31728101
Na      28.91296512      30.31359176      11.08318175       0.00634086       0.02909980      -0.01019228      -1.21386266
Na      22.03056169      13.48827245      40.94763905      -0.00009519       0.00927273      -0.04414763      -1.13764167
Na       1.72294732      48.09042341      48.28413711      -0.03401688      -0.01453984      -0.08100308      -1.18395042
Na       4.79236769      16.07893969      17.70385695      -0.02771641       0.04031673       0.11050369      -1.05262399
Na      11.07841063      56.90080115       6.06572511       0.06882720      -0.03584888      -0.03662628      -1.16658854
Cl       4.11986350      18.24533136       5.39092307       0.03342080      -0.01742953      -0.19539298      -4.64189053
Cl      29.08065666       9.32801410       9.74115455      -0.02635796      -0.07384078       0.07197753      -4.74177265
Cl       0.75645909       6.31682570      34.85613300       0.03539865      -0.01320588      -0.02175675      -4.85831738
Cl      36.00273173      25.60172726      25.57844794      -0.02536232       0.02754129      -0.03309508      -4.54522228
Cl       4.11103715       8.13149995      16.95034812       0.01820681       0.06819008       0.01137421      -4.96492910
Cl      15.04639356       2.24180926       8.75795437       0.06327666       0.01053979      -0.02392728      -4.85111523
Cl       1.29631055      25.85247389      44.79901463      -0.01075813       0.00332010       0.00892717      -4.87588978
Cl      29.15117157       2.28905853      33.52181480      -0.01458336      -0.03003854       0.00493111      -4.84151173
Cl      20.04377466       7.46867594      35.92894037      -0.02091842       0.09018256       0.05276084      -4.75690794
Cl      53.94398299       6.54928834      24.50408307      -0.09907508       0.05827624      -0.02589235      -4.55963516
Cl      55.54572368      24.37492357      42.09823607       0.03957223      -0.01114869       0.03180801      -4.97570801
Cl      10.58745869      51.12708621       4.12894783      -0.01692118      -0.03057815      -0.05777965      -4.57716274
Cl      49.66789374      33.28147936      -0.04666072      -0.05344195       0.01682560      -0.01334368      -4.72311974
Cl      20.58287726      55.05692705      44.88391462      -0.00933053      -0.01553709      -0.05776700      -5.00194550
Cl      39.58820395       2.12416724      -0.07176215      -0.01604208      -0.02558808       0.02068138      -4.85765076
Cl      11.76337799      34.14170655      36.01802517       0.05526072       0.00725157       0.00430298      -4.64363909
Cl      47.37219721      41.57168258      41.72025741      -0.03439645       0.00955393      -0.00942772      -4.94810867
Cl      11.16262569      30.25570600      20.55872773       0.02062727      -0.01775242       0.02786570      -4.78875923
Cl      17.74415669      43.50430808      22.27673743       0.11854918       0.00535253      -0.10387114      -4.64776230
Cl      47.07025339      40.25860689      48.66899830      -0.05857699      -0.09003689      -0.03156252      -4.84191704
Cl      47.23747025      39.51593434      52.34606315      -0.09461379       0.07473560       0.05332821      -4.82332468
Cl      28.77581664      13.12240187      41.42926207       0.01935881       0.00837466      -0.01938898      -4.79641247
Cl      37.09410818      14.61690922      37.31968891      -0.02882559       0.03475869       0.05792372      -4.81339312
Cl      46.65755495      37.39653351      42.10481960      -0.04308748       0.02290488      -0.01253851      -4.92758465
Cl      41.85714176      48.49847097      31.40207836       0.06295164       0.01938669      -0.01610532      -4.87657833
Cl      51.62257785       3.98505578      36.43281274      -0.03180737      -0.02030518       0.04600894      -4.82362700
Cl      36.12204609      51.91799247      42.51018754      -0.00793477      -0.03409398      -0.03109819      -5.00510645
Cl      23.05306265       3.27126422      40.21572223       0.13624258       0.03111638       0.09162566      -4.95990658
Cl      55.63862946      45.65934919      10.79750992       0.02033519      -0.02407934      -0.00952064      -4.75997925
Cl      17.81420024      29.14778003      16.26158539       0.01849108       0.09664160      -0.02079640      -4.67535400
Cl      46.23471943      19.35359514      45.67002220       0.00295459       0.13775538      -0.01384215      -4.80300665
Cl      28.19165141       5.72825699      41.85971698      -0.04541080      -0.04145408       0.01244350      -4.81946468
Cl      51.13156538      50.21961567      47.00746101      -0.02402297      -0.00351043       0.01743086      -4.81551361
Cl      34.20086357      48.87266720      40.01692747       0.01308657      -0.02671839      -0.08996187      -4.66216564
Cl      23.73721579      17.56059406       3.47924714       0.02504727       0.03441261      -0.01548926      -4.83569050
Cl      51.07613002      58.64056751      14.14762694      -0.03851030      -0.01182046      -0.04123721      -4.89428616
Cl      19.30834347      30.67499948      10.78171663       0.01700408      -0.05977840       0.05506025      -4.91935968
Cl       1.85420507      20.38072058       8.96196153       0.01148108       0.00870437      -0.00763147      -4.83961725
Cl      40.88787157      12.06493243      37.69969863      -0.01791719      -0.03923216      -0.01069500      -4.79814959
Cl      57.16459421      57.80659952      44.97262991      -0.02822974       0.02329258       0.00666381      -4.68420506
Cl       9.84917429      35.15016350      13.79518113       0.03204494      -0.02405342       0.02909999      -4.96361685
Cl      29.01408999      57.14290023       5.45802677       0.00995583      -0.03825404       0.04537244      -4.88074875
Cl      38.52670463      53.68750972      16.03744242      -0.02379789      -0.00337791      -0.06114311      -4.73894262
Cl      57.65648399      37.62449776      30.72910028      -0.03644443       0.08659513       0.04950314      -4.85335064
Cl      42.99522835      38.88574666      19.69128284      -0.02562265      -0.02212599       0.06002788      -4.72941303
Cl      21.82620903      40.05565439      49.66252436      -0.06068785       0.06242744      -0.05240284      -4.69973087
Cl      10.02122425      42.31920153      55.80428982       0.00357897      -0.02350547      -0.01635228      -4.84757710
Cl      45.23670667       2.09051782      56.96054109      -0.03206338      -0.01596545       0.02384285      -4.74745369
Cl      25.43645631      41.61547590      32.82541993      -0.03397497       0.05366669      -0.05248203      -4.74267101
Cl       6.89900120      29.06547393       3.78885522       0.02409892       0.00081551       0.03615712      -4.90442085
Na      34.48669468      38.48474146      33.96527711       0.04488109      -0.01534501      -0.01146497      -1.18342018
Na      52.88992811      10.17177703      57.24436166      -0.00570051       0.00921835      -0.03679555      -1.27358615
Na       6.69829161      16.98391906       9.14000194      -0.05274640      -0.01803186       0.07178579      -1.25611734
Na      42.15193388       9.79856769      51.44516902      -0.02632461       0.01434000       0.01784230      -1.03911638
Na       8.82148873       0.81013969      45.74584021      -0.01848964       0.02868938      -0.00273266      -1.16594839
Na      57.45876216      40.08356086      43.65640880      -0.00343467      -0.01881482       0.05290078      -1.22163868
Na      15.43963338      50.88036116      40.39224915       0.07712752      -0.00875246      -0.01172967      -1.18864655
Na      43.50186318      19.31906204      22.27791847       0.06369308       0.02127066      -0.00262108      -1.24549627
Na       6.96501881      22.94024602      30.61498835       0.03503822      -0.01229053      -0.04373847      -1.32131624
Na      19.57906519      42.72644960      29.26887237      -0.01631057      -0.01363089      -0.01715834      -1.16918027
Na      47.44460982      57.64178494      24.84299440       0.03780739      -0.02662413      -0.07024210      -1.10307407
Na      19.07744546      19.98483283       7.84639078       0.08457035      -0.01693639      -0.04402107      -1.22851729
Na      19.72401453      10.10813766      56.94176960       0.00651309      -0.01314666      -0.05081867      -1.25594676
Na       6.12380165      27.85093885      20.80428032      -0.08964345       0.07089242       0.08429500      -1.16375971
Na      42.47934078      50.68833975      47.95762832       0.02695350       0.05512691       0.02226325      -1.38379788
Na      56.17590624      40.85712018      40.22325668       0.00822539      -0.04112706       0.01815217      -1.24673581
Na      52.38951617      35.45326736      49.44546937      -0.01098807      -0.09854229      -0.02999181      -1.30422807
Na      30.10670819      15.52927645      35.72938785      -0.00329418      -0.01597831      -0.00311131      -1.23727393
Na      56.76620692      29.36724029      47.54992068      -0.00926351      -0.02737707      -0.00990935      -1.24766660
Na      51.72618647      31.92445963      42.73161520      -0.00901535      -0.01542069       0.03859664      -1.24622643
Na       2.02960314      23.00222121       6.79872021       0.03741890      -0.08309788       0.06305240      -1.21957815
Na      12.25550987      50.41849124      29.55688531       0.04865325       0.05360508       0.00004925      -1.20907640
Na      15.74359814      57.79029336      29.08947364       0.03015627      -0.03768001      -0.01153996      -1.40401757
Na       7.95266611       6.00901188      55.37247620      -0.01780963      -0.02945601       0.02390739      -1.26923513
Na      18.19670171      40.22022489      31.42528356       0.02094143       0.01489462      -0.02419771      -1.20583606
Na       9.41120049      34.31144584      31.14359842       0.03070118       0.06943701      -0.01677353      -1.36267304
Na      47.87428262       2.74800607      42.33541397       0.04307603      -0.10990764       0.09727710      -1.14941120
Na      26.26927349      36.63402371      11.71456678      -0.00235428       0.02336546      -0.05063550      -1.13219261
Na       1.75956376      22.11560612      15.63055086      -0.06298862       0.07220229       0.02160703      -1.28227758
Na      48.61062836      34.83556912      17.97228959      -0.00365611      -0.06044627      -0.05624802      -1.26266885
Na      55.57339041      18.03068115      19.17250203       0.05183216      -0.02498419      -0.00118232      -1.35231161
Na      55.24371796      24.24679433       3.19554707      -0.03938623      -0.00174538       0.00325847      -1.30939078
Na      24.98408803      14.49822685       9.43803094       0.01040051      -0.00722372      -0.01942805      -1.23267603
Na      20.72983692      24.38283014      37.64736424      -0.05200958       0.02367754      -0.00341052      -1.16137576
Na      54.93261900      18.40560836      41.71077729       0.03829461      -0.01932749       0.02266856      -1.26006961
Na      58.67848283      40.79843426       3.37195976       0.05600374      -0.06824818       0.06978211      -1.25874710
Na      39.31588028      48.02403015       8.67791776       0.04610109       0.00819287       0.01244413      -1.28974509
Na       4.84183518      20.86710290      57.05603081      -0.06472024       0.00073551       0.03621998      -1.17976093
Na      14.81675382      17.91415650       1.02721764      -0.07000504      -0.03368213      -0.00028733      -1.20172596
Na      17.23503579      47.14014613       9.90847857       0.03860455       0.01011170       0.10221747      -1.11785483
Na      16.51783836      41.34380286      21.42924067       0.02281111      -0.02500246      -0.00833124      -1.14850032
Na      22.78343749      11.69879341      32.33939167      -0.03202968       0.00309880       0.01785170      -1.27845669
Na      55.47418179      43.82698648      42.80780068       0.04054371       0.01735546      -0.01854422      -1.30761075
Na      46.08156897      54.15112602      40.16084219      -0.09550032       0.01157493       0.08263440      -1.15354180
Na      23.15904789       1.67430964       5.80035559      -0.05022887       0.02754471      -0.02704162      -1.31728148
Na      28.91296504      30.31359173      25.71504881       0.00634074       0.02910055      -0.01019448      -1.21386242
Na      22.03056174      13.48827232      55.57950662      -0.00009600       0.00927200      -0.04414792      -1.13764215
Na       1.72294721      48.09042346       4.38853616      -0.03401564      -0.01453283      -0.08100004      -1.18395019
Na       4.79236760      16.07893954      32.33572397      -0.02771715       0.04031762       0.11050306      -1.05262423
Na      11.07841059      56.90080106      20.69759232       0.06882759      -0.03584845      -0.03662347      -1.16658878
Cl       4.11986352      18.24533130      20.02279000       0.03341969      -0.01742902      -0.19539329      -4.64189005
Cl      29.08065658       9.32801415      24.37302145      -0.02635838      -0.07384071       0.07197697      -4.74177265
Cl       0.75645904       6.31682571      49.48800038       0.03539912      -0.01320552      -0.02175513      -4.85831881
Cl      36.00273156      25.60172716      40.21031486      -0.02536089       0.02754130      -0.03309658      -4.54522324
Cl       4.11103715       8.13149999      31.58221518       0.01820787       0.06819160       0.01137565      -4.96492958
Cl      15.04639365       2.24180923      23.38982159       0.06327726       0.01054041      -0.02392842      -4.85111523
Cl       1.29631024      25.85247398       0.90341313      -0.01075920       0.00332063       0.00892596      -4.87589025
Cl      29.15117171       2.28905848      48.15368177      -0.01458694      -0.03004138       0.00493165      -4.84151125
Cl      20.04377463       7.46867576      50.56080742      -0.02091884       0.09018482       0.05275987      -4.75690842
Cl      53.94398305       6.54928837      39.13594980      -0.09907046       0.05827810      -0.02588463      -4.55963326
Cl      55.54572369      24.37492386      56.73010352       0.03957055      -0.01115049       0.03181127      -4.97570848
Cl      10.58745880      51.12708611      18.76081492      -0.01692133      -0.03057918      -0.05777920      -4.57716274
Cl      49.66789341      33.28147897      14.58520814      -0.05344141       0.01682395      -0.01334433      -4.72311974
Cl      20.58287715      55.05692678       0.98831320      -0.00932463      -0.01553753      -0.05776987      -5.00194645
Cl      39.58820412       2.12416698      14.56010590      -0.01604221      -0.02558725       0.02068176      -4.85765123
Cl      11.76337785      34.14170673      50.64989240       0.05525760       0.00725059       0.00430673      -4.64363861
Cl      47.37219760      41.57168264      56.35212510      -0.03439604       0.00955570      -0.00942623      -4.94810772
Cl      11.16262580      30.25570637      35.19059463       0.02062316      -0.01775419       0.02786930      -4.78876019
Cl      17.74415682      43.50430814      36.90860463       0.11854967       0.00535247      -0.10387048      -4.64776230
Cl      47.07025346      40.25860716       4.77339739      -0.05857641      -0.09003757      -0.03156390      -4.84191656
Cl      47.23747006      39.51593432       8.45046219      -0.09461400       0.07473619       0.05332332      -4.82332420
Cl      28.77581664      13.12240191      56.06112982       0.01935694       0.00837610      -0.01939330      -4.79641294
Cl      37.09410820      14.61690937      51.95155547      -0.02882615       0.03475896       0.05792663      -4.81339359
Cl      46.65755510      37.39653374      56.73668694      -0.04308754       0.02290363      -0.01253716      -4.92758179
Cl      41.85714181      48.49847094      46.03394535       0.06295238       0.01938842      -0.01610798      -4.87657642
Cl      51.62257790       3.98505581      51.06467991      -0.03180617      -0.02030418       0.04601237      -4.82362652
Cl      36.12204593      51.91799315      57.14205567      -0.00793475      -0.03409511      -0.03109635      -5.00510550
Cl      23.05306252       3.27126422      54.84758974       0.13624042       0.03111501       0.09161936      -4.95990705
Cl      55.63862949      45.65934903      25.42937671       0.02033575      -0.02407905      -0.00951855      -4.75997925
Cl      17.81420030      29.14778005      30.89345237       0.01849142       0.09664141      -0.02079438      -4.67535400
Cl      46.23471949      19.35359503       1.77442126       0.00295317       0.13775392      -0.01384458      -4.80300665
Cl      28.19165110       5.72825722      56.49158420      -0.04540808      -0.04145418       0.01244454      -4.81946278
Cl      51.13156536      50.21961570       3.11185925      -0.02402226      -0.00351026       0.01743159      -4.81551313
Cl      34.20086356      48.87266742      54.64879400       0.01308849      -0.02672311      -0.08996310      -4.66216564
Cl      23.73721563      17.56059436      18.11111468       0.02504782       0.03441393      -0.01548769      -4.83569145
Cl      51.07613012      58.64056760      28.77949385      -0.03851082      -0.01182100      -0.04123579      -4.89428663
Cl      19.30834344      30.67499946      25.41358367       0.01700487      -0.05977820       0.05505965      -4.91935968
Cl       1.85420518      20.38072053      23.59382859       0.01148009       0.00870464      -0.00762950      -4.83961773
Cl      40.88787152      12.06493265      52.33156540      -0.01791571      -0.03923373      -0.01068832      -4.79814816
Cl      57.16459409      57.80659977       1.07702825      -0.02822908       0.02329081       0.00666254      -4.68420506
Cl       9.84917435      35.15016353      28.42704812       0.03204456      -0.02405294       0.02910108      -4.96361732
Cl      29.01408986      57.14290041      20.08989414       0.00995761      -0.03825499       0.04537450      -4.88074827
Cl      38.52670439      53.68750972      30.66930927      -0.02379819      -0.00337830      -0.06114315      -4.73894358
Cl      57.65648407      37.62449760      45.36096743      -0.03644339       0.08659588       0.04950441      -4.85334873
Cl      42.99522827      38.88574672      34.32314998      -0.02562054      -0.02212389       0.06002349      -4.72941208
Cl      21.82620907      40.05565435       5.76692309      -0.06068968       0.06242591      -0.05240449      -4.69972992
Cl      10.02122431      42.31920136      11.90868836       0.00358081      -0.02350488      -0.01635126      -4.84757710
Cl      45.23670677       2.09051797      13.06493902      -0.03206341      -0.01596568       0.02384397      -4.74745417
Cl      25.43645637      41.61547600      47.45728706      -0.03397364       0.05366821      -0.05247947      -4.74267101
Cl       6.89900123      29.06547397      18.42072272       0.02409900       0.00081646       0.03615781      -4.90442038
Na      34.48669448      38.48474151      48.59714404       0.04488031      -0.01534583      -0.01146462      -1.18342030
Na      52.88992782      10.17177717      13.34875967      -0.00570153       0.00921911      -0.03679463      -1.27358627
Na       6.69829151      16.98391911      23.77186906      -0.05274566      -0.01803205       0.07178312      -1.25611758
Na      42.15193396       9.79856750       7.54956726      -0.02632475       0.01433918       0.01783909      -1.03911650
Na       8.82148848       0.81013985       1.85023856      -0.01849097       0.02869043      -0.00273026      -1.16594768
Na      57.45876246      40.08356078      58.28827689      -0.00343482      -0.01881607       0.05290004      -1.22163820
Na      15.43963327      50.88036129      55.02411677       0.07712688      -0.00875391      -0.01172878      -1.18864691
Na      43.50186286      19.31906198      36.90978531       0.06369007       0.02127341      -0.00262351      -1.24549580
Na       6.96501869      22.94024618      45.24685542       0.03503935      -0.01228733      -0.04374101      -1.32131636
Na      19.57906524      42.72644958      43.90073940      -0.01631104      -0.01363241      -0.01715302      -1.16918111
Na      47.44460975      57.64178502      39.47486126       0.03780628      -0.02662599      -0.07024409      -1.10307372
Na      19.07744545      19.98483287      22.47825783       0.08456999      -0.01693654      -0.04402308      -1.22851729
Na      19.72401468      10.10813748      13.04616819       0.00651119      -0.01314404      -0.05082051      -1.25594652
Na       6.12380164      27.85093891      35.43614727      -0.08964510       0.07089301       0.08429794      -1.16375947
Na      42.47934104      50.68833979       4.06202715       0.02695572       0.05512701       0.02226689      -1.38379788
Na      56.17590622      40.85712024      54.85512407       0.00822356      -0.04112514       0.01814040      -1.24673581
Na      52.38951621      35.45326737       5.54986821      -0.01098947      -0.09854337      -0.02999362      -1.30422807
Na      30.10670822      15.52927654      50.36125518      -0.00329433      -0.01597564      -0.00310749      -1.23727417
Na      56.76620692      29.36724011       3.65431925      -0.00926439      -0.02737792      -0.00991246      -1.24766612
Na      51.72618621      31.92445984      57.36348273      -0.00901627      -0.01542130       0.03860165      -1.24622631
Na       2.02960324      23.00222128      21.43058724       0.03741854      -0.08309789       0.06305128      -1.21957850
Na      12.25550990      50.41849124      44.18875247       0.04865371       0.05360490       0.00005469      -1.20907700
Na      15.74359815      57.79029334      43.72134079       0.03015608      -0.03768086      -0.01153949      -1.40401793
Na       7.95266607       6.00901209      11.47687476      -0.01780862      -0.02945601       0.02390408      -1.26923561
Na      18.19670170      40.22022493      46.05715050       0.02094751       0.01489538      -0.02420310      -1.20583701
Na       9.41120064      34.31144585      45.77546525       0.03070229       0.06943837      -0.01677446      -1.36267281
Na      47.87428258       2.74800606      56.96728114       0.04307573      -0.10990603       0.09728059      -1.14941096
Na      26.26927349      36.63402377      26.34643382      -0.00235239       0.02336705      -0.05063367      -1.13219237
Na       1.75956372      22.11560607      30.26241791      -0.06298792       0.07220078       0.02160597      -1.28227735
Na      48.61062840      34.83556913      32.60415655      -0.00365632      -0.06044609      -0.05624782      -1.26266885
Na      55.57339037      18.03068112      33.80436900       0.05183268      -0.02498494      -0.00118563      -1.35231185
Na      55.24371795      24.24679438      17.82741454      -0.03938606      -0.00174542       0.00325747      -1.30939102
Na      24.98408808      14.49822692      24.06989812       0.01039998      -0.00722455      -0.01942890      -1.23267579
Na      20.72983695      24.38283023      52.27923132      -0.05200773       0.02367779      -0.00341028      -1.16137564
Na      54.93261898      18.40560840      56.34264494       0.03829329      -0.01932521       0.02267088      -1.26007032
Na      58.67848294      40.79843421      18.00382693       0.05600327      -0.06824804       0.06978279      -1.25874710
Na      39.31588034      48.02403036      23.30978486       0.04610048       0.00819315       0.01244540      -1.28974509
Na       4.84183511      20.86710271      13.16042988      -0.06472113       0.00073510       0.03621943      -1.17976093
Na      14.81675366      17.91415710      15.65908487      -0.07000534      -0.03368384      -0.00028906      -1.20172524
Na      17.23503581      47.14014615      24.54034560       0.03860537       0.01011326       0.10221725      -1.11785507
Na      16.51783838      41.34380278      36.06110757       0.02280826      -0.02500262      -0.00832837      -1.14850056
Na      22.78343749      11.69879348      46.97125891      -0.03202941       0.00309976       0.01784930      -1.27845764
Na      55.47418145      43.82698643      57.43966834       0.04054306       0.01735594      -0.01854353      -1.30761075
Na      46.08156913      54.15112590      54.79270972      -0.09549886       0.01157456       0.08263591      -1.15354252
Na      23.15904772       1.67430956      20.43222298      -0.05022933       0.02754486      -0.02704066      -1.31728148
Na      28.91296503      30.31359179      40.34691574       0.00634071       0.02910001      -0.01019117      -1.21386266
Na      22.03056160      13.48827242      11.68390509      -0.00009564       0.00927250      -0.04414784      -1.13764191
Na       1.72294734      48.09042339      19.02040298      -0.03401461      -0.01453481      -0.08099993      -1.18394995
Na       4.79236769      16.07893963      46.96759092      -0.02771685       0.04031518       0.11050309      -1.05262411
Na      11.07841056      56.90080119      35.32945906       0.06882736      -0.03585042      -0.03662893      -1.16658807
Cl       4.11986372      18.24533131      34.65465706       0.03342229      -0.01742891      -0.19538847      -4.64189005
Cl      29.08065657       9.32801417      39.00488841      -0.02635583      -0.07384173       0.07198044      -4.74177265
Cl       0.75645892       6.31682560       5.59239893       0.03539902      -0.01320531      -0.02175976      -4.85831833
Cl      36.00273148      25.60172716      54.84218217      -0.02536194       0.02754195      -0.03309687      -4.54522228
Cl       4.11103712       8.13149991      46.21408206       0.01820770       0.06819047       0.01137625      -4.96492910
Cl      15.04639363       2.24180934      38.02168832       0.06327602       0.01054004      -0.02391790      -4.85111570
Cl       1.29631038      25.85247379      15.53528042      -0.01075967       0.00332045       0.00892740      -4.87588978
Cl      29.15117158       2.28905849       4.25808038      -0.01458313      -0.03003883       0.00493177      -4.84151220
Cl      20.04377461       7.46867570       6.66520628      -0.02091731       0.09018765       0.05275472      -4.75690937
Cl      53.94398316       6.54928831      53.76781717      -0.09908290       0.05827160      -0.02589429      -4.55963516
Cl      55.54572349      24.37492350      12.83450204       0.03957091      -0.01114983       0.03180898      -4.97570848
Cl      10.58745870      51.12708608      33.39268178      -0.01692140      -0.03058040      -0.05777841      -4.57716227
Cl      49.66789328      33.28147902      29.21707513      -0.05344197       0.01682347      -0.01334398      -4.72312021
Cl      20.58287722      55.05692698      15.62018080      -0.00932991      -0.01553702      -0.05776809      -5.00194645
Cl      39.58820422       2.12416705      29.19197296      -0.01604200      -0.02558709       0.02068278      -4.85765219
Cl      11.76337782      34.14170651       6.75429112       0.05525925       0.00725014       0.00429937      -4.64363813
Cl      47.37219732      41.57168247      12.45652353      -0.03439716       0.00955626      -0.00942922      -4.94810915
Cl      11.16262569      30.25570609      49.82246171       0.02062635      -0.01775403       0.02786905      -4.78875923
Cl      17.74415671      43.50430805      51.54047166       0.11854945       0.00535288      -0.10386989      -4.64776325
Cl      47.07025330      40.25860712      19.40526479      -0.05857240      -0.09004125      -0.03156288      -4.84191656
Cl      47.23747006      39.51593439      23.08232900      -0.09461495       0.07473634       0.05332612      -4.82332420
Cl      28.77581670      13.12240181      12.16552818       0.01935690       0.00837446      -0.01939146      -4.79641247
Cl      37.09410816      14.61690929       8.05595448      -0.02882562       0.03475863       0.05792635      -4.81339312
Cl      46.65755494      37.39653358      12.84108553      -0.04308882       0.02290373      -0.01253737      -4.92758131
Cl      41.85714182      48.49847094       2.13834384       0.06295243       0.01938692      -0.01610411      -4.87657785
Cl      51.62257795       3.98505579       7.16907847      -0.03180825      -0.02030402       0.04600668      -4.82362652
Cl      36.12204616      51.91799262      13.24645355      -0.00793435      -0.03409479      -0.03109552      -5.00510693
Cl      23.05306267       3.27126420      10.95198823       0.13624136       0.03111561       0.09162520      -4.95990610
Cl      55.63862955      45.65934933      40.06124393       0.02033475      -0.02408151      -0.00952239      -4.75997925
Cl      17.81420012      29.14778008      45.52531948       0.01849313       0.09663958      -0.02079730      -4.67535305
Cl      46.23471952      19.35359515      16.40628826       0.00295497       0.13775557      -0.01384274      -4.80300760
Cl      28.19165130       5.72825709      12.59598292      -0.04540824      -0.04145513       0.01244507      -4.81946325
Cl      51.13156529      50.21961562      17.74372682      -0.02402142      -0.00350965       0.01743357      -4.81551266
Cl      34.20086349      48.87266724      10.75319301       0.01308592      -0.02671807      -0.08996216      -4.66216469
Cl      23.73721568      17.56059423      32.74298194       0.02504737       0.03441277      -0.01548708      -4.83569098
Cl      51.07613003      58.64056769      43.41136103      -0.03851041      -0.01181886      -0.04123952      -4.89428616
Cl      19.30834335      30.67499961      40.04545104       0.01700400      -0.05977927       0.05505792      -4.91935825
Cl       1.85420512      20.38072062      38.22569573       0.01147990       0.00870528      -0.00763050      -4.83961773
Cl      40.88787152      12.06493252       8.43596432      -0.01791621      -0.03923365      -0.01069142      -4.79814816
Cl      57.16459415      57.80659946      15.70889584      -0.02823042       0.02329167       0.00666286      -4.68420601
Cl       9.84917430      35.15016356      43.05891532       0.03204518      -0.02405280       0.02909977      -4.96361732
Cl      29.01408990      57.14290008      34.72176129       0.00995715      -0.03825425       0.04537553      -4.88074780
Cl      38.52670447      53.68750976      45.30117637      -0.02380004      -0.00337670      -0.06114594      -4.73894167
Cl      57.65648403      37.62449739       1.46536576      -0.03644374       0.08659557       0.04950280      -4.85334921
Cl      42.99522845      38.88574660      48.95501631      -0.02562110      -0.02212486       0.06002676      -4.72941399
Cl      21.82620897      40.05565432      20.39879038      -0.06068780       0.06242567      -0.05240469      -4.69973040
Cl      10.02122426      42.31920137      26.54055543       0.00358074      -0.02350578      -0.01635096      -4.84757710
Cl      45.23670669       2.09051798      27.69680602      -0.03206404      -0.01596561       0.02384419      -4.74745512
Cl      25.43645635      41.61547566       3.56168588      -0.03397368       0.05366604      -0.05248192      -4.74267101
Cl       6.89900121      29.06547405      33.05258962       0.02410019       0.00081574       0.03615948      -4.90442133
Na      34.48669447      38.48474163       4.70154295       0.04488192      -0.01534755      -0.01146100      -1.18342078
Na      52.88992790      10.17177725      27.98062658      -0.00569955       0.00921988      -0.03679713      -1.27358544
Na       6.69829164      16.98391912      38.40373577      -0.05274720      -0.01803303       0.07178495      -1.25611711
Na      42.15193394       9.79856756      22.18143463      -0.02632325       0.01433911       0.01783678      -1.03911638
Na       8.82148865       0.81013969      16.48210620      -0.01849123       0.02869096      -0.00272815      -1.16594744
Na      57.45876247      40.08356092      14.39267499      -0.00343456      -0.01881580       0.05290043      -1.22163796
Na      15.43963334      50.88036115      11.12851519       0.07712656      -0.00875388      -0.01173064      -1.18864727
Na      43.50186309      19.31906196      51.54165227       0.06369228       0.02127149      -0.00262250      -1.24549592
Na       6.96501857      22.94024589       1.35125355       0.03503858      -0.01228894      -0.04373906      -1.32131648
Na      19.57906543      42.72644965       0.00513775      -0.01631097      -0.01363016      -0.01715612      -1.16918111
Na      47.44460981      57.64178483      54.10672872       0.03780660      -0.02662404      -0.07024157      -1.10307407
Na      19.07744554      19.98483292      37.11012474       0.08457199      -0.01693429      -0.04402449      -1.22851729
Na      19.72401469      10.10813740      27.67803523       0.00651147      -0.01314374      -0.05082183      -1.25594616
Na       6.12380176      27.85093883      50.06801436      -0.08964418       0.07089312       0.08429329      -1.16375959
Na      42.47934085      50.68833982      18.69389440       0.02695506       0.05512784       0.02226492      -1.38379765
Na      56.17590620      40.85712022      10.95952257       0.00822336      -0.04112661       0.01814564      -1.24673605
Na      52.38951618      35.45326737      20.18173543      -0.01098828      -0.09854339      -0.02999435      -1.30422807
Na      30.10670790      15.52927637       6.46565377      -0.00329383      -0.01597314      -0.00310644      -1.23727393
Na      56.76620690      29.36724023      18.28618653      -0.00926504      -0.02737813      -0.00991116      -1.24766636
Na      51.72618640      31.92445961      13.46788142      -0.00901652      -0.01542122       0.03860091      -1.24622631
Na       2.02960330      23.00222127      36.06245424       0.03741761      -0.08309922       0.06305022      -1.21957874
Na      12.25551010      50.41849108       0.29315058       0.04864964       0.05359929       0.00004495      -1.20907712
Na      15.74359815      57.79029333      58.35320844       0.03015655      -0.03768060      -0.01153776      -1.40401769
Na       7.95266607       6.00901206      26.10874175      -0.01780816      -0.02945579       0.02390372      -1.26923513
Na      18.19670136      40.22022501       2.16154903       0.02094367       0.01489493      -0.02420037      -1.20583689
Na       9.41120067      34.31144564       1.87986371       0.03070168       0.06943588      -0.01677242      -1.36267281
Na      47.87428258       2.74800613      13.07168021       0.04307648      -0.10990615       0.09727875      -1.14941144
Na      26.26927337      36.63402368      40.97830078      -0.00235596       0.02336467      -0.05063644      -1.13219178
Na       1.75956377      22.11560599      44.89428501      -0.06298944       0.07220171       0.02160758      -1.28227806
Na      48.61062831      34.83556908      47.23602364      -0.00365697      -0.06044560      -0.05624621      -1.26266897
Na      55.57339043      18.03068121      48.43623571       0.05183147      -0.02498575      -0.00118635      -1.35231185
Na      55.24371802      24.24679437      32.45928166      -0.03938645      -0.00174582       0.00325810      -1.30939078
Na      24.98408787      14.49822687      38.70176494       0.01040321      -0.00722319      -0.01942363      -1.23267531
Na      20.72983696      24.38283017       8.38363034      -0.05200934       0.02367657      -0.00341118      -1.16137576
Na      54.93261900      18.40560832      12.44704344       0.03829554      -0.01932617       0.02266617      -1.26007009
Na      58.67848293      40.79843436      32.63569395       0.05600218      -0.06825031       0.06978524      -1.25874722
Na      39.31588059      48.02403024      37.94165174       0.04609946       0.00819314       0.01244560      -1.28974497
Na       4.84183513      20.86710265      27.79229684      -0.06472046       0.00073430       0.03621814      -1.17976105
Na      14.81675366      17.91415702      30.29095187      -0.07000481      -0.03368432      -0.00028920      -1.20172536
Na      17.23503548      47.14014627      39.17221227       0.03860633       0.01010823       0.10222106      -1.11785424
Na      16.51783843      41.34380281      50.69297488       0.02280846      -0.02500246      -0.00832957      -1.14849997
Na      22.78343762      11.69879337       3.07565741      -0.03202966       0.00309913       0.01785133      -1.27845716
Na      55.47418180      43.82698640      13.54406671       0.04054281       0.01735447      -0.01854684      -1.30761027
Na      46.08156899      54.15112600      10.89710836      -0.09550054       0.01157580       0.08263636      -1.15354216
Na      23.15904780       1.67430963      35.06408938      -0.05022854       0.02754570      -0.02704540      -1.31728125
Na      28.91296508      30.31359174      54.97878314       0.00634038       0.02909937      -0.01019168      -1.21386194
Na      22.03056160      13.48827241      26.31577201      -0.00009625       0.00927196      -0.04414841      -1.13764191
Na       1.72294725      48.09042345      33.65226997      -0.03401535      -0.01453318      -0.08100394      -1.18395019
Na       4.79236725      16.07893934       3.07199009      -0.02771710       0.04031602       0.11050396      -1.05262375
Na      11.07841063      56.90080097      49.96132649       0.06882682      -0.03584895      -0.03662926      -1.16658866
Cl       4.11986360      18.24533131      49.28652414       0.03341967      -0.01742769      -0.19539347      -4.64188862
Cl      29.08065677       9.32801415      53.63675560      -0.02635840      -0.07384127       0.07197645      -4.74177265
Cl       0.75645894       6.31682561      20.22426610       0.03539904      -0.01320461      -0.02175874      -4.85831833
Cl      36.00273164      25.60172713      10.94658089      -0.02536198       0.02754192      -0.03309559      -4.54522228
Cl       4.11103696       8.13149991       2.31848118       0.01820744       0.06819114       0.01137465      -4.96492910
Cl      15.04639360       2.24180930      52.65355567       0.06327717       0.01053965      -0.02392750      -4.85111570
Cl       1.29631048      25.85247381      30.16714747      -0.01075906       0.00331972       0.00892689      -4.87589121
Cl      29.15117166       2.28905837      18.88994772      -0.01458298      -0.03003880       0.00493223      -4.84151268
Cl      20.04377466       7.46867583      21.29707339      -0.02091694       0.09018755       0.05275538      -4.75690889
Cl      53.94398296       6.54928835       9.87221599      -0.09907377       0.05827713      -0.02589036      -4.55963516
Cl      55.54572359      24.37492352      27.46636901       0.03957119      -0.01115148       0.03180921      -4.97570944
Cl      10.58745863      51.12708599      48.02454891      -0.01692277      -0.03057998      -0.05777694      -4.57716227
Cl      49.66789318      33.28147907      43.84894210      -0.05344080       0.01682514      -0.01334230      -4.72312021
Cl      20.58287732      55.05692691      30.25204782      -0.00932901      -0.01553735      -0.05776934      -5.00194645
Cl      39.58820422       2.12416705      43.82384028      -0.01604242      -0.02558612       0.02067898      -4.85765028
Cl      11.76337793      34.14170662      21.38615811       0.05525886       0.00725089       0.00430033      -4.64363861
Cl      47.37219733      41.57168234      27.08839062      -0.03439567       0.00955496      -0.00942571      -4.94810963
Cl      11.16262566      30.25570614       5.92686048       0.02062681      -0.01775320       0.02786703      -4.78875875
Cl      17.74415666      43.50430816       7.64487039       0.11854860       0.00535266      -0.10387409      -4.64776278
Cl      47.07025346      40.25860682      34.03713149      -0.05857578      -0.09003695      -0.03156680      -4.84191608
Cl      47.23747003      39.51593436      37.71419623      -0.09461369       0.07473480       0.05332793      -4.82332468
Cl      28.77581665      13.12240190      26.79739497       0.01935625       0.00837443      -0.01939145      -4.79641294
Cl      37.09410822      14.61690930      22.68782156      -0.02882622       0.03475885       0.05792586      -4.81339264
Cl      46.65755489      37.39653354      27.47295253      -0.04308825       0.02290362      -0.01253588      -4.92758226
Cl      41.85714189      48.49847088      16.77021123       0.06295215       0.01938837      -0.01610618      -4.87657785
Cl      51.62257777       3.98505574      21.80094563      -0.03180781      -0.02030424       0.04600907      -4.82362604
Cl      36.12204612      51.91799255      27.87832058      -0.00793371      -0.03409376      -0.03109375      -5.00510693
Cl      23.05306268       3.27126425      25.58385524       0.13624132       0.03111569       0.09162864      -4.95990610
Cl      55.63862939      45.65934922      54.69311098       0.02033456      -0.02407970      -0.00952145      -4.75998068
Cl      17.81420019      29.14777992       1.62971778       0.01849048       0.09663840      -0.02079889      -4.67535305
Cl      46.23471947      19.35359506      31.03815521       0.00295494       0.13775617      -0.01384151      -4.80300713
Cl      28.19165127       5.72825708      27.22784986      -0.04540691      -0.04145439       0.01244411      -4.81946373
Cl      51.13156526      50.21961577      32.37559389      -0.02402227      -0.00350959       0.01742918      -4.81551313
Cl      34.20086350      48.87266720      25.38506010       0.01308591      -0.02671826      -0.08996114      -4.66216564
Cl      23.73721568      17.56059449      47.37484870       0.02504682       0.03441363      -0.01548261      -4.83569050
Cl      51.07613020      58.64056760      58.04322865      -0.03851104      -0.01182058      -0.04123762      -4.89428568
Cl      19.30834309      30.67499955      54.67731761       0.01700360      -0.05977938       0.05505764      -4.91935921
Cl       1.85420514      20.38072054      52.85756262       0.01147878       0.00870440      -0.00763050      -4.83961678
Cl      40.88787153      12.06493256      23.06783132      -0.01791728      -0.03923427      -0.01069067      -4.79814816
Cl      57.16459419      57.80659948      30.34076276      -0.02823075       0.02329144       0.00666263      -4.68420601
Cl       9.84917428      35.15016350      57.69078293       0.03204627      -0.02405292       0.02909847      -4.96361542
Cl      29.01408984      57.14290011      49.35362817       0.00995447      -0.03825502       0.04537016      -4.88074875
Cl      38.52670467      53.68750985       1.40557487      -0.02379755      -0.00337688      -0.06114189      -4.73894310
Cl      57.65648405      37.62449765      16.09723338      -0.03644331       0.08659573       0.04950522      -4.85334969
Cl      42.99522828      38.88574667       5.05941563      -0.02562075      -0.02212452       0.06002612      -4.72941303
Cl      21.82620893      40.05565428      35.03065732      -0.06068761       0.06242679      -0.05240604      -4.69972944
Cl      10.02122433      42.31920140      41.17242246       0.00357952      -0.02350667      -0.01635486      -4.84757614
Cl      45.23670668       2.09051794      42.32867323      -0.03206436      -0.01596576       0.02384233      -4.74745560
Cl      25.43645633      41.61547600      18.19355316      -0.03397425       0.05366573      -0.05248653      -4.74267149
Cl       6.89900121      29.06547398      47.68445658       0.02409909       0.00081469       0.03616146      -4.90442085
Na      34.48669444      53.11660839      19.33341029       0.04488315      -0.01534367      -0.01146163      -1.18342006
Na      52.88992783      24.80364431      42.61249335      -0.00570134       0.00921736      -0.03679108      -1.27358770
Na       6.69829161      31.61578592      53.03560340      -0.05274465      -0.01802792       0.07178889      -1.25611734
Na      42.15193404      24.43043443      36.81330142      -0.02632525       0.01433795       0.01783928      -1.03911638
Na       8.82148892      15.44200692      31.11397342      -0.01849122       0.02869054      -0.00273074      -1.16594768
Na      57.45876219      54.71542788      29.02454209      -0.00343211      -0.01881441       0.05290251      -1.22163725
Na      15.43963330       6.98476018      25.76038233       0.07712644      -0.00875624      -0.01172989      -1.18864655
Na      43.50186304      33.95092878       7.64605150       0.06369232       0.02127508      -0.00262253      -1.24549627
Na       6.96501870      37.57211332      15.98312128       0.03503743      -0.01228853      -0.04373924      -1.32131600
Na      19.57906539      57.35831693      14.63700562      -0.01631020      -0.01364264      -0.01715742      -1.16918015
Na      47.44461000      13.74618273      10.21112711       0.03780668      -0.02662279      -0.07023925      -1.10307443
Na      19.07744558      34.61670004      51.74199174       0.08457145      -0.01693032      -0.04402419      -1.22851825
Na      19.72401470      24.74000452      42.30990222       0.00651218      -0.01314296      -0.05081875      -1.25594652
Na       6.12380172      42.48280594       6.17241319      -0.08964179       0.07088554       0.08429553      -1.16375983
Na      42.47934088       6.79273880      33.32576151       0.02695778       0.05512719       0.02226780      -1.38379788
Na      56.17590627      55.48898766      25.59138982       0.00822331      -0.04112332       0.01814001      -1.24673581
Na      52.38951618      50.08513433      34.81360230      -0.01098659      -0.09854183      -0.02999248      -1.30422807
Na      30.10670816      30.16114342      21.09752076      -0.00329284      -0.01597466      -0.00310597      -1.23727441
Na      56.76620696      43.99910726      32.91805360      -0.00926422      -0.02737594      -0.00990948      -1.24766588
Na      51.72618640      46.55632672      28.09974831      -0.00901704      -0.01542679       0.03860061      -1.24622560
Na       2.02960327      37.63408834      50.69432130       0.03742123      -0.08309454       0.06305232      -1.21957862
Na      12.25550977       6.52289029      14.92501843       0.04865135       0.05360177       0.00004756      -1.20907676
Na      15.74359834      13.89469158      14.45760652       0.03015763      -0.03767662      -0.01153918      -1.40401816
Na       7.95266576      20.64087924      40.74060869      -0.01780664      -0.02945372       0.02390320      -1.26923561
Na      18.19670145      54.85209196      16.79341624       0.02094627       0.01489702      -0.02420544      -1.20583713
Na       9.41120057      48.94331302      16.51173119       0.03070125       0.06943598      -0.01677381      -1.36267185
Na      47.87428262      17.37987335      27.70354702       0.04307673      -0.10990743       0.09727971      -1.14941084
Na      26.26927339      51.26589127      55.61016863      -0.00234997       0.02336522      -0.05063033      -1.13219213
Na       1.75956379      36.74747307       0.99868386      -0.06298737       0.07220076       0.02160656      -1.28227782
Na      48.61062833      49.46743630       3.34042280      -0.00365937      -0.06045251      -0.05624547      -1.26266861
Na      55.57339051      32.66254808       4.54063498       0.05183164      -0.02498316      -0.00118317      -1.35231185
Na      55.24371775      38.87866124      47.09114860      -0.03938620      -0.00174770       0.00325877      -1.30939126
Na      24.98408802      29.13009389      53.33363231       0.01040041      -0.00722546      -0.01942830      -1.23267472
Na      20.72983696      39.01469702      23.01549728      -0.05200950       0.02367517      -0.00341193      -1.16137671
Na      54.93261898      33.03747571      27.07891053       0.03829640      -0.01932508       0.02266499      -1.26007009
Na      58.67848246      55.43030196      47.26756124       0.05600379      -0.06825040       0.06977607      -1.25874734
Na      39.31588021       4.12842923      52.57351926       0.04610041       0.00819202       0.01243930      -1.28974485
Na       4.84183516      35.49896947      42.42416354      -0.06472000       0.00073518       0.03622035      -1.17976069
Na      14.81675367      32.54602383      44.92281889      -0.07000567      -0.03368112      -0.00028737      -1.20172656
Na      17.23503580       3.24454504      53.80407930       0.03860490       0.01011090       0.10221709      -1.11785531
Na      16.51783815      55.97567016       6.79737321       0.02281314      -0.02499637      -0.00832614      -1.14850008
Na      22.78343758      26.33066050      17.70752489      -0.03202992       0.00309835       0.01784959      -1.27845716
Na      55.47418197      -0.06861496      28.17593380       0.04054094       0.01735733      -0.01854636      -1.30761003
Na      46.08156882      10.25552453      25.52897565      -0.09549943       0.01157887       0.08263470      -1.15354180
Na      23.15904773      16.30617722      49.69595685      -0.05022770       0.02754309      -0.02704496      -1.31728148
Na      28.91296502      44.94545871      11.08318187       0.00634089       0.02909935      -0.01019324      -1.21386242
Na      22.03056167      28.12013942      40.94763894      -0.00009517       0.00927112      -0.04414727      -1.13764215
Na       1.72294707       4.19482216      48.28413718      -0.03401556      -0.01453425      -0.08099980      -1.18395042
Na       4.79236779      30.71080686      17.70385699      -0.02771769       0.04031437       0.11050213      -1.05262351
Na      11.07841008      13.00519916       6.06572528       0.06882796      -0.03584033      -0.03662771      -1.16658878
Cl       4.11986357      32.87719866       5.39092311       0.03342102      -0.01742861      -0.19539237      -4.64189100
Cl      29.08065665      23.95988118       9.74115449      -0.02635912      -0.07384063       0.07197586      -4.74177265
Cl       0.75645908      20.94869269      34.85613301       0.03539897      -0.01320377      -0.02175661      -4.85831738
Cl      36.00273165      40.23359410      25.57844794      -0.02536079       0.02754334      -0.03309332      -4.54522276
Cl       4.11103713      22.76336713      16.95034815       0.01820727       0.06819238       0.01137500      -4.96492910
Cl      15.04639370      16.87367652       8.75795445       0.06327745       0.01053983      -0.02392576      -4.85111570
Cl       1.29631051      40.48434066      44.79901467      -0.01075838       0.00332195       0.00892714      -4.87588978
Cl      29.15117138      16.92092585      33.52181468      -0.01458333      -0.03003434       0.00492991      -4.84151220
Cl      20.04377452      22.10054294      35.92894038      -0.02091616       0.09018897       0.05275716      -4.75690937
Cl      53.94398317      21.18115562      24.50408310      -0.09908393       0.05827070      -0.02589376      -4.55963421
Cl      55.54572366      39.00679038      42.09823600       0.03957033      -0.01114512       0.03180915      -4.97570944
Cl      10.58745871       7.23148520       4.12894810      -0.01692035      -0.03057948      -0.05777926      -4.57716322
Cl      49.66789362      47.91334657      -0.04666048      -0.05344272       0.01682795      -0.01334233      -4.72311974
Cl      20.58287721      11.16132600      44.88391464      -0.00932966      -0.01554027      -0.05776749      -5.00194550
Cl      39.58820424      16.75603461      -0.07176212      -0.01604172      -0.02558680       0.02068023      -4.85765076
Cl      11.76337784      48.77357350      36.01802509       0.05526114       0.00725330       0.00430347      -4.64363956
Cl      47.37219755      56.20354961      41.72025728      -0.03439607       0.00955706      -0.00942629      -4.94810915
Cl      11.16262575      44.88757299      20.55872776       0.02062567      -0.01775178       0.02786728      -4.78875875
Cl      17.74415614      58.13617574      22.27673785       0.11854630       0.00534286      -0.10387243      -4.64776230
Cl      47.07025332      54.89047400      48.66899811      -0.05857136      -0.09004181      -0.03156289      -4.84191608
Cl      47.23747023      54.14780140      52.34606269      -0.09461389       0.07473477       0.05332667      -4.82332420
Cl      28.77581668      27.75426888      41.42926213       0.01935843       0.00837518      -0.01938973      -4.79641247
Cl      37.09410812      29.24877617      37.31968892      -0.02882572       0.03475977       0.05792340      -4.81339407
Cl      46.65755502      52.02840075      42.10481950      -0.04308778       0.02290467      -0.01253778      -4.92758465
Cl      41.85714175       4.60286970      31.40207832       0.06295314       0.01938679      -0.01610775      -4.87657928
Cl      51.62257780      18.61692317      36.43281277      -0.03180929      -0.02030354       0.04600947      -4.82362843
Cl      36.12204610       8.02239126      42.51018748      -0.00793424      -0.03409750      -0.03109727      -5.00510645
Cl      23.05306260      17.90313121      40.21572237       0.13624248       0.03111723       0.09162475      -4.95990705
Cl      55.63862943       1.76374777      10.79751019       0.02033392      -0.02408301      -0.00952221      -4.75997877
Cl      17.81420030      43.77964701      16.26158546       0.01849139       0.09663828      -0.02079953      -4.67535400
Cl      46.23471939      33.98546241      45.67002209       0.00295643       0.13775545      -0.01384163      -4.80300713
Cl      28.19165134      20.36012409      41.85971694      -0.04540712      -0.04145544       0.01244227      -4.81946468
Cl      51.13156538       6.32401452      47.00746098      -0.02402336      -0.00351106       0.01743123      -4.81551313
Cl      34.20086364       4.97706602      40.01692736       0.01308792      -0.02671838      -0.08996057      -4.66216564
Cl      23.73721575      32.19246104       3.47924719       0.02504687       0.03440975      -0.01548850      -4.83569050
Cl      51.07613004      14.74496563      14.14762716      -0.03850892      -0.01181800      -0.04123633      -4.89428568
Cl      19.30834344      45.30686646      10.78171677       0.01700544      -0.05977453       0.05505962      -4.91935968
Cl       1.85420522      35.01258764       8.96196127       0.01148163       0.00870175      -0.00763080      -4.83961678
Cl      40.88787160      26.69679937      37.69969867      -0.01791639      -0.03923331      -0.01069498      -4.79815006
Cl      57.16459445      13.91099791      44.97262998      -0.02822968       0.02328934       0.00666413      -4.68420506
Cl       9.84917419      49.78203049      13.79518120       0.03204592      -0.02405776       0.02909881      -4.96361732
Cl      29.01408978      13.24729856       5.45802694       0.00995545      -0.03825671       0.04537258      -4.88074780
Cl      38.52670462       9.79190860      16.03744235      -0.02379744      -0.00337399      -0.06114286      -4.73894358
Cl      57.65648427      52.25636473      30.72910029      -0.03644384       0.08659489       0.04950267      -4.85335016
Cl      42.99522846      53.51761383      19.69128305      -0.02562140      -0.02212495       0.06003043      -4.72941351
Cl      21.82620894      54.68752144      49.66252440      -0.06068849       0.06241683      -0.05240581      -4.69973183
Cl      10.02122464      56.95106876      55.80428981       0.00357845      -0.02350533      -0.01635315      -4.84757710
Cl      45.23670691      16.72238536      56.96054094      -0.03206296      -0.01596604       0.02384239      -4.74745417
Cl      25.43645683      56.24734266      32.82542041      -0.03397372       0.05366758      -0.05247825      -4.74266958
Cl       6.89900126      43.69734099       3.78885514       0.02409902       0.00081568       0.03615918      -4.90442133
Na      34.48669441      53.11660819      33.96527738       0.04488172      -0.01534222      -0.01146459      -1.18341982
Na      52.88992807      24.80364403      57.24436162      -0.00570118       0.00921790      -0.03679607      -1.27358651
Na       6.69829159      31.61578597       9.14000204      -0.05274497      -0.01802992       0.07178557      -1.25611734
Na      42.15193387      24.43043476      51.44516888      -0.02632451       0.01433910       0.01784223      -1.03911591
Na       8.82148902      15.44200694      45.74584019      -0.01849128       0.02868944      -0.00273243      -1.16594875
Na      57.45876187      54.71542787      43.65640880      -0.00343571      -0.01881620       0.05290081      -1.22163916
Na      15.43963336       6.98476010      40.39224912       0.07712580      -0.00875642      -0.01173011      -1.18864596
Na      43.50186300      33.95092884      22.27791851       0.06369393       0.02127365      -0.00262090      -1.24549675
Na       6.96501880      37.57211342      30.61498821       0.03503785      -0.01229011      -0.04373819      -1.32131600
Na      19.57906535      57.35831708      29.26887259      -0.01630997      -0.01364281      -0.01715755      -1.16918015
Na      47.44461000      13.74618272      24.84299402       0.03780666      -0.02662279      -0.07024232      -1.10307443
Na      19.07744548      34.61670003       7.84639065       0.08457100      -0.01693247      -0.04402260      -1.22851801
Na      19.72401451      24.74000484      56.94176961       0.00651335      -0.01314647      -0.05081769      -1.25594699
Na       6.12380162      42.48280589      20.80428031      -0.08964153       0.07088628       0.08429454      -1.16376066
Na      42.47934076       6.79273877      47.95762841       0.02695487       0.05512742       0.02226433      -1.38379741
Na      56.17590629      55.48898772      40.22325663       0.00822614      -0.04112642       0.01815191      -1.24673629
Na      52.38951615      50.08513428      49.44546915      -0.01098721      -0.09854344      -0.02999253      -1.30422807
Na      30.10670819      30.16114335      35.72938780      -0.00329460      -0.01597603      -0.00310760      -1.23727393
Na      56.76620703      43.99910725      47.54992072      -0.00926486      -0.02737764      -0.00990948      -1.24766648
Na      51.72618653      46.55632673      42.73161506      -0.00901751      -0.01542594       0.03860503      -1.24622583
Na       2.02960336      37.63408847       6.79872034       0.03742093      -0.08309436       0.06305431      -1.21957910
Na      12.25550978       6.52289029      29.55688533       0.04865269       0.05360493       0.00004918      -1.20907617
Na      15.74359835      13.89469166      29.08947349       0.03015667      -0.03767759      -0.01154140      -1.40401793
Na       7.95266594      20.64087906      55.37247603      -0.01780931      -0.02945404       0.02390746      -1.26923537
Na      18.19670141      54.85209193      31.42528331       0.02094638       0.01489635      -0.02419977      -1.20583701
Na       9.41120047      48.94331299      31.14359838       0.03070066       0.06943624      -0.01677338      -1.36267233
Na      47.87428271      17.37987324      42.33541413       0.04307569      -0.10990769       0.09728000      -1.14941216
Na      26.26927365      51.26589121      11.71456700      -0.00235398       0.02336592      -0.05063494      -1.13219249
Na       1.75956369      36.74747330      15.63055087      -0.06298804       0.07220048       0.02160549      -1.28227782
Na      48.61062845      49.46743612      17.97228961      -0.00365832      -0.06045389      -0.05624601      -1.26266837
Na      55.57339046      32.66254818      19.17250226       0.05183105      -0.02498464      -0.00118412      -1.35231161
Na      55.24371785      38.87866109       3.19554716      -0.03938565      -0.00174811       0.00325895      -1.30939126
Na      24.98408797      29.13009375       9.43803089       0.01040051      -0.00722480      -0.01942712      -1.23267531
Na      20.72983693      39.01469705      37.64736417      -0.05200960       0.02367610      -0.00341171      -1.16137683
Na      54.93261896      33.03747559      41.71077729       0.03829710      -0.01932480       0.02266809      -1.26007080
Na      58.67848249      55.43030179       3.37195974       0.05600258      -0.06824858       0.06978180      -1.25874722
Na      39.31588025       4.12842926       8.67791783       0.04610010       0.00819051       0.01244464      -1.28974509
Na       4.84183513      35.49896973      57.05603075      -0.06471960       0.00073513       0.03621990      -1.17976046
Na      14.81675380      32.54602334       1.02721762      -0.07000537      -0.03368305      -0.00028726      -1.20172572
Na      17.23503579       3.24454517       9.90847842       0.03860438       0.01011049       0.10221772      -1.11785555
Na      16.51783823      55.97566998      21.42924055       0.02281346      -0.02499693      -0.00832950      -1.14850032
Na      22.78343761      26.33066048      32.33939172      -0.03202854       0.00309779       0.01784827      -1.27845657
Na      55.47418194      -0.06861504      42.80780085       0.04054213       0.01735808      -0.01854208      -1.30761075
Na      46.08156880      10.25552457      40.16084254      -0.09549949       0.01157839       0.08263421      -1.15354109
Na      23.15904782      16.30617737       5.80035548      -0.05022880       0.02754296      -0.02704180      -1.31728172
Na      28.91296504      44.94545856      25.71504896       0.00634111       0.02909975      -0.01019291      -1.21386242
Na      22.03056177      28.12013930      55.57950656      -0.00009640       0.00927022      -0.04414793      -1.13764191
Na       1.72294698       4.19482206       4.38853618      -0.03401643      -0.01453221      -0.08099735      -1.18394983
Na       4.79236768      30.71080679      32.33572404      -0.02771814       0.04031695       0.11050262      -1.05262387
Na      11.07841002      13.00519911      20.69759233       0.06882870      -0.03583920      -0.03662351      -1.16658878
Cl       4.11986359      32.87719864      20.02279019       0.03342027      -0.01742905      -0.19539319      -4.64189148
Cl      29.08065658      23.95988118      24.37302151      -0.02635894      -0.07384060       0.07197671      -4.74177313
Cl       0.75645914      20.94869265      49.48800025       0.03539969      -0.01320159      -0.02175307      -4.85831881
Cl      36.00273165      40.23359395      40.21031480      -0.02536095       0.02754238      -0.03309567      -4.54522371
Cl       4.11103713      22.76336710      31.58221511       0.01820779       0.06819456       0.01137661      -4.96492910
Cl      15.04639369      16.87367655      23.38982158       0.06327978       0.01054119      -0.02392352      -4.85111427
Cl       1.29631016      40.48434075       0.90341319      -0.01075898       0.00332134       0.00892551      -4.87589073
Cl      29.15117138      16.92092591      48.15368163      -0.01458177      -0.03003545       0.00493199      -4.84151173
Cl      20.04377458      22.10054286      50.56080727      -0.02091658       0.09018877       0.05275755      -4.75690937
Cl      53.94398316      21.18115561      39.13594982      -0.09908058       0.05827304      -0.02588692      -4.55963326
Cl      55.54572377      39.00679052      56.73010350       0.03956836      -0.01114554       0.03181290      -4.97570896
Cl      10.58745873       7.23148522      18.76081498      -0.01692174      -0.03058083      -0.05777837      -4.57716274
Cl      49.66789346      47.91334612      14.58520836      -0.05344260       0.01682619      -0.01334393      -4.72311974
Cl      20.58287704      11.16132580       0.98831322      -0.00932356      -0.01553990      -0.05776849      -5.00194693
Cl      39.58820429      16.75603459      14.56010589      -0.01604186      -0.02558687       0.02068038      -4.85765171
Cl      11.76337782      48.77357367      50.64989225       0.05525861       0.00725261       0.00430771      -4.64363909
Cl      47.37219792      56.20354975      56.35212507      -0.03439612       0.00955671      -0.00942638      -4.94810772
Cl      11.16262579      44.88757319      35.19059473       0.02062231      -0.01775309       0.02786846      -4.78875923
Cl      17.74415617      58.13617565      36.90860493       0.11854746       0.00534370      -0.10386989      -4.64776278
Cl      47.07025335      54.89047414       4.77339715      -0.05857315      -0.09004195      -0.03156291      -4.84191561
Cl      47.23747014      54.14780146       8.45046189      -0.09461314       0.07473522       0.05332214      -4.82332420
Cl      28.77581666      27.75426891      56.06112982       0.01935656       0.00837723      -0.01939188      -4.79641390
Cl      37.09410814      29.24877620      51.95155553      -0.02882637       0.03476017       0.05792588      -4.81339407
Cl      46.65755516      52.02840092      56.73668691      -0.04308671       0.02290451      -0.01253681      -4.92758179
Cl      41.85714168       4.60286980      46.03394534       0.06295300       0.01938697      -0.01610872      -4.87657642
Cl      51.62257779      18.61692319      51.06467990      -0.03180646      -0.02030376       0.04601324      -4.82362795
Cl      36.12204614       8.02239160      57.14205566      -0.00793475      -0.03409810      -0.03109779      -5.00510550
Cl      23.05306250      17.90313126      54.84758970       0.13624033       0.03111663       0.09161907      -4.95990753
Cl      55.63862943       1.76374775      25.42937704       0.02033496      -0.02408184      -0.00952012      -4.75997877
Cl      17.81420028      43.77964708      30.89345243       0.01849172       0.09663860      -0.02079783      -4.67535496
Cl      46.23471945      33.98546211       1.77442127       0.00295561       0.13775606      -0.01384381      -4.80300617
Cl      28.19165108      20.36012415      56.49158425      -0.04540944      -0.04145521       0.01244428      -4.81946278
Cl      51.13156565       6.32401465       3.11185918      -0.02402168      -0.00351186       0.01743174      -4.81551218
Cl      34.20086366       4.97706618      54.64879404       0.01308773      -0.02671887      -0.08996074      -4.66216564
Cl      23.73721558      32.19246114      18.11111467       0.02504682       0.03441114      -0.01548778      -4.83569050
Cl      51.07613004      14.74496561      28.77949418      -0.03850951      -0.01181860      -0.04123423      -4.89428616
Cl      19.30834344      45.30686649      25.41358384       0.01700579      -0.05977437       0.05505966      -4.91936016
Cl       1.85420519      35.01258759      23.59382827       0.01148073       0.00870254      -0.00763002      -4.83961678
Cl      40.88787152      26.69679953      52.33156538      -0.01791487      -0.03923574      -0.01068817      -4.79814816
Cl      57.16459432      13.91099822       1.07702836      -0.02822959       0.02329081       0.00666067      -4.68420362
Cl       9.84917415      49.78203048      28.42704817       0.03204687      -0.02405797       0.02910116      -4.96361732
Cl      29.01408976      13.24729855      20.08989442       0.00995480      -0.03825824       0.04536995      -4.88074732
Cl      38.52670447       9.79190859      30.66930935      -0.02379606      -0.00337373      -0.06114045      -4.73894405
Cl      57.65648419      52.25636485      45.36096736      -0.03644683       0.08658949       0.04950346      -4.85334826
Cl      42.99522846      53.51761395      34.32315007      -0.02562133      -0.02212507       0.06002618      -4.72941208
Cl      21.82620898      54.68752133       5.76692308      -0.06068952       0.06241675      -0.05240489      -4.69973135
Cl      10.02122468      56.95106860      11.90868837       0.00357959      -0.02350456      -0.01635100      -4.84757614
Cl      45.23670697      16.72238542      13.06493883      -0.03206342      -0.01596565       0.02384195      -4.74745321
Cl      25.43645691      56.24734277      47.45728760      -0.03397290       0.05366853      -0.05247867      -4.74267006
Cl       6.89900125      43.69734103      18.42072277       0.02409960       0.00081508       0.03615804      -4.90442038
Na      34.48669425      53.11660825      48.59714426       0.04488217      -0.01534282      -0.01146365      -1.18341947
Na      52.88992782      24.80364428      13.34875958      -0.00570107       0.00921782      -0.03679524      -1.27358651
Na       6.69829152      31.61578598      23.77186914      -0.05274478      -0.01802938       0.07178427      -1.25611746
Na      42.15193404      24.43043450       7.54956724      -0.02632439       0.01433801       0.01783955      -1.03911614
Na       8.82148882      15.44200733       1.85023860      -0.01848995       0.02869134      -0.00273055      -1.16594768
Na      57.45876243      54.71542787      58.28827703      -0.00343502      -0.01881604       0.05290181      -1.22163796
Na      15.43963317       6.98476034      55.02411679       0.07712594      -0.00875678      -0.01172936      -1.18864655
Na      43.50186277      33.95092881      36.90978538       0.06369092       0.02127673      -0.00262239      -1.24549615
Na       6.96501873      37.57211337      45.24685537       0.03503757      -0.01228639      -0.04374075      -1.32131648
Na      19.57906541      57.35831697      43.90073976      -0.01630737      -0.01364397      -0.01716067      -1.16918039
Na      47.44460992      13.74618259      39.47486089       0.03780861      -0.02662222      -0.07023971      -1.10307455
Na      19.07744552      34.61670000      22.47825755       0.08457117      -0.01693190      -0.04402260      -1.22851825
Na      19.72401468      24.74000452      13.04616819       0.00651126      -0.01314330      -0.05082007      -1.25594664
Na       6.12380157      42.48280590      35.43614730      -0.08964205       0.07088584       0.08429746      -1.16376019
Na      42.47934079       6.79273881       4.06202730       0.02695607       0.05512731       0.02226638      -1.38379717
Na      56.17590638      55.48898772      54.85512407       0.00822404      -0.04112242       0.01814088      -1.24673629
Na      52.38951622      50.08513425       5.54986801      -0.01098801      -0.09854338      -0.02999242      -1.30422831
Na      30.10670826      30.16114344      50.36125515      -0.00329410      -0.01597470      -0.00310765      -1.23727441
Na      56.76620699      43.99910704       3.65431936      -0.00926439      -0.02737746      -0.00991215      -1.24766576
Na      51.72618628      46.55632652      57.36348279      -0.00901566      -0.01542524       0.03860193      -1.24622536
Na       2.02960334      37.63408839      21.43058729       0.03742080      -0.08309501       0.06305332      -1.21957946
Na      12.25550981       6.52289028      44.18875257       0.04865329       0.05360349       0.00005489      -1.20907688
Na      15.74359836      13.89469155      43.72134073       0.03015760      -0.03767806      -0.01153956      -1.40401793
Na       7.95266591      20.64087918      11.47687457      -0.01780806      -0.02945468       0.02390344      -1.26923561
Na      18.19670131      54.85209200      46.05715043       0.02094639       0.01489549      -0.02420606      -1.20583713
Na       9.41120058      48.94331299      45.77546534       0.03070262       0.06943747      -0.01677530      -1.36267221
Na      47.87428262      17.37987321      56.96728128       0.04307605      -0.10990621       0.09728061      -1.14941108
Na      26.26927359      51.26589119      26.34643390      -0.00235281       0.02336709      -0.05063245      -1.13219237
Na       1.75956362      36.74747319      30.26241793      -0.06298686       0.07219949       0.02160668      -1.28227770
Na      48.61062837      49.46743598      32.60415659      -0.00365983      -0.06045250      -0.05624466      -1.26266837
Na      55.57339033      32.66254801      33.80436917       0.05183235      -0.02498249      -0.00118487      -1.35231209
Na      55.24371786      38.87866116      17.82741464      -0.03938562      -0.00174740       0.00325721      -1.30939126
Na      24.98408806      29.13009376      24.06989806       0.01040045      -0.00722498      -0.01942846      -1.23267519
Na      20.72983694      39.01469709      52.27923122      -0.05200888       0.02367510      -0.00341217      -1.16137624
Na      54.93261895      33.03747560      56.34264493       0.03829610      -0.01932332       0.02267008      -1.26007056
Na      58.67848256      55.43030185      18.00382713       0.05600297      -0.06824724       0.06977969      -1.25874710
Na      39.31588018       4.12842928      23.30978499       0.04610034       0.00818982       0.01244140      -1.28974533
Na       4.84183513      35.49896952      13.16042983      -0.06472041       0.00073618       0.03622022      -1.17976069
Na      14.81675370      32.54602385      15.65908489      -0.07000574      -0.03368352      -0.00028933      -1.20172572
Na      17.23503580       3.24454519      24.54034546       0.03860329       0.01011024       0.10221627      -1.11785543
Na      16.51783815      55.97567025      36.06110758       0.02281186      -0.02499701      -0.00832821      -1.14850044
Na      22.78343750      26.33066055      46.97125903      -0.03202958       0.00309993       0.01784948      -1.27845764
Na      55.47418155      -0.06861507      57.43966836       0.04054160       0.01735898      -0.01854297      -1.30761075
Na      46.08156903      10.25552445      54.79270981      -0.09549955       0.01157707       0.08263591      -1.15354216
Na      23.15904777      16.30617721      20.43222270      -0.05022931       0.02754306      -0.02704041      -1.31728148
Na      28.91296499      44.94545886      40.34691568       0.00634152       0.02909775      -0.01018832      -1.21386230
Na      22.03056163      28.12013942      11.68390505      -0.00009667       0.00926958      -0.04414753      -1.13764167
Na       1.72294715       4.19482212      19.02040317      -0.03401713      -0.01453371      -0.08099749      -1.18394995
Na       4.79236772      30.71080671      46.96759102      -0.02771739       0.04031683       0.11050396      -1.05262339
Na      11.07840997      13.00519925      35.32945922       0.06882911      -0.03583965      -0.03662935      -1.16658831
Cl       4.11986372      32.87719862      34.65465725       0.03342243      -0.01742962      -0.19538911      -4.64189053
Cl      29.08065653      23.95988124      39.00488837      -0.02635641      -0.07384101       0.07197959      -4.74177265
Cl       0.75645891      20.94869259       5.59239887       0.03539972      -0.01320472      -0.02175903      -4.85831738
Cl      36.00273137      40.23359407      54.84218208      -0.02536059       0.02754238      -0.03309538      -4.54522228
Cl       4.11103709      22.76336711      46.21408202       0.01820746       0.06819244       0.01137712      -4.96492958
Cl      15.04639375      16.87367652      38.02168822       0.06327891       0.01054204      -0.02391589      -4.85111570
Cl       1.29631039      40.48434065      15.53528050      -0.01075792       0.00332162       0.00892699      -4.87589073
Cl      29.15117141      16.92092594       4.25808039      -0.01458313      -0.03003655       0.00493127      -4.84151220
Cl      20.04377457      22.10054293       6.66520615      -0.02091559       0.09019190       0.05275312      -4.75690937
Cl      53.94398348      21.18115563      53.76781738      -0.09908234       0.05826921      -0.02589492      -4.55963564
Cl      55.54572360      39.00679024      12.83450199       0.03956825      -0.01114553       0.03180952      -4.97570944
Cl      10.58745866       7.23148508      33.39268197      -0.01692098      -0.03058049      -0.05777733      -4.57716227
Cl      49.66789354      47.91334607      29.21707539      -0.05344305       0.01682497      -0.01334373      -4.72312021
Cl      20.58287714      11.16132593      15.62018076      -0.00932324      -0.01554088      -0.05776903      -5.00194740
Cl      39.58820425      16.75603464      29.19197291      -0.01604197      -0.02558686       0.02068319      -4.85765219
Cl      11.76337776      48.77357339       6.75429111       0.05525970       0.00725149       0.00429887      -4.64363813
Cl      47.37219769      56.20354977      12.45652343      -0.03439577       0.00955697      -0.00942886      -4.94810820
Cl      11.16262576      44.88757295      49.82246171       0.02062446      -0.01775264       0.02786894      -4.78875923
Cl      17.74415601      58.13617558      51.54047186       0.11854604       0.00534301      -0.10387154      -4.64776278
Cl      47.07025342      54.89047405      19.40526427      -0.05857968      -0.09003624      -0.03155620      -4.84191608
Cl      47.23747014      54.14780147      23.08232891      -0.09461492       0.07473535       0.05332159      -4.82332468
Cl      28.77581667      27.75426881      12.16552820       0.01935645       0.00837618      -0.01939205      -4.79641247
Cl      37.09410813      29.24877623       8.05595447      -0.02882539       0.03476027       0.05792694      -4.81339359
Cl      46.65755494      52.02840072      12.84108549      -0.04308872       0.02290415      -0.01253668      -4.92758369
Cl      41.85714159       4.60286968       2.13834391       0.06295294       0.01938643      -0.01610375      -4.87657785
Cl      51.62257777      18.61692319       7.16907849      -0.03180861      -0.02030409       0.04600809      -4.82362747
Cl      36.12204616       8.02239124      13.24645351      -0.00793351      -0.03409702      -0.03109621      -5.00510693
Cl      23.05306255      17.90313120      10.95198829       0.13624239       0.03111640       0.09162547      -4.95990658
Cl      55.63862954       1.76374801      40.06124421       0.02033699      -0.02408325      -0.00952257      -4.75998020
Cl      17.81420016      43.77964701      45.52531945       0.01849254       0.09663859      -0.02080019      -4.67535353
Cl      46.23471945      33.98546240      16.40628822       0.00295547       0.13775545      -0.01384247      -4.80300713
Cl      28.19165124      20.36012414      12.59598293      -0.04540972      -0.04145586       0.01244448      -4.81946421
Cl      51.13156553       6.32401455      17.74372682      -0.02402272      -0.00351106       0.01743198      -4.81551218
Cl      34.20086362       4.97706599      10.75319304       0.01308640      -0.02671968      -0.08996308      -4.66216469
Cl      23.73721565      32.19246124      32.74298199       0.02504653       0.03440979      -0.01548517      -4.83569002
Cl      51.07612998      14.74496562      43.41136121      -0.03850855      -0.01181708      -0.04123822      -4.89428520
Cl      19.30834348      45.30686673      40.04545094       0.01700572      -0.05977414       0.05505672      -4.91935825
Cl       1.85420514      35.01258761      38.22569563       0.01148143       0.00870209      -0.00763223      -4.83961725
Cl      40.88787151      26.69679941       8.43596428      -0.01791600      -0.03923482      -0.01069136      -4.79814911
Cl      57.16459446      13.91099790      15.70889584      -0.02823093       0.02328873       0.00666342      -4.68420601
Cl       9.84917414      49.78203038      43.05891528       0.03204717      -0.02405797       0.02910000      -4.96361732
Cl      29.01408973      13.24729845      34.72176139       0.00995609      -0.03825533       0.04537471      -4.88074636
Cl      38.52670449       9.79190857      45.30117629      -0.02379917      -0.00337381      -0.06114587      -4.73894215
Cl      57.65648422      52.25636445       1.46536574      -0.03644326       0.08659626       0.04950271      -4.85334921
Cl      42.99522861      53.51761399      48.95501668      -0.02562164      -0.02212548       0.06002784      -4.72941399
Cl      21.82620896      54.68752150      20.39879028      -0.06068981       0.06241564      -0.05240557      -4.69973183
Cl      10.02122462      56.95106855      26.54055542       0.00357940      -0.02350601      -0.01635123      -4.84757614
Cl      45.23670697      16.72238544      27.69680583      -0.03206363      -0.01596533       0.02384260      -4.74745226
Cl      25.43645663      56.24734236       3.56168637      -0.03397267       0.05366718      -0.05248046      -4.74267006
Cl       6.89900129      43.69734107      33.05258954       0.02409937       0.00081564       0.03615821      -4.90442133
Na      34.48669428      53.11660844       4.70154318       0.04488206      -0.01534299      -0.01146161      -1.18341982
Na      52.88992785      24.80364430      27.98062657      -0.00570085       0.00921680      -0.03679731      -1.27358603
Na       6.69829164      31.61578602      38.40373587      -0.05274592      -0.01803003       0.07178722      -1.25611722
Na      42.15193400      24.43043451      22.18143465      -0.02632382       0.01433848       0.01783658      -1.03911638
Na       8.82148900      15.44200698      16.48210629      -0.01849126       0.02869105      -0.00273085      -1.16594744
Na      57.45876227      54.71542793      14.39267507      -0.00343428      -0.01881512       0.05290223      -1.22163796
Na      15.43963334       6.98476016      11.12851522       0.07712599      -0.00875605      -0.01173022      -1.18864679
Na      43.50186313      33.95092874      51.54165247       0.06369220       0.02127438      -0.00262302      -1.24549627
Na       6.96501856      37.57211338       1.35125339       0.03503746      -0.01228896      -0.04373860      -1.32131636
Na      19.57906549      57.35831707       0.00513798      -0.01630847      -0.01364002      -0.01715795      -1.16918039
Na      47.44461008      13.74618257      54.10672849       0.03780802      -0.02662260      -0.07024150      -1.10307407
Na      19.07744556      34.61670002      37.11012446       0.08457092      -0.01693342      -0.04401962      -1.22851849
Na      19.72401466      24.74000448      27.67803517       0.00651074      -0.01314325      -0.05082186      -1.25594652
Na       6.12380175      42.48280590      50.06801431      -0.08964278       0.07088689       0.08429230      -1.16376019
Na      42.47934077       6.79273882      18.69389460       0.02695590       0.05512800       0.02226540      -1.38379717
Na      56.17590632      55.48898769      10.95952270       0.00822422      -0.04112404       0.01814616      -1.24673593
Na      52.38951620      50.08513437      20.18173534      -0.01098759      -0.09854300      -0.02999475      -1.30422843
Na      30.10670795      30.16114337       6.46565376      -0.00329406      -0.01597537      -0.00310773      -1.23727381
Na      56.76620700      43.99910717      18.28618659      -0.00926401      -0.02737728      -0.00990991      -1.24766636
Na      51.72618639      46.55632668      13.46788129      -0.00901727      -0.01542829       0.03860150      -1.24622560
Na       2.02960345      37.63408850      36.06245440       0.03741973      -0.08309461       0.06305300      -1.21957958
Na      12.25551004       6.52288993       0.29315057       0.04865037       0.05360159       0.00004636      -1.20907676
Na      15.74359826      13.89469168      58.35320828       0.03015676      -0.03767814      -0.01153669      -1.40401840
Na       7.95266584      20.64087919      26.10874155      -0.01780780      -0.02945447       0.02390320      -1.26923573
Na      18.19670114      54.85209208       2.16154883       0.02094408       0.01489612      -0.02420023      -1.20583725
Na       9.41120063      48.94331293       1.87986374       0.03070175       0.06943642      -0.01677281      -1.36267281
Na      47.87428265      17.37987334      13.07168026       0.04307703      -0.10990703       0.09727802      -1.14941144
Na      26.26927338      51.26589138      40.97830111      -0.00235388       0.02336291      -0.05063649      -1.13219213
Na       1.75956363      36.74747323      44.89428504      -0.06298741       0.07220115       0.02160884      -1.28227854
Na      48.61062839      49.46743613      47.23602366      -0.00366057      -0.06045425      -0.05624574      -1.26266873
Na      55.57339040      32.66254812      48.43623592       0.05183133      -0.02498340      -0.00118466      -1.35231233
Na      55.24371788      38.87866131      32.45928169      -0.03938577      -0.00174845       0.00325928      -1.30939126
Na      24.98408795      29.13009379      38.70176489       0.01040137      -0.00722301      -0.01942250      -1.23267508
Na      20.72983697      39.01469704       8.38363027      -0.05200977       0.02367520      -0.00341153      -1.16137671
Na      54.93261900      33.03747563      12.44704342       0.03829635      -0.01932449       0.02266666      -1.26007044
Na      58.67848247      55.43030192      32.63569410       0.05600148      -0.06824900       0.06978484      -1.25874734
Na      39.31588025       4.12842919      37.94165189       0.04609965       0.00819057       0.01244486      -1.28974533
Na       4.84183513      35.49896950      27.79229674      -0.06471972       0.00073451       0.03621803      -1.17976046
Na      14.81675368      32.54602391      30.29095192      -0.07000618      -0.03368333      -0.00028846      -1.20172608
Na      17.23503562       3.24454520      39.17221231       0.03860464       0.01010967       0.10221902      -1.11785471
Na      16.51783821      55.97567026      50.69297494       0.02281198      -0.02499619      -0.00832691      -1.14849973
Na      22.78343773      26.33066044       3.07565735      -0.03203002       0.00309981       0.01785092      -1.27845681
Na      55.47418180      -0.06861500      13.54406671       0.04054181       0.01735804      -0.01854527      -1.30761027
Na      46.08156880      10.25552454      10.89710855      -0.09549997       0.01157831       0.08263781      -1.15354156
Na      23.15904773      16.30617740      35.06408941      -0.05022880       0.02754288      -0.02704460      -1.31728125
Na      28.91296509      44.94545881      54.97878321       0.00634151       0.02909769      -0.01018886      -1.21386194
Na      22.03056162      28.12013944      26.31577201      -0.00009681       0.00926914      -0.04414872      -1.13764191
Na       1.72294707       4.19482207      33.65226998      -0.03401694      -0.01453208      -0.08100189      -1.18395030
Na       4.79236728      30.71080626       3.07199005      -0.02771735       0.04031668       0.11050417      -1.05262351
Na      11.07841002      13.00519908      49.96132672       0.06882820      -0.03583980      -0.03662848      -1.16658902
Cl       4.11986365      32.87719858      49.28652426       0.03341962      -0.01742856      -0.19539262      -4.64188957
Cl      29.08065671      23.95988127      53.63675554      -0.02635892      -0.07383953       0.07197465      -4.74177265
Cl       0.75645896      20.94869264      20.22426602       0.03539994      -0.01320497      -0.02175791      -4.85831738
Cl      36.00273164      40.23359402      10.94658087      -0.02536158       0.02754361      -0.03309478      -4.54522324
Cl       4.11103698      22.76336718       2.31848114       0.01820788       0.06819264       0.01137444      -4.96492958
Cl      15.04639368      16.87367652      52.65355569       0.06327661       0.01053980      -0.02392696      -4.85111618
Cl       1.29631048      40.48434070      30.16714765      -0.01075971       0.00332107       0.00892252      -4.87589169
Cl      29.15117147      16.92092571      18.88994768      -0.01458398      -0.03003637       0.00493128      -4.84151268
Cl      20.04377450      22.10054284      21.29707324      -0.02091568       0.09019157       0.05275322      -4.75690937
Cl      53.94398310      21.18115561       9.87221599      -0.09908331       0.05827029      -0.02589279      -4.55963373
Cl      55.54572372      39.00679040      27.46636908       0.03956901      -0.01114715       0.03180981      -4.97571039
Cl      10.58745870       7.23148505      48.02454912      -0.01692152      -0.03058093      -0.05777648      -4.57716227
Cl      49.66789323      47.91334615      43.84894222      -0.05344114       0.01682757      -0.01334437      -4.72311926
Cl      20.58287708      11.16132598      30.25204780      -0.00932215      -0.01554153      -0.05776875      -5.00194788
Cl      39.58820421      16.75603457      43.82384033      -0.01604176      -0.02558632       0.02067843      -4.85765076
Cl      11.76337782      48.77357356      21.38615817       0.05526065       0.00725292       0.00430019      -4.64364004
Cl      47.37219764      56.20354975      27.08839041      -0.03439613       0.00955588      -0.00942600      -4.94810820
Cl      11.16262579      44.88757312       5.92686052       0.02062344      -0.01775162       0.02786617      -4.78875828
Cl      17.74415600      58.13617566       7.64487073       0.11854557       0.00534254      -0.10387567      -4.64776230
Cl      47.07025320      54.89047401      34.03713127      -0.05857074      -0.09004163      -0.03156638      -4.84191513
Cl      47.23746992      54.14780152      37.71419614      -0.09461401       0.07473485       0.05332628      -4.82332468
Cl      28.77581665      27.75426888      26.79739505       0.01935588       0.00837477      -0.01939229      -4.79641294
Cl      37.09410819      29.24877625      22.68782158      -0.02882596       0.03476061       0.05792629      -4.81339359
Cl      46.65755497      52.02840071      27.47295249      -0.04308908       0.02290402      -0.01253570      -4.92758417
Cl      41.85714178       4.60286971      16.77021140       0.06295232       0.01938745      -0.01610593      -4.87657738
Cl      51.62257772      18.61692310      21.80094569      -0.03180806      -0.02030331       0.04600936      -4.82362747
Cl      36.12204613       8.02239133      27.87832053      -0.00793359      -0.03409741      -0.03109580      -5.00510693
Cl      23.05306265      17.90313124      25.58385511       0.13624167       0.03111667       0.09162828      -4.95990705
Cl      55.63862935       1.76374800      54.69311137       0.02033443      -0.02408302      -0.00952275      -4.75997925
Cl      17.81420029      43.77964693       1.62971776       0.01849085       0.09663834      -0.02080074      -4.67535257
Cl      46.23471951      33.98546234      31.03815513       0.00295629       0.13775523      -0.01383999      -4.80300713
Cl      28.19165116      20.36012413      27.22784985      -0.04540829      -0.04145418       0.01244450      -4.81946421
Cl      51.13156526       6.32401461      32.37559382      -0.02402322      -0.00351048       0.01742771      -4.81551218
Cl      34.20086353       4.97706606      25.38506010       0.01308677      -0.02671943      -0.08996134      -4.66216516
Cl      23.73721564      32.19246137      47.37484864       0.02504593       0.03440950      -0.01548223      -4.83569002
Cl      51.07613003      14.74496559      58.04322899      -0.03850999      -0.01181957      -0.04123692      -4.89428568
Cl      19.30834330      45.30686677      54.67731766       0.01700595      -0.05977456       0.05505728      -4.91936016
Cl       1.85420515      35.01258755      52.85756260       0.01147966       0.00870113      -0.00763148      -4.83961678
Cl      40.88787150      26.69679945      23.06783122      -0.01791591      -0.03923486      -0.01068982      -4.79814863
Cl      57.16459440      13.91099792      30.34076277      -0.02823049       0.02328944       0.00666383      -4.68420649
Cl       9.84917411      49.78203048      57.69078293       0.03204641      -0.02405808       0.02909752      -4.96361542
Cl      29.01408966      13.24729842      49.35362828       0.00995464      -0.03825684       0.04536834      -4.88074589
Cl      38.52670460       9.79190867       1.40557486      -0.02379668      -0.00337349      -0.06114050      -4.73894405
Cl      57.65648412      52.25636479      16.09723334      -0.03644276       0.08659505       0.04950387      -4.85334969
Cl      42.99522846      53.51761386       5.05941583      -0.02562089      -0.02212286       0.06002754      -4.72941303
Cl      21.82620899      54.68752144      35.03065727      -0.06068871       0.06241597      -0.05240512      -4.69973183
Cl      10.02122462      56.95106861      41.17242252       0.00357884      -0.02350499      -0.01635476      -4.84757566
Cl      45.23670698      16.72238539      42.32867286      -0.03206476      -0.01596554       0.02383991      -4.74745321
Cl      25.43645671      56.24734267      18.19355347      -0.03397342       0.05366670      -0.05248247      -4.74266911
Cl       6.89900129      43.69734102      47.68445652       0.02409962       0.00081465       0.03616159      -4.90442085
Na      49.11856144       9.22100726      19.33341013       0.04488419      -0.01534360      -0.01146198      -1.18341959
Na       8.99432654      39.43551136      42.61249326      -0.00570412       0.00921730      -0.03678942      -1.27358627
Na      21.33015867      46.24765290      53.03560332      -0.05274327      -0.01803179       0.07179004      -1.25611711
Na      56.78380197      39.06230192      36.81330126      -0.02632373       0.01433567       0.01783999      -1.03911698
Na      23.45335601      30.07387384      31.11397327      -0.01849024       0.02869337      -0.00272975      -1.16594791
Na      13.56316114      10.81982684      29.02454195      -0.00343321      -0.01881316       0.05290156      -1.22163761
Na      30.07150038      21.61662715      25.76038238       0.07712503      -0.00875620      -0.01172976      -1.18864620
Na      58.13373076      48.58279564       7.64605124       0.06369090       0.02127355      -0.00262134      -1.24549651
Na      21.59688587      52.20398004      15.98312124       0.03504080      -0.01228549      -0.04374032      -1.32131624
Na      34.21093229      13.46271566      14.63700538      -0.01631508      -0.01363738      -0.01715546      -1.16918087
Na       3.54900892      28.37804956      10.21112663       0.03780825      -0.02662570      -0.07023823      -1.10307384
Na      33.70931246      49.24856678      51.74199192       0.08457074      -0.01692973      -0.04402450      -1.22851729
Na      34.35588149      39.37187162      42.30990209       0.00651518      -0.01314779      -0.05081757      -1.25594664
Na      20.75566956      57.11467347       6.17241302      -0.08964427       0.07089379       0.08429582      -1.16375947
Na      57.11120790      21.42460596      33.32576166       0.02695834       0.05512571       0.02226853      -1.38379776
Na      12.28030480      11.59338589      25.59138957       0.00822699      -0.04112272       0.01814686      -1.24673605
Na       8.49391532       6.18953318      34.81360261      -0.01099064      -0.09854480      -0.02999221      -1.30422831
Na      44.73857541      44.79301037      21.09752069      -0.00329323      -0.01597614      -0.00310772      -1.23727417
Na      12.87060567       0.10350566      32.91805296      -0.00926210      -0.02737814      -0.00991128      -1.24766612
Na       7.83058511       2.66072505      28.09974805      -0.00901689      -0.01542102       0.03859785      -1.24622595
Na      16.66147032      52.26595560      50.69432059       0.03741875      -0.08310003       0.06305002      -1.21957874
Na      26.88737685      21.15475747      14.92501839       0.04864885       0.05360407       0.00004508      -1.20907593
Na      30.37546530      28.52655862      14.45760647       0.03015785      -0.03767676      -0.01153952      -1.40401816
Na      22.58453280      35.27274601      40.74060868      -0.01780681      -0.02945570       0.02390344      -1.26923585
Na      32.82856842      10.95649100      16.79341648       0.02094773       0.01489820      -0.02420349      -1.20583689
Na      24.04306748       5.04771151      16.51173132       0.03070109       0.06943697      -0.01677350      -1.36267233
Na       3.97868164      32.01174045      27.70354717       0.04307926      -0.10990599       0.09727982      -1.14941132
Na      40.90114028       7.37028980      55.61016854      -0.00235665       0.02337200      -0.05063048      -1.13219166
Na      16.39143138      51.37933985       0.99868352      -0.06298761       0.07220034       0.02160614      -1.28227735
Na       4.71502716       5.57183525       3.34042290      -0.00365235      -0.06044754      -0.05624656      -1.26266897
Na      11.67778944      47.29441529       4.54063482       0.05183284      -0.02498227      -0.00117979      -1.35231185
Na      11.34811661      53.51052869      47.09114860      -0.03938713      -0.00174681       0.00325740      -1.30939198
Na      39.61595490      43.76196068      53.33363227       0.01040204      -0.00722445      -0.01942782      -1.23267472
Na      35.36170384      53.64656417      23.01549730      -0.05200687       0.02367615      -0.00340991      -1.16137624
Na      11.03701778      47.66934251      27.07891056       0.03829405      -0.01932351       0.02266534      -1.26006961
Na      14.78288177      11.53470014      47.26756104       0.05600417      -0.06824513       0.06977925      -1.25874758
Na      53.94774784      18.76029655      52.57351908       0.04610447       0.00819449       0.01243610      -1.28974473
Na      19.47370235      50.13083645      42.42416348      -0.06471941       0.00073456       0.03621998      -1.17976058
Na      29.44862072      47.17789118      44.92281896      -0.07000468      -0.03368419      -0.00028772      -1.20172620
Na      31.86690300      17.87641228      53.80407938       0.03860341       0.01011115       0.10221727      -1.11785531
Na      31.14970523      12.08006850       6.79737322       0.02280872      -0.02499687      -0.00832610      -1.14850044
Na      37.41530449      40.96252721      17.70752484      -0.03203176       0.00309582       0.01785015      -1.27845693
Na      11.57858043      14.56325273      28.17593337       0.04054321       0.01735786      -0.01854600      -1.30761003
Na       2.18596778      24.88739123      25.52897551      -0.09549705       0.01157588       0.08263402      -1.15354180
Na      37.79091492      30.93804437      49.69595673      -0.05022860       0.02754673      -0.02704579      -1.31728089
Na      43.54483253       1.04985715      11.08318166       0.00633905       0.02909762      -0.01019189      -1.21386290
Na      36.66242841      42.75200664      40.94763921      -0.00010001       0.00927024      -0.04414744      -1.13764131
Na      16.35481489      18.82668961      48.28413699      -0.03401276      -0.01453383      -0.08100025      -1.18395078
Na      19.42423493      45.34267408      17.70385722      -0.02771681       0.04031576       0.11050294      -1.05262434
Na      25.71027705      27.63706624       6.06572527       0.06882812      -0.03583843      -0.03662875      -1.16658902
Cl      18.75173099      47.50906546       5.39092321       0.03341904      -0.01742736      -0.19539268      -4.64189100
Cl      43.71252354      38.59174819       9.74115444      -0.02636101      -0.07383826       0.07197529      -4.74177074
Cl      15.38832686      35.58055943      34.85613295       0.03539918      -0.01320219      -0.02175416      -4.85831642
Cl      50.63459900      54.86546146      25.57844814      -0.02536347       0.02753594      -0.03309452      -4.54522324
Cl      18.74290428      37.39523381      16.95034806       0.01820818       0.06819392       0.01137494      -4.96492815
Cl      29.67826096      31.50554390       8.75795451       0.06327740       0.01053798      -0.02392580      -4.85111523
Cl      15.92817785      55.11620854      44.79901466      -0.01075556       0.00332367       0.00892602      -4.87588835
Cl      43.78303862      31.55279324      33.52181451      -0.01458457      -0.03003820       0.00493262      -4.84151220
Cl      34.67564124      36.73240988      35.92894052      -0.02091800       0.09018512       0.05275872      -4.75690842
Cl      10.04838201      35.81302262      24.50408321      -0.09907747       0.05827562      -0.02589381      -4.55963373
Cl      11.65012200      53.63865796      42.09823579       0.03956972      -0.01114604       0.03180903      -4.97570992
Cl      25.21932566      21.86335213       4.12894791      -0.01692274      -0.03057905      -0.05777903      -4.57716322
Cl       5.77229244       4.01774465      -0.04666076      -0.05344542       0.01682342      -0.01334486      -4.72311878
Cl      35.21474437      25.79319286      44.88391477      -0.00932958      -0.01553595      -0.05776726      -5.00194502
Cl      54.22007105      31.38790146      -0.07176194      -0.01604290      -0.02558756       0.02068044      -4.85764933
Cl      26.39524476       4.87797212      36.01802492       0.05525999       0.00725133       0.00430013      -4.64363813
Cl       3.47659581      12.30794823      41.72025730      -0.03439871       0.00955178      -0.00942589      -4.94810963
Cl      25.79449283       0.99197117      20.55872705       0.02062770      -0.01774511       0.02786569      -4.78875923
Cl      32.37602390      14.24057440      22.27673763       0.11854984       0.00534567      -0.10387076      -4.64776230
Cl       3.17465196      10.99487261      48.66899828      -0.05857271      -0.09004261      -0.03156433      -4.84191561
Cl       3.34186891      10.25220057      52.34606309      -0.09461822       0.07473277       0.05332700      -4.82332516
Cl      43.40768374      42.38613612      41.42926220       0.01935358       0.00837538      -0.01939560      -4.79641247
Cl      51.72597547      43.88064309      37.31968894      -0.02882612       0.03476186       0.05792307      -4.81339264
Cl       2.76195356       8.13279964      42.10481942      -0.04309105       0.02290253      -0.01253866      -4.92758274
Cl      56.48900967      19.23473651      31.40207834       0.06295320       0.01938353      -0.01610618      -4.87657738
Cl       7.72697644      33.24879007      36.43281276      -0.03180905      -0.02030799       0.04601037      -4.82362795
Cl      50.75391289      22.65425831      42.51018741      -0.00793270      -0.03409790      -0.03109771      -5.00510693
Cl      37.68492943      32.53499849      40.21572240       0.13624230       0.03111142       0.09163047      -4.95990610
Cl      11.74302796      16.39561522      10.79751019       0.02033542      -0.02408115      -0.00952306      -4.75997925
Cl      32.44606752      58.41151494      16.26158559       0.01848805       0.09664012      -0.02079886      -4.67535543
Cl       2.33911763      48.61732937      45.67002214       0.00295305       0.13775702      -0.01384186      -4.80300713
Cl      42.82351853      34.99199105      41.85971689      -0.04540554      -0.04145738       0.01244136      -4.81946468
Cl       7.23596410      20.95588149      47.00746084      -0.02402424      -0.00351068       0.01743067      -4.81551170
Cl      48.83273059      19.60893287      40.01692728       0.01308601      -0.02671576      -0.08996106      -4.66216516
Cl      38.36908267      46.82432821       3.47924721       0.02504840       0.03441308      -0.01548811      -4.83569145
Cl       7.18052921      29.37683268      14.14762714      -0.03851122      -0.01182090      -0.04123653      -4.89428616
Cl      33.94020964       1.41126539      10.78171605       0.01700608      -0.05977782       0.05505724      -4.91935968
Cl      16.48607238      49.64445494       8.96196153       0.01148076       0.00870156      -0.00763131      -4.83961582
Cl      55.51973864      41.32866626      37.69969847      -0.01791693      -0.03923132      -0.01069399      -4.79815054
Cl      13.26899273      28.54286528      44.97262965      -0.02823167       0.02328904       0.00666256      -4.68420458
Cl      24.48104126       5.88642904      13.79518110       0.03204698      -0.02405592       0.02909889      -4.96361732
Cl      43.64595697      27.87916566       5.45802695       0.00995245      -0.03825717       0.04537071      -4.88074827
Cl      53.15857165      24.42377558      16.03744269      -0.02380738      -0.00337487      -0.06114392      -4.73894310
Cl      13.76088196       8.36076380      30.72910063      -0.03644831       0.08658873       0.04950251      -4.85335064
Cl      57.62709515       9.62201275      19.69128231      -0.02562322      -0.02212920       0.06002903      -4.72941446
Cl      36.45807634      10.79192015      49.66252430      -0.06069054       0.06242039      -0.05240518      -4.69973040
Cl      24.65309128      13.05546744      55.80428987       0.00357866      -0.02350545      -0.01635218      -4.84757614
Cl       1.34110529      31.35425230      56.96054084      -0.03206497      -0.01596766       0.02384070      -4.74745369
Cl      40.06832325      12.35174199      32.82541987      -0.03397504       0.05366370      -0.05248211      -4.74267101
Cl      21.53086856      58.32920855       3.78885494       0.02409744       0.00081552       0.03615766      -4.90442038
Na      49.11856144       9.22100708      33.96527723       0.04488290      -0.01534386      -0.01146374      -1.18341994
Na       8.99432677      39.43551108      57.24436159      -0.00570291       0.00921708      -0.03679494      -1.27358580
Na      21.33015875      46.24765298       9.14000187      -0.05274398      -0.01803385       0.07178541      -1.25611734
Na      56.78380195      39.06230195      51.44516851      -0.02632370       0.01433712       0.01784157      -1.03911674
Na      23.45335615      30.07387394      45.74584022      -0.01849078       0.02869283      -0.00273137      -1.16594887
Na      13.56316084      10.81982683      43.65640863      -0.00343419      -0.01881409       0.05290103      -1.22163785
Na      30.07150033      21.61662711      40.39224920       0.07712547      -0.00875656      -0.01172958      -1.18864596
Na      58.13373076      48.58279568      22.27791818       0.06369080       0.02127315      -0.00262106      -1.24549651
Na      21.59688590      52.20398010      30.61498821       0.03504093      -0.01228596      -0.04373974      -1.32131624
Na      34.21093244      13.46271562      29.26887242      -0.01631406      -0.01363674      -0.01715733      -1.16918027
Na       3.54900899      28.37804960      24.84299365       0.03780857      -0.02662556      -0.07023843      -1.10307384
Na      33.70931248      49.24856661       7.84639083       0.08457042      -0.01693213      -0.04402245      -1.22851706
Na      34.35588151      39.37187175      56.94176957       0.00651491      -0.01314746      -0.05081860      -1.25594687
Na      20.75566940      57.11467341      20.80428015      -0.08964423       0.07089376       0.08429727      -1.16375971
Na      57.11120792      21.42460583      47.95762873       0.02695366       0.05512548       0.02226450      -1.38379765
Na      12.28030472      11.59338581      40.22325661       0.00822770      -0.04112406       0.01814945      -1.24673581
Na       8.49391528       6.18953312      49.44546945      -0.01099164      -0.09854454      -0.02999216      -1.30422807
Na      44.73857525      44.79301064      35.72938780      -0.00329375      -0.01597693      -0.00310851      -1.23727393
Na      12.87060573       0.10350567      47.54992000      -0.00926344      -0.02737757      -0.00991181      -1.24766636
Na       7.83058515       2.66072511      42.73161501      -0.00901757      -0.01542321       0.03860471      -1.24622655
Na      16.66147032      52.26595559       6.79871958       0.03741954      -0.08309974       0.06305073      -1.21957898
Na      26.88737693      21.15475752      29.55688541       0.04864762       0.05360075       0.00004698      -1.20907593
Na      30.37546531      28.52655867      29.08947345       0.03015764      -0.03767617      -0.01154032      -1.40401804
Na      22.58453297      35.27274583      55.37247607      -0.01781230      -0.02945715       0.02390687      -1.26923549
Na      32.82856854      10.95649101      31.42528354       0.02094622       0.01489704      -0.02419920      -1.20583642
Na      24.04306740       5.04771150      31.14359838       0.03070034       0.06943749      -0.01677233      -1.36267257
Na       3.97868176      32.01174029      42.33541414       0.04307634      -0.10990745       0.09727891      -1.14941168
Na      40.90114059       7.37028972      11.71456692      -0.00235653       0.02337128      -0.05063348      -1.13219237
Na      16.39143118      51.37933996      15.63055064      -0.06298915       0.07220160       0.02160632      -1.28227735
Na       4.71502716       5.57183502      17.97228971      -0.00365238      -0.06044740      -0.05624615      -1.26266897
Na      11.67778934      47.29441538      19.17250190       0.05183179      -0.02498379      -0.00118198      -1.35231113
Na      11.34811669      53.51052865       3.19554703      -0.03938871      -0.00174754       0.00325842      -1.30939138
Na      39.61595497      43.76196079       9.43803095       0.01040151      -0.00722240      -0.01942749      -1.23267484
Na      35.36170382      53.64656412      37.64736418      -0.05200639       0.02367742      -0.00341143      -1.16137552
Na      11.03701777      47.66934252      41.71077742       0.03829254      -0.01932368       0.02266914      -1.26006961
Na      14.78288170      11.53470014       3.37195971       0.05600337      -0.06824464       0.06978117      -1.25874805
Na      53.94774789      18.76029647       8.67791783       0.04610443       0.00819401       0.01244248      -1.28974557
Na      19.47370224      50.13083684      57.05603070      -0.06471863       0.00073456       0.03621993      -1.17976069
Na      29.44862086      47.17789054       1.02721767      -0.07000801      -0.03368526      -0.00028875      -1.20172596
Na      31.86690272      17.87641242       9.90847841       0.03860172       0.01010820       0.10221794      -1.11785543
Na      31.14970528      12.08006855      21.42924065       0.02280910      -0.02499745      -0.00832770      -1.14850056
Na      37.41530470      40.96252711      32.33939154      -0.03203132       0.00309554       0.01785205      -1.27845669
Na      11.57858036      14.56325255      42.80780025       0.04054425       0.01735969      -0.01854347      -1.30761075
Na       2.18596787      24.88739128      40.16084232      -0.09549773       0.01157619       0.08263521      -1.15354133
Na      37.79091504      30.93804449       5.80035537      -0.05022950       0.02754624      -0.02704366      -1.31728077
Na      43.54483248       1.04985717      25.71504879       0.00633951       0.02909900      -0.01019423      -1.21386254
Na      36.66242848      42.75200645      55.57950669      -0.00010115       0.00926914      -0.04414738      -1.13764095
Na      16.35481476      18.82668948       4.38853602      -0.03401426      -0.01453215      -0.08099741      -1.18394995
Na      19.42423492      45.34267406      32.33572421      -0.02771676       0.04031571       0.11050249      -1.05262363
Na      25.71027703      27.63706628      20.69759238       0.06882828      -0.03583786      -0.03662523      -1.16658878
Cl      18.75173109      47.50906539      20.02279020       0.03341813      -0.01742733      -0.19539383      -4.64189005
Cl      43.71252363      38.59174819      24.37302146      -0.02636169      -0.07383766       0.07197667      -4.74177170
Cl      15.38832707      35.58055936      49.48800034       0.03540039      -0.01320231      -0.02175123      -4.85831785
Cl      50.63459892      54.86546143      40.21031519      -0.02536204       0.02753510      -0.03309608      -4.54522514
Cl      18.74290431      37.39523379      31.58221507       0.01820789       0.06819529       0.01137511      -4.96492815
Cl      29.67826087      31.50554378      23.38982165       0.06327730       0.01053795      -0.02392525      -4.85111475
Cl      15.92817762      55.11620881       0.90341322      -0.01075825       0.00332151       0.00892543      -4.87588882
Cl      43.78303879      31.55279320      48.15368160      -0.01458470      -0.03003948       0.00493269      -4.84151030
Cl      34.67564128      36.73240979      50.56080744      -0.02091749       0.09018292       0.05276106      -4.75690746
Cl      10.04838213      35.81302265      39.13594998      -0.09907477       0.05827835      -0.02588626      -4.55963278
Cl      11.65012207      53.63865817      56.73010330       0.03956855      -0.01114647       0.03181261      -4.97570992
Cl      25.21932572      21.86335210      18.76081496      -0.01692256      -0.03057990      -0.05777792      -4.57716322
Cl       5.77229240       4.01774424      14.58520810      -0.05344574       0.01682267      -0.01334413      -4.72311878
Cl      35.21474420      25.79319269       0.98831331      -0.00932860      -0.01553712      -0.05776822      -5.00194597
Cl      54.22007093      31.38790125      14.56010601      -0.01604377      -0.02558737       0.02068099      -4.85764980
Cl      26.39524483       4.87797230      50.64989216       0.05525782       0.00725286       0.00430844      -4.64363909
Cl       3.47659608      12.30794838      56.35212507      -0.03439815       0.00955457      -0.00942493      -4.94810820
Cl      25.79449286       0.99197122      35.19059399       0.02062468      -0.01774545       0.02786810      -4.78875971
Cl      32.37602394      14.24057435      36.90860472       0.11855035       0.00534838      -0.10386916      -4.64776278
Cl       3.17465188      10.99487287       4.77339732      -0.05857261      -0.09004183      -0.03156562      -4.84191465
Cl       3.34186873      10.25220054       8.45046192      -0.09461673       0.07473414       0.05332398      -4.82332516
Cl      43.40768368      42.38613630      56.06113004       0.01935344       0.00837715      -0.01939443      -4.79641247
Cl      51.72597552      43.88064319      51.95155554      -0.02882669       0.03476232       0.05792569      -4.81339312
Cl       2.76195366       8.13279983      56.73668679      -0.04308936       0.02290310      -0.01253850      -4.92758179
Cl      56.48900974      19.23473654      46.03394523       0.06295538       0.01938525      -0.01610931      -4.87657547
Cl       7.72697652      33.24879015      51.06467978      -0.03180689      -0.02030762       0.04601372      -4.82362700
Cl      50.75391320      22.65425871      57.14205557      -0.00793064      -0.03409494      -0.03109764      -5.00510740
Cl      37.68492924      32.53499852      54.84758976       0.13624039       0.03111180       0.09161860      -4.95990658
Cl      11.74302789      16.39561516      25.42937704       0.02033656      -0.02407912      -0.00952065      -4.75997925
Cl      32.44606750      58.41151495      30.89345263       0.01848902       0.09664032      -0.02079665      -4.67535591
Cl       2.33911790      48.61732921       1.77442123       0.00295265       0.13775651      -0.01384471      -4.80300713
Cl      42.82351842      34.99199112      56.49158410      -0.04540951      -0.04145753       0.01244559      -4.81946421
Cl       7.23596413      20.95588167       3.11185905      -0.02402272      -0.00351065       0.01743176      -4.81551123
Cl      48.83273058      19.60893305      54.64879392       0.01308848      -0.02671756      -0.08996104      -4.66216612
Cl      38.36908249      46.82432847      18.11111470       0.02504857       0.03441299      -0.01548911      -4.83569145
Cl       7.18052921      29.37683267      28.77949415      -0.03851160      -0.01182156      -0.04123518      -4.89428616
Cl      33.94020968       1.41126542      25.41358301       0.01700619      -0.05977796       0.05505732      -4.91936016
Cl      16.48607240      49.64445487      23.59382867       0.01148009       0.00870163      -0.00763061      -4.83961582
Cl      55.51973863      41.32866638      52.33156568      -0.01791649      -0.03923397      -0.01068777      -4.79814816
Cl      13.26899266      28.54286541       1.07702836      -0.02823152       0.02329021       0.00665950      -4.68420172
Cl      24.48104134       5.88642903      28.42704804       0.03204650      -0.02405532       0.02910019      -4.96361780
Cl      43.64595694      27.87916547      20.08989442       0.00995410      -0.03825950       0.04536918      -4.88074636
Cl      53.15857170      24.42377556      30.66930975      -0.02380785      -0.00337468      -0.06114316      -4.73894358
Cl      13.76088193       8.36076365      45.36096768      -0.03644907       0.08658810       0.04949901      -4.85334921
Cl      57.62709511       9.62201278      34.32314943      -0.02562283      -0.02212755       0.06002431      -4.72941351
Cl      36.45807638      10.79192017       5.76692303      -0.06068984       0.06241996      -0.05240506      -4.69973040
Cl      24.65309127      13.05546728      11.90868833       0.00357970      -0.02350616      -0.01635125      -4.84757566
Cl       1.34110528      31.35425236      13.06493884      -0.03206447      -0.01596622       0.02384093      -4.74745369
Cl      40.06832322      12.35174206      47.45728693      -0.03397520       0.05366363      -0.05248231      -4.74267101
Cl      21.53086856      58.32920861      18.42072240       0.02409787       0.00081660       0.03615652      -4.90442085
Na      49.11856150       9.22100711      48.59714412       0.04487955      -0.01534259      -0.01146342      -1.18341947
Na       8.99432651      39.43551134      13.34875950      -0.00570306       0.00921746      -0.03679492      -1.27358580
Na      21.33015866      46.24765302      23.77186914      -0.05274427      -0.01803368       0.07178421      -1.25611758
Na      56.78380200      39.06230187       7.54956701      -0.02632335       0.01433707       0.01783718      -1.03911662
Na      23.45335581      30.07387439       1.85023861      -0.01849015       0.02869421      -0.00272886      -1.16594803
Na      13.56316116      10.81982668      58.28827668      -0.00343328      -0.01881359       0.05290084      -1.22163808
Na      30.07150024      21.61662726      55.02411684       0.07712419      -0.00875619      -0.01172855      -1.18864632
Na      58.13373060      48.58279555      36.90978528       0.06368963       0.02127532      -0.00262225      -1.24549615
Na      21.59688590      52.20398016      45.24685530       0.03504058      -0.01228514      -0.04374217      -1.32131648
Na      34.21093235      13.46271559      43.90073948      -0.01631678      -0.01363693      -0.01715380      -1.16918099
Na       3.54900891      28.37804943      39.47486065       0.03780880      -0.02662310      -0.07024251      -1.10307384
Na      33.70931243      49.24856672      22.47825778       0.08457071      -0.01693308      -0.04402316      -1.22851717
Na      34.35588155      39.37187168      13.04616814       0.00651511      -0.01314754      -0.05081968      -1.25594640
Na      20.75566949      57.11467343      35.43614719      -0.08964530       0.07089343       0.08429717      -1.16375899
Na      57.11120795      21.42460592       4.06202737       0.02695708       0.05512642       0.02226834      -1.38379753
Na      12.28030484      11.59338586      54.85512406       0.00822644      -0.04112155       0.01813822      -1.24673605
Na       8.49391528       6.18953309       5.54986832      -0.01099201      -0.09854505      -0.02999292      -1.30422783
Na      44.73857536      44.79301063      50.36125510      -0.00329332      -0.01597635      -0.00310874      -1.23727417
Na      12.87060570       0.10350553       3.65431874      -0.00926248      -0.02737831      -0.00991235      -1.24766588
Na       7.83058524       2.66072515      57.36348268      -0.00901809      -0.01542190       0.03860230      -1.24622631
Na      16.66147036      52.26595564      21.43058659       0.03742006      -0.08309908       0.06305109      -1.21957898
Na      26.88737694      21.15475744      44.18875255       0.04864811       0.05360129       0.00005190      -1.20907640
Na      30.37546533      28.52655862      43.72134067       0.03015729      -0.03767599      -0.01153980      -1.40401816
Na      22.58453288      35.27274607      11.47687457      -0.01780961      -0.02945637       0.02390446      -1.26923585
Na      32.82856838      10.95649105      46.05715051       0.02094863       0.01489844      -0.02420435      -1.20583677
Na      24.04306760       5.04771142      45.77546536       0.03070174       0.06943883      -0.01677537      -1.36267281
Na       3.97868167      32.01174040      56.96728147       0.04307849      -0.10990648       0.09727988      -1.14941072
Na      40.90114054       7.37028968      26.34643389      -0.00235529       0.02337222      -0.05063219      -1.13219213
Na      16.39143110      51.37933994      30.26241766      -0.06298867       0.07220266       0.02160625      -1.28227735
Na       4.71502716       5.57183505      32.60415668      -0.00365233      -0.06044758      -0.05624727      -1.26266956
Na      11.67778922      47.29441528      33.80436902       0.05183195      -0.02498466      -0.00118455      -1.35231161
Na      11.34811671      53.51052884      17.82741451      -0.03938760      -0.00174743       0.00325859      -1.30939150
Na      39.61595495      43.76196082      24.06989812       0.01040069      -0.00722394      -0.01942983      -1.23267496
Na      35.36170386      53.64656418      52.27923124      -0.05200703       0.02367576      -0.00341087      -1.16137600
Na      11.03701784      47.66934241      56.34264487       0.03829245      -0.01932096       0.02267176      -1.26007009
Na      14.78288170      11.53470014      18.00382699       0.05600264      -0.06824458       0.06978282      -1.25874805
Na      53.94774782      18.76029652      23.30978498       0.04610545       0.00819291       0.01243821      -1.28974521
Na      19.47370229      50.13083660      13.16042979      -0.06471959       0.00073476       0.03621966      -1.17976058
Na      29.44862073      47.17789121      15.65908489      -0.07000500      -0.03368453      -0.00028787      -1.20172548
Na      31.86690287      17.87641242      24.54034548       0.03860113       0.01010722       0.10221603      -1.11785567
Na      31.14970530      12.08006856      36.06110734       0.02280455      -0.02499754      -0.00832729      -1.14850044
Na      37.41530463      40.96252729      46.97125896      -0.03203142       0.00309605       0.01784983      -1.27845716
Na      11.57858017      14.56325267      57.43966791       0.04054452       0.01736050      -0.01854201      -1.30761099
Na       2.18596806      24.88739123      54.79270970      -0.09549746       0.01157565       0.08263621      -1.15354180
Na      37.79091491      30.93804437      20.43222272      -0.05022975       0.02754573      -0.02704223      -1.31728125
Na      43.54483247       1.04985720      40.34691578       0.00633935       0.02909918      -0.01019404      -1.21386218
Na      36.66242843      42.75200651      11.68390515      -0.00010221       0.00926900      -0.04414893      -1.13764143
Na      16.35481478      18.82668955      19.02040295      -0.03401443      -0.01453261      -0.08099712      -1.18394995
Na      19.42423500      45.34267412      46.96759120      -0.02771607       0.04031490       0.11050341      -1.05262423
Na      25.71027692      27.63706640      35.32945950       0.06882843      -0.03583867      -0.03663038      -1.16658783
Cl      18.75173113      47.50906546      34.65465738       0.03341807      -0.01742742      -0.19539338      -4.64189148
Cl      43.71252355      38.59174836      39.00488842      -0.02635851      -0.07383902       0.07197941      -4.74177074
Cl      15.38832679      35.58055935       5.59239888       0.03539941      -0.01320275      -0.02175451      -4.85831738
Cl      50.63459881      54.86546140      54.84218247      -0.02536205       0.02753494      -0.03309628      -4.54522371
Cl      18.74290425      37.39523382      46.21408208       0.01820899       0.06819416       0.01137632      -4.96492815
Cl      29.67826106      31.50554388      38.02168858       0.06327563       0.01053669      -0.02392909      -4.85111666
Cl      15.92817771      55.11620857      15.53528061      -0.01075535       0.00332302       0.00892501      -4.87588882
Cl      43.78303873      31.55279322       4.25808041      -0.01458583      -0.03003935       0.00493219      -4.84151173
Cl      34.67564127      36.73240972       6.66520631      -0.02091813       0.09018648       0.05275660      -4.75690746
Cl      10.04838219      35.81302254      53.76781751      -0.09907714       0.05827393      -0.02589534      -4.55963516
Cl      11.65012202      53.63865791      12.83450181       0.03956870      -0.01114615       0.03180932      -4.97570992
Cl      25.21932559      21.86335202      33.39268190      -0.01692244      -0.03057943      -0.05777749      -4.57716322
Cl       5.77229239       4.01774421      29.21707514      -0.05344499       0.01682262      -0.01334456      -4.72311878
Cl      35.21474431      25.79319278      15.62018081      -0.00932788      -0.01553780      -0.05776844      -5.00194550
Cl      54.22007099      31.38790122      29.19197287      -0.01604385      -0.02558757       0.02068212      -4.85765076
Cl      26.39524467       4.87797204       6.75429106       0.05525925       0.00725166       0.00429951      -4.64363909
Cl       3.47659591      12.30794821      12.45652350      -0.03439883       0.00955272      -0.00942906      -4.94810820
Cl      25.79449282       0.99197109      49.82246084       0.02062595      -0.01774499       0.02786595      -4.78876019
Cl      32.37602389      14.24057433      51.54047183       0.11855114       0.00534844      -0.10386837      -4.64776278
Cl       3.17465194      10.99487265      19.40526448      -0.05857373      -0.09004076      -0.03156091      -4.84191513
Cl       3.34186881      10.25220055      23.08232892      -0.09461887       0.07473361       0.05332566      -4.82332516
Cl      43.40768368      42.38613622      12.16552832       0.01935310       0.00837594      -0.01939297      -4.79641294
Cl      51.72597548      43.88064321       8.05595449      -0.02882619       0.03476253       0.05792426      -4.81339216
Cl       2.76195352       8.13279970      12.84108543      -0.04309068       0.02290311      -0.01253748      -4.92758274
Cl      56.48900955      19.23473639       2.13834401       0.06295374       0.01938713      -0.01610734      -4.87657595
Cl       7.72697643      33.24878998       7.16907843      -0.03180881      -0.02030668       0.04600928      -4.82362700
Cl      50.75391307      22.65425830      13.24645344      -0.00793217      -0.03409580      -0.03109585      -5.00510788
Cl      37.68492942      32.53499853      10.95198827       0.13624129       0.03111209       0.09162466      -4.95990705
Cl      11.74302790      16.39561535      40.06124415       0.02033540      -0.02408127      -0.00952259      -4.75997925
Cl      32.44606746      58.41151508      45.52531964       0.01848724       0.09664176      -0.02079485      -4.67535543
Cl       2.33911768      48.61732941      16.40628828       0.00295297       0.13775720      -0.01384383      -4.80300808
Cl      42.82351842      34.99199122      12.59598289      -0.04541074      -0.04145886       0.01244554      -4.81946468
Cl       7.23596413      20.95588160      17.74372676      -0.02402213      -0.00350992       0.01743212      -4.81551075
Cl      48.83273057      19.60893285      10.75319298       0.01308684      -0.02671746      -0.08996356      -4.66216516
Cl      38.36908255      46.82432822      32.74298201       0.02504849       0.03441226      -0.01548542      -4.83569145
Cl       7.18052928      29.37683265      43.41136112      -0.03851098      -0.01182097      -0.04123679      -4.89428568
Cl      33.94020962       1.41126552      40.04545019       0.01700450      -0.05977548       0.05506133      -4.91935968
Cl      16.48607238      49.64445478      38.22569580       0.01147918       0.00870325      -0.00763368      -4.83961821
Cl      55.51973865      41.32866629       8.43596442      -0.01791656      -0.03923341      -0.01069151      -4.79814863
Cl      13.26899268      28.54286525      15.70889550      -0.02823230       0.02329082       0.00666474      -4.68420458
Cl      24.48104134       5.88642903      43.05891521       0.03204835      -0.02405584       0.02909911      -4.96361780
Cl      43.64595685      27.87916538      34.72176135       0.00995574      -0.03825611       0.04537456      -4.88074636
Cl      53.15857174      24.42377552      45.30117680      -0.02380962      -0.00337533      -0.06114880      -4.73894119
Cl      13.76088194       8.36076362       1.46536616      -0.03644749       0.08658946       0.04950228      -4.85335016
Cl      57.62709502       9.62201282      48.95501604      -0.02562283      -0.02212994       0.06002662      -4.72941542
Cl      36.45807637      10.79192016      20.39879033      -0.06068993       0.06242000      -0.05240451      -4.69973087
Cl      24.65309124      13.05546727      26.54055542       0.00357970      -0.02350598      -0.01635155      -4.84757614
Cl       1.34110529      31.35425237      27.69680574      -0.03206540      -0.01596665       0.02384174      -4.74745369
Cl      40.06832331      12.35174179       3.56168589      -0.03397424       0.05366377      -0.05248263      -4.74267101
Cl      21.53086849      58.32920871      33.05258905       0.02409748       0.00081544       0.03615877      -4.90442133
Na      49.11856127       9.22100726       4.70154300       0.04488312      -0.01534560      -0.01146104      -1.18341959
Na       8.99432645      39.43551138      27.98062652      -0.00570279       0.00921728      -0.03679688      -1.27358568
Na      21.33015875      46.24765301      38.40373579      -0.05274607      -0.01803241       0.07178698      -1.25611699
Na      56.78380189      39.06230198      22.18143424      -0.02632350       0.01433661       0.01783546      -1.03911686
Na      23.45335609      30.07387407      16.48210633      -0.01849061       0.02869278      -0.00273022      -1.16594791
Na      13.56316109      10.81982679      14.39267490      -0.00343216      -0.01881327       0.05290237      -1.22163820
Na      30.07150039      21.61662713      11.12851521       0.07712509      -0.00875651      -0.01172955      -1.18864632
Na      58.13373064      48.58279564      51.54165195       0.06368972       0.02127270      -0.00262263      -1.24549603
Na      21.59688571      52.20397990       1.35125343       0.03503991      -0.01228745      -0.04374120      -1.32131648
Na      34.21093228      13.46271566       0.00513770      -0.01631468      -0.01363790      -0.01715494      -1.16918087
Na       3.54900909      28.37804947      54.10672809       0.03780731      -0.02662310      -0.07024279      -1.10307384
Na      33.70931247      49.24856672      37.11012468       0.08457182      -0.01693006      -0.04402510      -1.22851706
Na      34.35588141      39.37187172      27.67803519       0.00651458      -0.01314765      -0.05082186      -1.25594616
Na      20.75566955      57.11467347      50.06801414      -0.08964536       0.07089367       0.08429758      -1.16375911
Na      57.11120789      21.42460596      18.69389469       0.02695663       0.05512631       0.02226631      -1.38379741
Na      12.28030476      11.59338589      10.95952252       0.00822730      -0.04112314       0.01814565      -1.24673653
Na       8.49391522       6.18953316      20.18173554      -0.01099124      -0.09854425      -0.02999346      -1.30422783
Na      44.73857505      44.79301061       6.46565373      -0.00329332      -0.01597672      -0.00310835      -1.23727369
Na      12.87060574       0.10350561      18.28618598      -0.00926331      -0.02737832      -0.00991289      -1.24766600
Na       7.83058514       2.66072513      13.46788110      -0.00901800      -0.01542193       0.03859979      -1.24622631
Na      16.66147048      52.26595568      36.06245374       0.03741837      -0.08309913       0.06304992      -1.21957922
Na      26.88737727      21.15475715       0.29315056       0.04864983       0.05360271       0.00004537      -1.20907640
Na      30.37546540      28.52655869      58.35320822       0.03015663      -0.03767629      -0.01153678      -1.40401816
Na      22.58453285      35.27274607      26.10874161      -0.01780986      -0.02945669       0.02390328      -1.26923561
Na      32.82856818      10.95649108       2.16154904       0.02094795       0.01489822      -0.02420179      -1.20583677
Na      24.04306753       5.04771136       1.87986376       0.03070040       0.06943662      -0.01677183      -1.36267281
Na       3.97868164      32.01174037      13.07168035       0.04307798      -0.10990673       0.09727868      -1.14941120
Na      40.90114038       7.37028971      40.97830093      -0.00236047       0.02336758      -0.05063795      -1.13219202
Na      16.39143114      51.37933997      44.89428465      -0.06298921       0.07220267       0.02160766      -1.28227758
Na       4.71502714       5.57183504      47.23602367      -0.00365275      -0.06044806      -0.05624541      -1.26266909
Na      11.67778926      47.29441531      48.43623576       0.05183249      -0.02498490      -0.00118472      -1.35231173
Na      11.34811672      53.51052886      32.45928166      -0.03938734      -0.00174630       0.00325760      -1.30939126
Na      39.61595482      43.76196073      38.70176489       0.01040189      -0.00722130      -0.01942258      -1.23267484
Na      35.36170388      53.64656414       8.38363026      -0.05201060       0.02367578      -0.00341075      -1.16137552
Na      11.03701775      47.66934252      12.44704357       0.03829411      -0.01932266       0.02266768      -1.26006961
Na      14.78288170      11.53470015      32.63569410       0.05600265      -0.06824527       0.06978382      -1.25874758
Na      53.94774795      18.76029654      37.94165198       0.04610408       0.00819338       0.01244249      -1.28974509
Na      19.47370233      50.13083647      27.79229681      -0.06471945       0.00073587       0.03621887      -1.17976046
Na      29.44862073      47.17789120      30.29095195      -0.07000512      -0.03368450      -0.00028782      -1.20172524
Na      31.86690272      17.87641236      39.17221231       0.03860342       0.01010901       0.10221870      -1.11785483
Na      31.14970529      12.08006857      50.69297481       0.02280566      -0.02499720      -0.00832676      -1.14850044
Na      37.41530475      40.96252704       3.07565726      -0.03203139       0.00309573       0.01785106      -1.27845716
Na      11.57858037      14.56325273      13.54406633       0.04054401       0.01735945      -0.01854467      -1.30761075
Na       2.18596779      24.88739125      10.89710844      -0.09549833       0.01157605       0.08263714      -1.15354180
Na      37.79091500      30.93804450      35.06408923      -0.05022953       0.02754678      -0.02704545      -1.31728077
Na      43.54483245       1.04985707      54.97878327       0.00633950       0.02909780      -0.01018978      -1.21386194
Na      36.66242850      42.75200662      26.31577225      -0.00010160       0.00926930      -0.04415026      -1.13764119
Na      16.35481493      18.82668952      33.65226972      -0.03401324      -0.01453406      -0.08099962      -1.18395042
Na      19.42423456      45.34267374       3.07199028      -0.02771732       0.04031541       0.11050263      -1.05262458
Na      25.71027702      27.63706614      49.96132664       0.06882824      -0.03583807      -0.03662909      -1.16658890
Cl      18.75173105      47.50906542      49.28652434       0.03341785      -0.01742610      -0.19539312      -4.64188910
Cl      43.71252381      38.59174825      53.63675554      -0.02636283      -0.07383866       0.07197572      -4.74177170
Cl      15.38832690      35.58055970      20.22426598       0.03539950      -0.01320332      -0.02175591      -4.85831833
Cl      50.63459896      54.86546138      10.94658108      -0.02536296       0.02753548      -0.03309610      -4.54522324
Cl      18.74290409      37.39523385       2.31848105       0.01820774       0.06819356       0.01137427      -4.96492767
Cl      29.67826078      31.50554380      52.65355576       0.06327847       0.01053762      -0.02392615      -4.85111618
Cl      15.92817781      55.11620858      30.16714768      -0.01075706       0.00332334       0.00892174      -4.87588978
Cl      43.78303886      31.55279321      18.88994764      -0.01458531      -0.03003874       0.00493234      -4.84151220
Cl      34.67564129      36.73240974      21.29707347      -0.02091691       0.09018508       0.05275638      -4.75690746
Cl      10.04838193      35.81302260       9.87221618      -0.09907702       0.05827523      -0.02589357      -4.55963278
Cl      11.65012196      53.63865798      27.46636882       0.03956847      -0.01114672       0.03180825      -4.97570992
Cl      25.21932572      21.86335179      48.02454911      -0.01692390      -0.03058013      -0.05777726      -4.57716274
Cl       5.77229227       4.01774424      43.84894200      -0.05344315       0.01682311      -0.01334427      -4.72311878
Cl      35.21474416      25.79319272      30.25204783      -0.00932718      -0.01553704      -0.05776800      -5.00194693
Cl      54.22007093      31.38790126      43.82384024      -0.01604355      -0.02558728       0.02067845      -4.85764980
Cl      26.39524470       4.87797214      21.38615818       0.05525783       0.00725279       0.00430199      -4.64363909
Cl       3.47659596      12.30794811      27.08839059      -0.03439848       0.00955308      -0.00942734      -4.94810820
Cl      25.79449280       0.99197110       5.92685984       0.02062611      -0.01774462       0.02786544      -4.78875971
Cl      32.37602386      14.24057437       7.64487062       0.11854813       0.00534573      -0.10387369      -4.64776230
Cl       3.17465189      10.99487257      34.03713138      -0.05857227      -0.09004102      -0.03156689      -4.84191513
Cl       3.34186878      10.25220059      37.71419613      -0.09461791       0.07473283       0.05332855      -4.82332516
Cl      43.40768374      42.38613624      26.79739521       0.01935279       0.00837499      -0.01939333      -4.79641294
Cl      51.72597552      43.88064311      22.68782168      -0.02882632       0.03476274       0.05792613      -4.81339216
Cl       2.76195345       8.13279972      27.47295237      -0.04309044       0.02290305      -0.01253786      -4.92758179
Cl      56.48900968      19.23473651      16.77021137       0.06295401       0.01938372      -0.01610639      -4.87657690
Cl       7.72697638      33.24879001      21.80094559      -0.03180778      -0.02030687       0.04601030      -4.82362652
Cl      50.75391304      22.65425837      27.87832045      -0.00793454      -0.03409725      -0.03109476      -5.00510645
Cl      37.68492953      32.53499849      25.58385510       0.13624197       0.03111176       0.09162793      -4.95990753
Cl      11.74302793      16.39561543      54.69311138       0.02033561      -0.02408035      -0.00952333      -4.75998068
Cl      32.44606748      58.41151482       1.62971791       0.01848841       0.09663977      -0.02080035      -4.67535400
Cl       2.33911767      48.61732931      31.03815520       0.00295163       0.13775688      -0.01384151      -4.80300713
Cl      42.82351843      34.99199121      27.22784976      -0.04540958      -0.04145787       0.01244628      -4.81946516
Cl       7.23596398      20.95588171      32.37559347      -0.02402165      -0.00350861       0.01743026      -4.81551123
Cl      48.83273044      19.60893279      25.38505991       0.01308544      -0.02671766      -0.08996067      -4.66216707
Cl      38.36908256      46.82432835      47.37484866       0.02504703       0.03441314      -0.01548251      -4.83569145
Cl       7.18052928      29.37683249      58.04322895      -0.03851176      -0.01182231      -0.04123596      -4.89428568
Cl      33.94020955       1.41126562      54.67731693       0.01700687      -0.05977841       0.05505611      -4.91936016
Cl      16.48607238      49.64445486      52.85756268       0.01147908       0.00870092      -0.00763255      -4.83961630
Cl      55.51973857      41.32866630      23.06783152      -0.01791542      -0.03923436      -0.01068308      -4.79814911
Cl      13.26899262      28.54286528      30.34076263      -0.02823234       0.02328997       0.00666424      -4.68420506
Cl      24.48104126       5.88642906      57.69078284       0.03204779      -0.02405519       0.02909744      -4.96361589
Cl      43.64595682      27.87916528      49.35362814       0.00995585      -0.03825683       0.04537521      -4.88074780
Cl      53.15857179      24.42377560       1.40557505      -0.02380727      -0.00337516      -0.06114315      -4.73894310
Cl      13.76088188       8.36076369      16.09723367      -0.03644560       0.08658988       0.04950299      -4.85334969
Cl      57.62709520       9.62201278       5.05941510      -0.02562337      -0.02212872       0.06002938      -4.72941399
Cl      36.45807636      10.79192007      35.03065732      -0.06068952       0.06242076      -0.05240513      -4.69972944
Cl      24.65309133      13.05546722      41.17242244       0.00357816      -0.02350676      -0.01635466      -4.84757519
Cl       1.34110530      31.35425243      42.32867283      -0.03206507      -0.01596752       0.02383966      -4.74745369
Cl      40.06832319      12.35174204      18.19355309      -0.03397492       0.05366262      -0.05248722      -4.74267101
Cl      21.53086847      58.32920866      47.68445642       0.02409729       0.00081540       0.03615878      -4.90442181
Na      49.11856136      23.85287414      19.33341020       0.04488572      -0.01534680      -0.01145972      -1.18341947
Na       8.99432657      54.06737811      42.61249339      -0.00570367       0.00921800      -0.03678978      -1.27358639
Na      21.33015878       2.35205159      53.03560331      -0.05274369      -0.01802874       0.07178786      -1.25611782
Na      56.78380162      53.69416906      36.81330116      -0.02632653       0.01433696       0.01783942      -1.03911757
Na      23.45335596      44.70574086      31.11397320      -0.01849188       0.02869089      -0.00272986      -1.16594744
Na      13.56316108      25.45169378      29.02454186      -0.00343342      -0.01881367       0.05290099      -1.22163796
Na      30.07150031      36.24849420      25.76038247       0.07712559      -0.00875514      -0.01173114      -1.18864703
Na      58.13373075       4.68719430       7.64605113       0.06369117       0.02127242      -0.00262056      -1.24549627
Na      21.59688602       8.30837911      15.98312121       0.03503996      -0.01228845      -0.04373826      -1.32131577
Na      34.21093218      28.09458270      14.63700540      -0.01631417      -0.01364011      -0.01715488      -1.16918087
Na       3.54900895      43.00991655      10.21112659       0.03780642      -0.02663336      -0.07023566      -1.10307407
Na      33.70931248       5.35296584      51.74199189       0.08457132      -0.01693307      -0.04402356      -1.22851753
Na      34.35588163      54.00373861      42.30990218       0.00651455      -0.01314510      -0.05081722      -1.25594687
Na      20.75566860      13.21907192       6.17241330      -0.08964333       0.07089172       0.08429603      -1.16375995
Na      57.11120790      36.05647287      33.32576154       0.02695718       0.05512695       0.02226932      -1.38379860
Na      12.28030479      26.22525298      25.59138964       0.00822668      -0.04112386       0.01814624      -1.24673617
Na       8.49391530      20.82140031      34.81360260      -0.01098993      -0.09854509      -0.02999261      -1.30422831
Na      44.73857497       0.89740837      21.09752103      -0.00329373      -0.01597129      -0.00310634      -1.23727429
Na      12.87060536      14.73537314      32.91805313      -0.00926293      -0.02737802      -0.00990978      -1.24766660
Na       7.83058522      17.29259277      28.09974826      -0.00901771      -0.01542303       0.03860009      -1.24622619
Na      16.66147035       8.37035448      50.69432071       0.03742066      -0.08309579       0.06305131      -1.21957827
Na      26.88737687      35.78662457      14.92501837       0.04864746       0.05360018       0.00004453      -1.20907676
Na      30.37546539      43.15842556      14.45760643       0.03015813      -0.03767638      -0.01153928      -1.40401793
Na      22.58453270      49.90461321      40.74060869      -0.01780314      -0.02945551       0.02390125      -1.26923549
Na      32.82856844      25.58835803      16.79341648       0.02094753       0.01489881      -0.02420456      -1.20583677
Na      24.04306754      19.67957900      16.51173122       0.03070060       0.06943624      -0.01677416      -1.36267233
Na       3.97868154      46.64360740      27.70354700       0.04307969      -0.10990691       0.09728125      -1.14941156
Na      40.90114030      22.00215704      55.61016855      -0.00235675       0.02337001      -0.05063047      -1.13219202
Na      16.39143146       7.48373876       0.99868354      -0.06298693       0.07220311       0.02160645      -1.28227711
Na       4.71502713      20.20370240       3.34042277      -0.00365345      -0.06044887      -0.05624573      -1.26266932
Na      11.67778952       3.39881353       4.54063470       0.05183164      -0.02498301      -0.00118061      -1.35231137
Na      11.34811661       9.61492734      47.09114846      -0.03938770      -0.00174536       0.00325779      -1.30939126
Na      39.61595489      58.39382828      53.33363234       0.01040326      -0.00722419      -0.01942674      -1.23267484
Na      35.36170388       9.75096316      23.01549733      -0.05201057       0.02367800      -0.00341067      -1.16137576
Na      11.03701770       3.77374115      27.07891074       0.03829473      -0.01932443       0.02266570      -1.26006961
Na      14.78288172      26.16656707      47.26756115       0.05600331      -0.06824498       0.06977959      -1.25874758
Na      53.94774787      33.39216354      52.57351898       0.04610579       0.00819611       0.01243661      -1.28974509
Na      19.47370257       6.23523537      42.42416345      -0.06472030       0.00073576       0.03622067      -1.17976069
Na      29.44862075       3.28228986      44.92281849      -0.07000506      -0.03368219      -0.00028670      -1.20172524
Na      31.86690298      32.50827922      53.80407942       0.03860300       0.01011416       0.10221735      -1.11785519
Na      31.14970521      26.71193558       6.79737319       0.02280828      -0.02499402      -0.00832590      -1.14850032
Na      37.41530503      55.59439470      17.70752476      -0.03203253       0.00309805       0.01785037      -1.27845693
Na      11.57858041      29.19511967      28.17593338       0.04054289       0.01735739      -0.01854627      -1.30761039
Na       2.18596774      39.51925824      25.52897549      -0.09549581       0.01157765       0.08263212      -1.15354240
Na      37.79091481      45.56991146      49.69595679      -0.05022786       0.02754165      -0.02704586      -1.31728077
Na      43.54483219      15.68172488      11.08318176       0.00634851       0.02909749      -0.01019171      -1.21386266
Na      36.66242895      57.38387322      40.94763929      -0.00009809       0.00927372      -0.04414603      -1.13764071
Na      16.35481489      33.45855631      48.28413678      -0.03401222      -0.01453474      -0.08100058      -1.18395042
Na      19.42423446       1.44707238      17.70385641      -0.02771447       0.04031891       0.11050603      -1.05262339
Na      25.71027704      42.26893297       6.06572529       0.06882736      -0.03583847      -0.03662807      -1.16658926
Cl      18.75173105       3.61346421       5.39092331       0.03341931      -0.01742887      -0.19539309      -4.64189100
Cl      43.71252345      53.22361535       9.74115463      -0.02636073      -0.07383765       0.07197455      -4.74176931
Cl      15.38832692      50.21242657      34.85613302       0.03539894      -0.01320254      -0.02175367      -4.85831738
Cl      50.63459867      10.96986026      25.57844795      -0.02536192       0.02753792      -0.03309346      -4.54522324
Cl      18.74290436      52.02710096      16.95034810       0.01820714       0.06819443       0.01137480      -4.96493006
Cl      29.67826105      46.13741073       8.75795455       0.06327903       0.01054210      -0.02392489      -4.85111523
Cl      15.92817820      11.22060699      44.79901460      -0.01075851       0.00332020       0.00892419      -4.87588930
Cl      43.78303865      46.18465965      33.52181478      -0.01458267      -0.03003273       0.00493122      -4.84151173
Cl      34.67564149      51.36427715      35.92894009      -0.02091777       0.09018404       0.05276097      -4.75690842
Cl      10.04838198      50.44488971      24.50408322      -0.09907749       0.05827476      -0.02589535      -4.55963326
Cl      11.65012205       9.74305665      42.09823608       0.03957049      -0.01115004       0.03180908      -4.97570992
Cl      25.21932573      36.49521926       4.12894800      -0.01692177      -0.03057863      -0.05777904      -4.57716179
Cl       5.77229241      18.64961216      -0.04666075      -0.05344578       0.01682314      -0.01334561      -4.72311783
Cl      35.21474436      40.42506004      44.88391473      -0.00932897      -0.01554031      -0.05776718      -5.00194502
Cl      54.22007119      46.01976854      -0.07176210      -0.01604346      -0.02558189       0.02067979      -4.85765123
Cl      26.39524483      19.50983971      36.01802511       0.05525988       0.00725116       0.00430057      -4.64363766
Cl       3.47659589      26.93981532      41.72025736      -0.03439897       0.00955310      -0.00942681      -4.94810963
Cl      25.79449260      15.62383902      20.55872776       0.02062673      -0.01775138       0.02786562      -4.78875828
Cl      32.37602386      28.87244132      22.27673755       0.11854871       0.00534541      -0.10387073      -4.64776182
Cl       3.17465181      25.62673967      48.66899825      -0.05857262      -0.09004249      -0.03156436      -4.84191656
Cl       3.34186891      24.88406757      52.34606309      -0.09461772       0.07473300       0.05332650      -4.82332563
Cl      43.40768361      57.01800368      41.42926202       0.01935691       0.00837560      -0.01939038      -4.79641199
Cl      51.72597571      58.51251115      37.31968892      -0.02882408       0.03475677       0.05792522      -4.81339359
Cl       2.76195352      22.76466661      42.10481942      -0.04309015       0.02290315      -0.01253906      -4.92758274
Cl      56.48900974      33.86660352      31.40207821       0.06295302       0.01938550      -0.01610599      -4.87657690
Cl       7.72697639      47.88065708      36.43281262      -0.03180925      -0.02030538       0.04600947      -4.82362890
Cl      50.75391304      37.28612538      42.51018732      -0.00792940      -0.03409372      -0.03109693      -5.00510836
Cl      37.68492930      47.16686520      40.21572247       0.13624328       0.03111398       0.09163061      -4.95990658
Cl      11.74302795      31.02748234      10.79751011       0.02033673      -0.02408409      -0.00952485      -4.75998020
Cl      32.44606748      14.51591328      16.26158570       0.01848870       0.09663929      -0.02079796      -4.67535400
Cl       2.33911771       4.72172813      45.67002220       0.00295169       0.13775446      -0.01384191      -4.80300856
Cl      42.82351859      49.62385800      41.85971687      -0.04540633      -0.04145832       0.01244145      -4.81946421
Cl       7.23596401      35.58774848      47.00746096      -0.02402387      -0.00351447       0.01743188      -4.81551170
Cl      48.83273048      34.24079996      40.01692737       0.01308663      -0.02671680      -0.08995990      -4.66216278
Cl      38.36908258       2.92872684       3.47924719       0.02504730       0.03441268      -0.01548858      -4.83569098
Cl       7.18052910      44.00869938      14.14762713      -0.03850914      -0.01181350      -0.04123729      -4.89428520
Cl      33.94021016      16.04313257      10.78171663       0.01700797      -0.05977489       0.05505795      -4.91936016
Cl      16.48607242       5.74885357       8.96196172       0.01147987       0.00870390      -0.00763149      -4.83961773
Cl      55.51973878      55.96053386      37.69969864      -0.01791836      -0.03922971      -0.01069463      -4.79814768
Cl      13.26899262      43.17473239      44.97262954      -0.02823212       0.02329214       0.00666403      -4.68420410
Cl      24.48104134      20.51829624      13.79518115       0.03204622      -0.02405396       0.02909878      -4.96361780
Cl      43.64595700      42.51103262       5.45802705       0.00995377      -0.03825618       0.04537198      -4.88074732
Cl      53.15857166      39.05564253      16.03744281      -0.02380923      -0.00337346      -0.06114483      -4.73894262
Cl      13.76088195      22.99263087      30.72910057      -0.03644828       0.08659068       0.04950249      -4.85335064
Cl      57.62709504      24.25387971      19.69128232      -0.02562357      -0.02212851       0.06002953      -4.72941494
Cl      36.45807631      25.42378706      49.66252425      -0.06069039       0.06242135      -0.05240474      -4.69973087
Cl      24.65309124      27.68733451      55.80428990       0.00357898      -0.02350497      -0.01635241      -4.84757614
Cl       1.34110527      45.98611930      56.96054088      -0.03206485      -0.01596546       0.02384048      -4.74745321
Cl      40.06832327      26.98360896      32.82541984      -0.03397578       0.05366435      -0.05248233      -4.74267101
Cl      21.53086818      14.43360701       3.78885519       0.02409786       0.00081523       0.03615729      -4.90442038
Na      49.11856143      23.85287410      33.96527720       0.04488111      -0.01534384      -0.01146344      -1.18341970
Na       8.99432682      54.06737796      57.24436140      -0.00570216       0.00921778      -0.03679565      -1.27358603
Na      21.33015871       2.35205167       9.14000204      -0.05274483      -0.01803034       0.07178582      -1.25611758
Na      56.78380168      53.69416909      51.44516846      -0.02632554       0.01433778       0.01784151      -1.03911710
Na      23.45335599      44.70574089      45.74584013      -0.01849195       0.02868802      -0.00273357      -1.16594851
Na      13.56316087      25.45169384      43.65640869      -0.00343469      -0.01881346       0.05290076      -1.22163796
Na      30.07150034      36.24849397      40.39224931       0.07712437      -0.00875611      -0.01173069      -1.18864596
Na      58.13373080       4.68719432      22.27791810       0.06369173       0.02127278      -0.00262049      -1.24549615
Na      21.59688604       8.30837905      30.61498818       0.03503969      -0.01228969      -0.04373799      -1.32131577
Na      34.21093222      28.09458270      29.26887240      -0.01631322      -0.01364040      -0.01715725      -1.16918063
Na       3.54900892      43.00991649      24.84299357       0.03780720      -0.02663196      -0.07023598      -1.10307431
Na      33.70931232       5.35296561       7.84639082       0.08457118      -0.01693368      -0.04402202      -1.22851706
Na      34.35588180      54.00373857      56.94176961       0.00651470      -0.01314758      -0.05081761      -1.25594723
Na      20.75566862      13.21907183      20.80428035      -0.08964538       0.07089420       0.08429588      -1.16375995
Na      57.11120781      36.05647274      47.95762849       0.02695328       0.05512686       0.02226545      -1.38379836
Na      12.28030475      26.22525296      40.22325663       0.00822742      -0.04112346       0.01815029      -1.24673593
Na       8.49391526      20.82140035      49.44546949      -0.01099063      -0.09854457      -0.02999201      -1.30422783
Na      44.73857485       0.89740854      35.72938808      -0.00329315      -0.01597482      -0.00311116      -1.23727429
Na      12.87060539      14.73537326      47.54992008      -0.00926269      -0.02737781      -0.00990896      -1.24766648
Na       7.83058531      17.29259277      42.73161505      -0.00901956      -0.01542457       0.03860636      -1.24622679
Na      16.66147036       8.37035442       6.79871957       0.03742075      -0.08309449       0.06305231      -1.21957827
Na      26.88737685      35.78662455      29.55688536       0.04864936       0.05360135       0.00004721      -1.20907640
Na      30.37546532      43.15842555      29.08947341       0.03015853      -0.03767611      -0.01153956      -1.40401757
Na      22.58453297      49.90461298      55.37247606      -0.01780931      -0.02945619       0.02390689      -1.26923501
Na      32.82856855      25.58835809      31.42528350       0.02094590       0.01489751      -0.02420041      -1.20583653
Na      24.04306751      19.67957894      31.14359834       0.03069971       0.06943701      -0.01677358      -1.36267257
Na       3.97868164      46.64360732      42.33541403       0.04307736      -0.10990867       0.09728014      -1.14941168
Na      40.90114052      22.00215709      11.71456694      -0.00235684       0.02337026      -0.05063459      -1.13219237
Na      16.39143127       7.48373903      15.63055060      -0.06298903       0.07220235       0.02160634      -1.28227735
Na       4.71502720      20.20370228      17.97228954      -0.00365326      -0.06044967      -0.05624651      -1.26266932
Na      11.67778945       3.39881351      19.17250177       0.05183105      -0.02498394      -0.00118252      -1.35231137
Na      11.34811659       9.61492728       3.19554698      -0.03938829      -0.00174570       0.00325871      -1.30939078
Na      39.61595495      58.39382832       9.43803113       0.01040308      -0.00722212      -0.01942654      -1.23267543
Na      35.36170383       9.75096315      37.64736423      -0.05200695       0.02367707      -0.00341153      -1.16137600
Na      11.03701772       3.77374116      41.71077771       0.03829377      -0.01932408       0.02266927      -1.26006961
Na      14.78288164      26.16656710       3.37195968       0.05600252      -0.06824408       0.06978216      -1.25874805
Na      53.94774792      33.39216364       8.67791772       0.04610338       0.00819404       0.01244333      -1.28974581
Na      19.47370248       6.23523569      57.05603073      -0.06472076       0.00073542       0.03622055      -1.17976034
Na      29.44862077       3.28228942       1.02721747      -0.07000510      -0.03368317      -0.00028800      -1.20172524
Na      31.86690262      32.50827931       9.90847844       0.03860284       0.01011281       0.10221719      -1.11785579
Na      31.14970525      26.71193570      21.42924063       0.02280863      -0.02499548      -0.00832834      -1.14850092
Na      37.41530502      55.59439468      32.33939160      -0.03203203       0.00309891       0.01785318      -1.27845693
Na      11.57858034      29.19511954      42.80780022       0.04054448       0.01735925      -0.01854469      -1.30761075
Na       2.18596778      39.51925825      40.16084228      -0.09549633       0.01157791       0.08263378      -1.15354192
Na      37.79091492      45.56991157       5.80035543      -0.05022866       0.02754160      -0.02704243      -1.31728077
Na      43.54483218      15.68172483      25.71504889       0.00634966       0.02909900      -0.01019381      -1.21386290
Na      36.66242908      57.38387314      55.57950710      -0.00009947       0.00927047      -0.04414653      -1.13764060
Na      16.35481467      33.45855617       4.38853596      -0.03401385      -0.01453512      -0.08099858      -1.18394983
Na      19.42423446       1.44707236      32.33572348      -0.02771626       0.04031829       0.11050396      -1.05262327
Na      25.71027697      42.26893292      20.69759225       0.06882767      -0.03583780      -0.03662433      -1.16658878
Cl      18.75173109       3.61346418      20.02279030       0.03341839      -0.01742764      -0.19539361      -4.64189005
Cl      43.71252337      53.22361536      24.37302159      -0.02636234      -0.07383715       0.07197464      -4.74177122
Cl      15.38832712      50.21242645      49.48800044       0.03540108      -0.01320217      -0.02175147      -4.85831785
Cl      50.63459869      10.96986022      40.21031486      -0.02536146       0.02753836      -0.03309524      -4.54522276
Cl      18.74290430      52.02710102      31.58221513       0.01820776       0.06819419       0.01137536      -4.96492958
Cl      29.67826111      46.13741070      23.38982163       0.06327929       0.01054203      -0.02392484      -4.85111523
Cl      15.92817796      11.22060709       0.90341311      -0.01075877       0.00331964       0.00892467      -4.87588930
Cl      43.78303854      46.18465964      48.15368167      -0.01458317      -0.03003364       0.00493231      -4.84151077
Cl      34.67564149      51.36427711      50.56080694      -0.02091732       0.09018493       0.05275993      -4.75690889
Cl      10.04838211      50.44488982      39.13595001      -0.09907439       0.05827839      -0.02588681      -4.55963326
Cl      11.65012208       9.74305682      56.73010356       0.03956871      -0.01115515       0.03181111      -4.97571039
Cl      25.21932585      36.49521912      18.76081491      -0.01692207      -0.03057980      -0.05777826      -4.57716227
Cl       5.77229235      18.64961171      14.58520815      -0.05344393       0.01682235      -0.01334561      -4.72311783
Cl      35.21474453      40.42505987       0.98831324      -0.00932686      -0.01554199      -0.05776723      -5.00194645
Cl      54.22007111      46.01976834      14.56010593      -0.01604410      -0.02558084       0.02068023      -4.85765266
Cl      26.39524460      19.50983974      50.64989216       0.05526090       0.00725296       0.00430978      -4.64363813
Cl       3.47659611      26.93981554      56.35212505      -0.03439771       0.00955480      -0.00942493      -4.94810867
Cl      25.79449272      15.62383925      35.19059465       0.02062475      -0.01775109       0.02786786      -4.78875875
Cl      32.37602400      28.87244137      36.90860490       0.11854804       0.00534617      -0.10387082      -4.64776230
Cl       3.17465183      25.62673996       4.77339729      -0.05857258      -0.09004110      -0.03156508      -4.84191561
Cl       3.34186875      24.88406763       8.45046195      -0.09461674       0.07473433       0.05332316      -4.82332516
Cl      43.40768366      57.01800376      56.06112985       0.01935524       0.00837482      -0.01939488      -4.79641294
Cl      51.72597571      58.51251130      51.95155549      -0.02882538       0.03475658       0.05792546      -4.81339359
Cl       2.76195361      22.76466681      56.73668680      -0.04308954       0.02290258      -0.01253806      -4.92758131
Cl      56.48900987      33.86660350      46.03394525       0.06295459       0.01938677      -0.01610841      -4.87657452
Cl       7.72697645      47.88065706      51.06467972      -0.03180622      -0.02030445       0.04601324      -4.82362843
Cl      50.75391323      37.28612551      57.14205563      -0.00792965      -0.03409383      -0.03109611      -5.00510788
Cl      37.68492916      47.16686523      54.84758964       0.13624129       0.03111406       0.09161919      -4.95990801
Cl      11.74302793      31.02748222      25.42937696       0.02033826      -0.02408287      -0.00952273      -4.75997925
Cl      32.44606740      14.51591327      30.89345264       0.01848933       0.09663902      -0.02079709      -4.67535448
Cl       2.33911791       4.72172795       1.77442130       0.00295167       0.13775529      -0.01384342      -4.80300903
Cl      42.82351840      49.62385816      56.49158416      -0.04540642      -0.04145631       0.01244412      -4.81946278
Cl       7.23596414      35.58774866       3.11185917      -0.02402525      -0.00351319       0.01743279      -4.81551075
Cl      48.83273059      34.24080024      54.64879398       0.01308721      -0.02671855      -0.08996015      -4.66216612
Cl      38.36908223       2.92872697      18.11111466       0.02504857       0.03441186      -0.01548802      -4.83569145
Cl       7.18052919      44.00869952      28.77949416      -0.03851489      -0.01182225      -0.04123438      -4.89428520
Cl      33.94021026      16.04313247      25.41358362       0.01700756      -0.05977581       0.05505744      -4.91936016
Cl      16.48607247       5.74885352      23.59382871       0.01147977       0.00870407      -0.00762899      -4.83961773
Cl      55.51973870      55.96053402      52.33156573      -0.01791663      -0.03923203      -0.01068963      -4.79814672
Cl      13.26899267      43.17473249       1.07702828      -0.02823067       0.02329198       0.00666185      -4.68420410
Cl      24.48104135      20.51829627      28.42704816       0.03204744      -0.02405612       0.02910017      -4.96361732
Cl      43.64595694      42.51103270      20.08989433       0.00995346      -0.03825681       0.04537055      -4.88074684
Cl      53.15857176      39.05564256      30.66930995      -0.02380903      -0.00337375      -0.06114442      -4.73894358
Cl      13.76088192      22.99263075      45.36096765      -0.03644819       0.08658995       0.04949979      -4.85334921
Cl      57.62709501      24.25387977      34.32314950      -0.02562204      -0.02212644       0.06002539      -4.72941351
Cl      36.45807640      25.42378714       5.76692304      -0.06069047       0.06241608      -0.05240601      -4.69973135
Cl      24.65309133      27.68733428      11.90868838       0.00358008      -0.02350357      -0.01635208      -4.84757519
Cl       1.34110527      45.98611935      13.06493885      -0.03206466      -0.01596519       0.02384116      -4.74745369
Cl      40.06832323      26.98360909      47.45728708      -0.03397418       0.05366418      -0.05248128      -4.74267149
Cl      21.53086820      14.43360695      18.42072283       0.02409855       0.00081508       0.03615873      -4.90442038
Na      49.11856140      23.85287409      48.59714415       0.04488377      -0.01534598      -0.01146200      -1.18341923
Na       8.99432652      54.06737813      13.34875949      -0.00570212       0.00921827      -0.03679492      -1.27358568
Na      21.33015874       2.35205168      23.77186918      -0.05274485      -0.01803098       0.07178338      -1.25611818
Na      56.78380167      53.69416902       7.54956700      -0.02632638       0.01433712       0.01783650      -1.03911710
Na      23.45335570      44.70574098       1.85023840      -0.01849175       0.02869020      -0.00272966      -1.16594768
Na      13.56316105      25.45169375      58.28827665      -0.00343344      -0.01881343       0.05290060      -1.22163796
Na      30.07150020      36.24849424      55.02411697       0.07712479      -0.00875576      -0.01172965      -1.18864679
Na      58.13373068       4.68719419      36.90978522       0.06369002       0.02127411      -0.00262360      -1.24549580
Na      21.59688608       8.30837918      45.24685529       0.03504080      -0.01228669      -0.04374062      -1.32131648
Na      34.21093225      28.09458268      43.90073937      -0.01631544      -0.01364050      -0.01715339      -1.16918087
Na       3.54900894      43.00991645      39.47486044       0.03780628      -0.02663011      -0.07023954      -1.10307384
Na      33.70931228       5.35296563      22.47825794       0.08457078      -0.01693430      -0.04402331      -1.22851741
Na      34.35588158      54.00373871      13.04616814       0.00651471      -0.01314628      -0.05081891      -1.25594699
Na      20.75566851      13.21907186      35.43614733      -0.08964610       0.07089251       0.08429807      -1.16376030
Na      57.11120776      36.05647287       4.06202720       0.02695644       0.05512695       0.02226777      -1.38379788
Na      12.28030491      26.22525299      54.85512397       0.00822670      -0.04112202       0.01814017      -1.24673605
Na       8.49391526      20.82140024       5.54986823      -0.01099139      -0.09854461      -0.02999190      -1.30422807
Na      44.73857494       0.89740861      50.36125541      -0.00329396      -0.01597214      -0.00310738      -1.23727417
Na      12.87060532      14.73537316       3.65431893      -0.00926364      -0.02737895      -0.00991195      -1.24766636
Na       7.83058530      17.29259272      57.36348282      -0.00901746      -0.01542315       0.03860274      -1.24622655
Na      16.66147040       8.37035449      21.43058660       0.03742101      -0.08309399       0.06305231      -1.21957827
Na      26.88737688      35.78662448      44.18875248       0.04864820       0.05360065       0.00005236      -1.20907700
Na      30.37546536      43.15842556      43.72134067       0.03015804      -0.03767591      -0.01153747      -1.40401864
Na      22.58453284      49.90461307      11.47687468      -0.01780942      -0.02945597       0.02390471      -1.26923561
Na      32.82856839      25.58835804      46.05715054       0.02094897       0.01489871      -0.02420563      -1.20583701
Na      24.04306763      19.67957894      45.77546526       0.03070129       0.06943712      -0.01677557      -1.36267316
Na       3.97868162      46.64360739      56.96728131       0.04307773      -0.10990925       0.09728012      -1.14941108
Na      40.90114062      22.00215708      26.34643403      -0.00235585       0.02337145      -0.05063255      -1.13219213
Na      16.39143120       7.48373896      30.26241770      -0.06298852       0.07220247       0.02160646      -1.28227711
Na       4.71502722      20.20370229      32.60415647      -0.00365432      -0.06045038      -0.05624631      -1.26266980
Na      11.67778933       3.39881349      33.80436892       0.05183218      -0.02498205      -0.00117849      -1.35231161
Na      11.34811669       9.61492738      17.82741440      -0.03938737      -0.00174472       0.00325936      -1.30939114
Na      39.61595493      58.39382835      24.06989819       0.01040235      -0.00722328      -0.01942790      -1.23267567
Na      35.36170387       9.75096322      52.27923138      -0.05200640       0.02367717      -0.00341089      -1.16137552
Na      11.03701773       3.77374109      56.34264512       0.03829194      -0.01932158       0.02267164      -1.26007009
Na      14.78288167      26.16656712      18.00382696       0.05600219      -0.06824408       0.06978345      -1.25874758
Na      53.94774790      33.39216372      23.30978489       0.04610528       0.00819400       0.01243963      -1.28974581
Na      19.47370255       6.23523536      13.16042978      -0.06472223       0.00073631       0.03622051      -1.17976046
Na      29.44862079       3.28228976      15.65908446      -0.07000631      -0.03368248      -0.00028833      -1.20172501
Na      31.86690279      32.50827933      24.54034557       0.03860273       0.01011434       0.10221612      -1.11785555
Na      31.14970526      26.71193563      36.06110738       0.02280620      -0.02499490      -0.00832597      -1.14850080
Na      37.41530496      55.59439469      46.97125874      -0.03203230       0.00309827       0.01785040      -1.27845752
Na      11.57858007      29.19511953      57.43966782       0.04054574       0.01735979      -0.01854061      -1.30761075
Na       2.18596802      39.51925814      54.79270963      -0.09549686       0.01157662       0.08263513      -1.15354168
Na      37.79091479      45.56991144      20.43222269      -0.05022941       0.02754137      -0.02704226      -1.31728101
Na      43.54483222      15.68172500      40.34691560       0.00634869       0.02909660      -0.01018806      -1.21386218
Na      36.66242896      57.38387320      11.68390553      -0.00009952       0.00926923      -0.04414718      -1.13764024
Na      16.35481478      33.45855614      19.02040296      -0.03401281      -0.01453471      -0.08099830      -1.18394971
Na      19.42423436       1.44707218      46.96759041      -0.02771540       0.04031837       0.11050481      -1.05262327
Na      25.71027693      42.26893316      35.32945919       0.06882772      -0.03583980      -0.03662976      -1.16658831
Cl      18.75173116       3.61346419      34.65465750       0.03341812      -0.01742871      -0.19539279      -4.64188910
Cl      43.71252345      53.22361551      39.00488859      -0.02636208      -0.07383689       0.07197398      -4.74177122
Cl      15.38832683      50.21242642       5.59239890       0.03539896      -0.01320275      -0.02175600      -4.85831833
Cl      50.63459851      10.96986017      54.84218217      -0.02536101       0.02753882      -0.03309482      -4.54522324
Cl      18.74290429      52.02710087      46.21408204       0.01820868       0.06819533       0.01137712      -4.96493006
Cl      29.67826117      46.13741066      38.02168851       0.06327681       0.01054095      -0.02392826      -4.85111666
Cl      15.92817805      11.22060698      15.53528047      -0.01075717       0.00331895       0.00892388      -4.87588978
Cl      43.78303857      46.18465985       4.25808056      -0.01458429      -0.03003320       0.00493134      -4.84151173
Cl      34.67564153      51.36427696       6.66520599      -0.02091690       0.09018737       0.05275650      -4.75690889
Cl      10.04838219      50.44488973      53.76781760      -0.09907720       0.05827440      -0.02589595      -4.55963516
Cl      11.65012198       9.74305663      12.83450210       0.03956852      -0.01115114       0.03180781      -4.97571039
Cl      25.21932566      36.49521909      33.39268186      -0.01692438      -0.03058089      -0.05777946      -4.57716227
Cl       5.77229237      18.64961168      29.21707525      -0.05344383       0.01682311      -0.01334529      -4.72311783
Cl      35.21474434      40.42506000      15.62018079      -0.00932673      -0.01554175      -0.05776683      -5.00194645
Cl      54.22007109      46.01976840      29.19197281      -0.01604515      -0.02558288       0.02068112      -4.85765266
Cl      26.39524477      19.50983957       6.75429106       0.05525924       0.00725167       0.00430032      -4.64363861
Cl       3.47659593      26.93981518      12.45652350      -0.03439877       0.00955530      -0.00942920      -4.94810867
Cl      25.79449266      15.62383905      49.82246167       0.02062558      -0.01775044       0.02786735      -4.78875828
Cl      32.37602386      28.87244126      51.54047180       0.11855087       0.00534882      -0.10386880      -4.64776230
Cl       3.17465192      25.62673970      19.40526446      -0.05857432      -0.09004066      -0.03155953      -4.84191561
Cl       3.34186878      24.88406761      23.08232896      -0.09461822       0.07473386       0.05332594      -4.82332563
Cl      43.40768360      57.01800362      12.16552823       0.01935303       0.00837337      -0.01939344      -4.79641151
Cl      51.72597574      58.51251124       8.05595443      -0.02882449       0.03475767       0.05792661      -4.81339359
Cl       2.76195343      22.76466661      12.84108537      -0.04308957       0.02290329      -0.01253806      -4.92758226
Cl      56.48900950      33.86660358       2.13834403       0.06295435       0.01938527      -0.01610499      -4.87657595
Cl       7.72697639      47.88065699       7.16907842      -0.03180825      -0.02030434       0.04600866      -4.82362795
Cl      50.75391302      37.28612534      13.24645346      -0.00793002      -0.03409410      -0.03109452      -5.00510883
Cl      37.68492937      47.16686520      10.95198827       0.13624370       0.03111457       0.09162630      -4.95990753
Cl      11.74302807      31.02748234      40.06124414       0.02033599      -0.02408573      -0.00952570      -4.75997925
Cl      32.44606738      14.51591331      45.52531966       0.01848999       0.09663881      -0.02079946      -4.67535353
Cl       2.33911781       4.72172813      16.40628837       0.00295171       0.13775483      -0.01384399      -4.80300903
Cl      42.82351834      49.62385823      12.59598284      -0.04540711      -0.04145820       0.01244516      -4.81946325
Cl       7.23596397      35.58774864      17.74372682      -0.02402264      -0.00351347       0.01743394      -4.81551123
Cl      48.83273046      34.24079997      10.75319291       0.01308668      -0.02671783      -0.08996210      -4.66216421
Cl      38.36908221       2.92872697      32.74298207       0.02504773       0.03441064      -0.01548652      -4.83569098
Cl       7.18052918      44.00869945      43.41136112      -0.03851377      -0.01182177      -0.04123759      -4.89428473
Cl      33.94021015      16.04313256      40.04545092       0.01700689      -0.05977745       0.05505545      -4.91936016
Cl      16.48607241       5.74885355      38.22569588       0.01147890       0.00870503      -0.00762995      -4.83961821
Cl      55.51973866      55.96053403       8.43596439      -0.01791736      -0.03923139      -0.01069275      -4.79814672
Cl      13.26899255      43.17473244      15.70889548      -0.02823264       0.02329192       0.00666368      -4.68420458
Cl      24.48104135      20.51829624      43.05891525       0.03204695      -0.02405377       0.02910019      -4.96361732
Cl      43.64595686      42.51103254      34.72176151       0.00995566      -0.03825615       0.04537379      -4.88074684
Cl      53.15857192      39.05564254      45.30117682      -0.02381133      -0.00337377      -0.06115004      -4.73894119
Cl      13.76088196      22.99263064       1.46536612      -0.03644818       0.08659159       0.04950258      -4.85334969
Cl      57.62709498      24.25387982      48.95501611      -0.02562128      -0.02212884       0.06002687      -4.72941589
Cl      36.45807645      25.42378712      20.39879026      -0.06068954       0.06241652      -0.05240571      -4.69973183
Cl      24.65309121      27.68733428      26.54055542       0.00357994      -0.02350442      -0.01635257      -4.84757519
Cl       1.34110529      45.98611938      27.69680579      -0.03206546      -0.01596581       0.02384135      -4.74745369
Cl      40.06832340      26.98360867       3.56168588      -0.03397497       0.05366366      -0.05248297      -4.74267149
Cl      21.53086816      14.43360706      33.05258956       0.02409832       0.00081518       0.03615786      -4.90442085
Na      49.11856131      23.85287430       4.70154299       0.04488410      -0.01534665      -0.01145974      -1.18341970
Na       8.99432653      54.06737812      27.98062651      -0.00570163       0.00921837      -0.03679660      -1.27358544
Na      21.33015873       2.35205164      38.40373599      -0.05274627      -0.01802989       0.07178481      -1.25611758
Na      56.78380162      53.69416907      22.18143418      -0.02632480       0.01433804       0.01783735      -1.03911710
Na      23.45335600      44.70574092      16.48210611      -0.01849284       0.02868982      -0.00272794      -1.16594756
Na      13.56316108      25.45169375      14.39267494      -0.00343334      -0.01881373       0.05290076      -1.22163808
Na      30.07150031      36.24849417      11.12851525       0.07712587      -0.00875535      -0.01173008      -1.18864751
Na      58.13373083       4.68719429      51.54165194       0.06369011       0.02127302      -0.00262262      -1.24549603
Na      21.59688581       8.30837886       1.35125341       0.03503900      -0.01228833      -0.04373864      -1.32131624
Na      34.21093228      28.09458264       0.00513769      -0.01631380      -0.01363939      -0.01715498      -1.16918087
Na       3.54900906      43.00991614      54.10672804       0.03780858      -0.02662105      -0.07024317      -1.10307431
Na      33.70931241       5.35296574      37.11012479       0.08457249      -0.01693229      -0.04402454      -1.22851729
Na      34.35588153      54.00373874      27.67803517       0.00651369      -0.01314696      -0.05082134      -1.25594664
Na      20.75566856      13.21907181      50.06801448      -0.08964378       0.07089391       0.08429299      -1.16375995
Na      57.11120770      36.05647286      18.69389448       0.02695512       0.05512713       0.02226507      -1.38379800
Na      12.28030480      26.22525298      10.95952248       0.00822759      -0.04112370       0.01814567      -1.24673617
Na       8.49391524      20.82140031      20.18173542      -0.01099065      -0.09854495      -0.02999299      -1.30422831
Na      44.73857466       0.89740831       6.46565409      -0.00329189      -0.01596867      -0.00310504      -1.23727393
Na      12.87060538      14.73537323      18.28618628      -0.00926354      -0.02737854      -0.00991179      -1.24766624
Na       7.83058523      17.29259278      13.46788125      -0.00901788      -0.01542329       0.03860240      -1.24622655
Na      16.66147050       8.37035465      36.06245368       0.03741948      -0.08309501       0.06305141      -1.21957898
Na      26.88737729      35.78662431       0.29315056       0.04864698       0.05359927       0.00004445      -1.20907700
Na      30.37546544      43.15842579      58.35320819       0.03015803      -0.03767589      -0.01153729      -1.40401840
Na      22.58453278      49.90461310      26.10874157      -0.01781024      -0.02945603       0.02390455      -1.26923537
Na      32.82856831      25.58835811       2.16154905       0.02094814       0.01489846      -0.02420206      -1.20583677
Na      24.04306765      19.67957888       1.87986371       0.03070072       0.06943543      -0.01677225      -1.36267304
Na       3.97868161      46.64360738      13.07168021       0.04307736      -0.10990871       0.09727900      -1.14941132
Na      40.90114034      22.00215717      40.97830098      -0.00236079       0.02336798      -0.05063797      -1.13219225
Na      16.39143121       7.48373904      44.89428470      -0.06298884       0.07220311       0.02160749      -1.28227782
Na       4.71502716      20.20370235      47.23602348      -0.00365334      -0.06044994      -0.05624530      -1.26266932
Na      11.67778943       3.39881361      48.43623575       0.05183137      -0.02498578      -0.00118623      -1.35231185
Na      11.34811673       9.61492739      32.45928156      -0.03938818      -0.00174482       0.00325707      -1.30939078
Na      39.61595480      58.39382831      38.70176501       0.01040241      -0.00722293      -0.01942316      -1.23267531
Na      35.36170394       9.75096317       8.38363031      -0.05201099       0.02367799      -0.00341049      -1.16137576
Na      11.03701778       3.77374106      12.44704371       0.03829383      -0.01932259       0.02266740      -1.26006985
Na      14.78288165      26.16656713      32.63569413       0.05600179      -0.06824578       0.06978372      -1.25874782
Na      53.94774797      33.39216363      37.94165192       0.04610421       0.00819591       0.01244331      -1.28974581
Na      19.47370252       6.23523536      27.79229678      -0.06472215       0.00073545       0.03621967      -1.17976046
Na      29.44862080       3.28228979      30.29095153      -0.07000808      -0.03368299      -0.00028754      -1.20172453
Na      31.86690265      32.50827925      39.17221251       0.03860667       0.01011349       0.10222036      -1.11785531
Na      31.14970535      26.71193577      50.69297478       0.02280532      -0.02499590      -0.00832703      -1.14850044
Na      37.41530528      55.59439462       3.07565726      -0.03203176       0.00309935       0.01785185      -1.27845705
Na      11.57858036      29.19511964      13.54406634       0.04054458       0.01735814      -0.01854573      -1.30761051
Na       2.18596767      39.51925825      10.89710842      -0.09549572       0.01157787       0.08263644      -1.15354204
Na      37.79091482      45.56991157      35.06408931      -0.05022956       0.02754268      -0.02704444      -1.31728029
Na      43.54483245      15.68172481      54.97878331       0.00634025       0.02909794      -0.01018951      -1.21386254
Na      36.66242901      57.38387337      26.31577261      -0.00009932       0.00926938      -0.04414883      -1.13764024
Na      16.35481475      33.45855618      33.65226962      -0.03401357      -0.01453565      -0.08100130      -1.18394995
Na      19.42423394       1.44707194       3.07198949      -0.02771546       0.04031777       0.11050436      -1.05262339
Na      25.71027710      42.26893291      49.96132676       0.06882744      -0.03583864      -0.03662961      -1.16658854
Cl      18.75173104       3.61346420      49.28652433       0.03341801      -0.01742807      -0.19539407      -4.64188957
Cl      43.71252361      53.22361529      53.63675569      -0.02636246      -0.07383723       0.07197437      -4.74177074
Cl      15.38832691      50.21242656      20.22426612       0.03539931      -0.01320367      -0.02175623      -4.85831881
Cl      50.63459862      10.96986023      10.94658091      -0.02536080       0.02753846      -0.03309571      -4.54522324
Cl      18.74290410      52.02710095       2.31848112       0.01820775       0.06819566       0.01137494      -4.96492958
Cl      29.67826094      46.13741069      52.65355570       0.06327926       0.01054216      -0.02392670      -4.85111570
Cl      15.92817805      11.22060695      30.16714753      -0.01075623       0.00331964       0.00892564      -4.87589073
Cl      43.78303879      46.18465977      18.88994779      -0.01458343      -0.03003243       0.00493166      -4.84151220
Cl      34.67564146      51.36427698      21.29707309      -0.02091702       0.09018765       0.05275587      -4.75690889
Cl      10.04838192      50.44488982       9.87221613      -0.09907733       0.05827556      -0.02589311      -4.55963373
Cl      11.65012197       9.74305668      27.46636911       0.03956896      -0.01115194       0.03180695      -4.97570992
Cl      25.21932587      36.49521916      48.02454883      -0.01692342      -0.03058066      -0.05777611      -4.57716179
Cl       5.77229223      18.64961170      43.84894215      -0.05344183       0.01682333      -0.01334585      -4.72311783
Cl      35.21474442      40.42505986      30.25204775      -0.00932669      -0.01554108      -0.05776748      -5.00194740
Cl      54.22007111      46.01976826      43.82384023      -0.01604252      -0.02557970       0.02067560      -4.85765171
Cl      26.39524479      19.50983962      21.38615816       0.05525787       0.00725306       0.00430272      -4.64363909
Cl       3.47659600      26.93981518      27.08839064      -0.03439862       0.00955482      -0.00942721      -4.94810820
Cl      25.79449263      15.62383906       5.92686055       0.02062648      -0.01775076       0.02786565      -4.78875828
Cl      32.37602388      28.87244139       7.64487061       0.11854793       0.00534467      -0.10387258      -4.64776230
Cl       3.17465179      25.62673964      34.03713138      -0.05857199      -0.09004211      -0.03156682      -4.84191513
Cl       3.34186870      24.88406766      37.71419618      -0.09461748       0.07473335       0.05332791      -4.82332516
Cl      43.40768357      57.01800362      26.79739507       0.01935518       0.00837414      -0.01939233      -4.79641294
Cl      51.72597570      58.51251125      22.68782170      -0.02882645       0.03475771       0.05792522      -4.81339169
Cl       2.76195345      22.76466668      27.47295243      -0.04309062       0.02290357      -0.01253767      -4.92758179
Cl      56.48900982      33.86660353      16.77021122       0.06295461       0.01938639      -0.01610591      -4.87657595
Cl       7.72697636      47.88065686      21.80094563      -0.03180779      -0.02030413       0.04600950      -4.82362843
Cl      50.75391302      37.28612533      27.87832044      -0.00793008      -0.03409189      -0.03109365      -5.00510883
Cl      37.68492938      47.16686521      25.58385512       0.13624416       0.03111490       0.09162830      -4.95990705
Cl      11.74302791      31.02748240      54.69311128       0.02033680      -0.02408458      -0.00952564      -4.75998116
Cl      32.44606749      14.51591320       1.62971796       0.01848821       0.09663869      -0.02080014      -4.67535305
Cl       2.33911774       4.72172813      31.03815526       0.00295064       0.13775459      -0.01384133      -4.80300808
Cl      42.82351842      49.62385815      27.22784968      -0.04540697      -0.04145730       0.01244388      -4.81946373
Cl       7.23596399      35.58774849      32.37559388      -0.02402387      -0.00351231       0.01743024      -4.81551075
Cl      48.83273050      34.24080000      25.38506003       0.01308658      -0.02671769      -0.08995889      -4.66216612
Cl      38.36908223       2.92872703      47.37484874       0.02504790       0.03441161      -0.01548292      -4.83569098
Cl       7.18052927      44.00869954      58.04322891      -0.03851390      -0.01182257      -0.04123649      -4.89428473
Cl      33.94021002      16.04313275      54.67731758       0.01700691      -0.05977746       0.05505540      -4.91936064
Cl      16.48607244       5.74885351      52.85756270       0.01147852       0.00870492      -0.00763025      -4.83961773
Cl      55.51973866      55.96053405      23.06783148      -0.01791644      -0.03923221      -0.01068928      -4.79814625
Cl      13.26899259      43.17473244      30.34076268      -0.02823246       0.02329197       0.00666340      -4.68420506
Cl      24.48104117      20.51829623      57.69078295       0.03204641      -0.02405413       0.02909684      -4.96361637
Cl      43.64595687      42.51103243      49.35362821       0.00995271      -0.03825580       0.04537091      -4.88074780
Cl      53.15857186      39.05564266       1.40557516      -0.02380950      -0.00337280      -0.06114460      -4.73894310
Cl      13.76088191      22.99263073      16.09723363      -0.03644801       0.08659074       0.04950319      -4.85335016
Cl      57.62709515      24.25387969       5.05941510      -0.02562271      -0.02212764       0.06002794      -4.72941399
Cl      36.45807622      25.42378699      35.03065724      -0.06068929       0.06242139      -0.05240622      -4.69972992
Cl      24.65309121      27.68733424      41.17242246       0.00357867      -0.02350502      -0.01635480      -4.84757423
Cl       1.34110529      45.98611931      42.32867284      -0.03206673      -0.01596593       0.02384002      -4.74745321
Cl      40.06832321      26.98360901      18.19355316      -0.03397564       0.05366349      -0.05248743      -4.74267149
Cl      21.53086819      14.43360701      47.68445663       0.02409673       0.00081460       0.03616231      -4.90441990
Na      49.11856156      38.48474151      19.33341007       0.04488087      -0.01534521      -0.01146260      -1.18342018
Na       8.99432657      10.17177743      42.61249334      -0.00570379       0.00921862      -0.03679082      -1.27358663
Na      21.33015875      16.98391891      53.03560321      -0.05274297      -0.01802973       0.07178887      -1.25611734
Na      56.78380208       9.79856775      36.81330119      -0.02632626       0.01434024       0.01783830      -1.03911674
Na      23.45335567       0.81013946      31.11397340      -0.01849105       0.02869042      -0.00273031      -1.16594756
Na      13.56316103      40.08356069      29.02454178      -0.00343357      -0.01881513       0.05290040      -1.22163785
Na      30.07150035      50.88036112      25.76038237       0.07712574      -0.00875585      -0.01172982      -1.18864679
Na      58.13373076      19.31906172       7.64605125       0.06369035       0.02127335      -0.00262145      -1.24549627
Na      21.59688588      22.94024603      15.98312129       0.03503889      -0.01228899      -0.04373836      -1.32131588
Na      34.21093234      42.72644968      14.63700533      -0.01631670      -0.01363435      -0.01715426      -1.16918063
Na       3.54900867      57.64178465      10.21112704       0.03780899      -0.02662187      -0.07023911      -1.10307384
Na      33.70931266      19.98483305      51.74199197       0.08457126      -0.01693491      -0.04402313      -1.22851753
Na      34.35588170      10.10813733      42.30990218       0.00651368      -0.01314514      -0.05081763      -1.25594676
Na      20.75566868      27.85093896       6.17241327      -0.08964409       0.07089262       0.08429597      -1.16375983
Na      57.11120786      50.68833978      33.32576150       0.02695676       0.05512697       0.02226921      -1.38379860
Na      12.28030485      40.85711995      25.59138959       0.00822688      -0.04112605       0.01814760      -1.24673593
Na       8.49391527      35.45326736      34.81360247      -0.01099021      -0.09854271      -0.02999325      -1.30422890
Na      44.73857523      15.52927643      21.09752074      -0.00329416      -0.01597521      -0.00310517      -1.23727441
Na      12.87060533      29.36724027      32.91805319      -0.00926249      -0.02737727      -0.00991155      -1.24766636
Na       7.83058518      31.92445958      28.09974835      -0.00901675      -0.01542068       0.03859866      -1.24622679
Na      16.66147045      23.00222147      50.69432082       0.03742044      -0.08309770       0.06305063      -1.21957850
Na      26.88737687      50.41849137      14.92501837       0.04865258       0.05360480       0.00005000      -1.20907664
Na      30.37546523      57.79029340      14.45760670       0.03015606      -0.03767994      -0.01153927      -1.40401769
Na      22.58453284       6.00901206      40.74060903      -0.01780881      -0.02945535       0.02390424      -1.26923513
Na      32.82856861      40.22022488      16.79341649       0.02094946       0.01489691      -0.02420316      -1.20583642
Na      24.04306754      34.31144590      16.51173122       0.03070112       0.06943570      -0.01677454      -1.36267304
Na       3.97868149       2.74800620      27.70354702       0.04308049      -0.10990463       0.09728068      -1.14941072
Na      40.90114028      36.63402407      55.61016840      -0.00235635       0.02336497      -0.05063464      -1.13219213
Na      16.39143140      22.11560580       0.99868354      -0.06298772       0.07220144       0.02160640      -1.28227735
Na       4.71502711      34.83556938       3.34042282      -0.00365106      -0.06044510      -0.05624790      -1.26266932
Na      11.67778945      18.03068105       4.54063470       0.05183159      -0.02498407      -0.00118085      -1.35231161
Na      11.34811671      24.24679455      47.09114841      -0.03938762      -0.00174413       0.00325749      -1.30939078
Na      39.61595489      14.49822673      53.33363224       0.01040147      -0.00722477      -0.01942871      -1.23267484
Na      35.36170390      24.38283014      23.01549731      -0.05201042       0.02367780      -0.00341024      -1.16137588
Na      11.03701775      18.40560845      27.07891068       0.03829483      -0.01932619       0.02266552      -1.26006961
Na      14.78288160      40.79843432      47.26756123       0.05600416      -0.06825056       0.06977676      -1.25874758
Na      53.94774789      48.02403031      52.57351901       0.04610597       0.00819436       0.01243636      -1.28974462
Na      19.47370256      20.86710271      42.42416344      -0.06472112       0.00073292       0.03622042      -1.17976046
Na      29.44862072      17.91415710      44.92281884      -0.07000557      -0.03368383      -0.00028725      -1.20172620
Na      31.86690300      47.14014598      53.80407950       0.03860213       0.01011282       0.10221680      -1.11785460
Na      31.14970530      41.34380266       6.79737326       0.02280657      -0.02500259      -0.00832742      -1.14850008
Na      37.41530462      11.69879336      17.70752483      -0.03203215       0.00309881       0.01785093      -1.27845705
Na      11.57858027      43.82698680      28.17593335       0.04054492       0.01735406      -0.01854615      -1.30761003
Na       2.18596800      54.15112572      25.52897531      -0.09549793       0.01157308       0.08263680      -1.15354168
Na      37.79091492       1.67430952      49.69595697      -0.05022903       0.02754613      -0.02704416      -1.31728089
Na      43.54483216      30.31359184      11.08318175       0.00634877       0.02909858      -0.01019190      -1.21386194
Na      36.66242848      13.48827245      40.94763910      -0.00009873       0.00927217      -0.04414713      -1.13764095
Na      16.35481490      48.09042349      48.28413704      -0.03401387      -0.01453972      -0.08100212      -1.18395066
Na      19.42423485      16.07893984      17.70385711      -0.02771664       0.04031636       0.11050325      -1.05262375
Na      25.71027764      56.90080112       6.06572511       0.06882761      -0.03584914      -0.03662608      -1.16658902
Cl      18.75173103      18.24533119       5.39092328       0.03341846      -0.01742921      -0.19539398      -4.64189053
Cl      43.71252371       9.32801417       9.74115449      -0.02635935      -0.07384124       0.07197610      -4.74177170
Cl      15.38832684       6.31682541      34.85613307       0.03539910      -0.01320600      -0.02175590      -4.85831738
Cl      50.63459870      25.60172728      25.57844796      -0.02536195       0.02754188      -0.03309371      -4.54522228
Cl      18.74290440       8.13149980      16.95034816       0.01820746       0.06818991       0.01137435      -4.96493006
Cl      29.67826087       2.24180929       8.75795452       0.06327946       0.01053974      -0.02392719      -4.85111475
Cl      15.92817822      25.85247388      44.79901450      -0.01075790       0.00331896       0.00892566      -4.87588978
Cl      43.78303883       2.28905870      33.52181473      -0.01458602      -0.03004021       0.00493103      -4.84151077
Cl      34.67564160       7.46867597      35.92894045      -0.02091757       0.09018472       0.05275961      -4.75690889
Cl      10.04838189       6.54928845      24.50408308      -0.09907896       0.05827554      -0.02589488      -4.55963516
Cl      11.65012201      24.37492348      42.09823609       0.03957049      -0.01115173       0.03180916      -4.97570992
Cl      25.21932586      51.12708628       4.12894784      -0.01692219      -0.03057912      -0.05777980      -4.57716227
Cl       5.77229235      33.28147943      -0.04666073      -0.05344460       0.01682464      -0.01334362      -4.72311831
Cl      35.21474447      55.05692682      44.88391466      -0.00933039      -0.01553757      -0.05776701      -5.00194502
Cl      54.22007105       2.12416701      -0.07176213      -0.01604231      -0.02558690       0.02068023      -4.85765076
Cl      26.39524489      34.14170659      36.01802513       0.05526043       0.00725123       0.00430207      -4.64363861
Cl       3.47659597      41.57168228      41.72025742      -0.03439855       0.00955504      -0.00942679      -4.94810915
Cl      25.79449262      30.25570607      20.55872770       0.02062586      -0.01775252       0.02786714      -4.78875923
Cl      32.37602379      43.50430821      22.27673751       0.11855140       0.00535347      -0.10386914      -4.64776325
Cl       3.17465198      40.25860648      48.66899823      -0.05857474      -0.09003948      -0.03156346      -4.84191513
Cl       3.34186897      39.51593441      52.34606307      -0.09461815       0.07473411       0.05332825      -4.82332468
Cl      43.40768364      13.12240198      41.42926218       0.01935238       0.00837283      -0.01939642      -4.79641247
Cl      51.72597542      14.61690922      37.31968899      -0.02882569       0.03475903       0.05792331      -4.81339264
Cl       2.76195348      37.39653349      42.10481947      -0.04309032       0.02290391      -0.01253945      -4.92758369
Cl      56.48900976      48.49847060      31.40207835       0.06295220       0.01938576      -0.01610681      -4.87657690
Cl       7.72697647       3.98505575      36.43281256      -0.03180910      -0.02030444       0.04600957      -4.82362700
Cl      50.75391304      51.91799233      42.51018753      -0.00793331      -0.03409429      -0.03109740      -5.00510740
Cl      37.68492943       3.27126431      40.21572231       0.13624313       0.03111570       0.09162478      -4.95990658
Cl      11.74302794      45.65934907      10.79751013       0.02033538      -0.02407920      -0.00952233      -4.75998020
Cl      32.44606743      29.14778018      16.26158552       0.01848937       0.09664093      -0.02079702      -4.67535305
Cl       2.33911767      19.35359532      45.67002222       0.00295225       0.13775499      -0.01384139      -4.80300808
Cl      42.82351847       5.72825706      41.85971698      -0.04540455      -0.04145598       0.01244067      -4.81946468
Cl       7.23596422      50.21961560      47.00746092      -0.02402268      -0.00351164       0.01743261      -4.81551218
Cl      48.83273040      48.87266714      40.01692730       0.01308616      -0.02671772      -0.08996094      -4.66216516
Cl      38.36908272      17.56059411       3.47924719       0.02504797       0.03441225      -0.01548893      -4.83569145
Cl       7.18052894      58.64056745      14.14762697      -0.03851034      -0.01182122      -0.04123662      -4.89428711
Cl      33.94021028      30.67499943      10.78171655       0.01700837      -0.05977514       0.05505809      -4.91936064
Cl      16.48607240      20.38072073       8.96196165       0.01148030       0.00870628      -0.00763113      -4.83961773
Cl      55.51973861      12.06493236      37.69969858      -0.01791659      -0.03923279      -0.01069320      -4.79814911
Cl      13.26899248      57.80659977      44.97262952      -0.02823153       0.02329250       0.00666263      -4.68420506
Cl      24.48104144      35.15016350      13.79518110       0.03204690      -0.02405281       0.02909984      -4.96361685
Cl      43.64595687      57.14290053       5.45802682       0.00995283      -0.03826416       0.04536956      -4.88074923
Cl      53.15857173      53.68750976      16.03744261      -0.02380931      -0.00337847      -0.06114666      -4.73894215
Cl      13.76088209      37.62449794      30.72910064      -0.03644700       0.08659360       0.04950344      -4.85335016
Cl      57.62709512      38.88574654      19.69128227      -0.02562281      -0.02212565       0.06002848      -4.72941351
Cl      36.45807626      40.05565425      49.66252440      -0.06069053       0.06242611      -0.05240397      -4.69973087
Cl      24.65309128      42.31920157      55.80428980       0.00357895      -0.02350625      -0.01635219      -4.84757710
Cl       1.34110516       2.09051791      56.96054106      -0.03206491      -0.01596661       0.02384162      -4.74745369
Cl      40.06832327      41.61547607      32.82541992      -0.03397496       0.05366702      -0.05248256      -4.74267197
Cl      21.53086814      29.06547400       3.78885525       0.02409866       0.00081574       0.03615775      -4.90442038
Na      49.11856141      38.48474142      33.96527712       0.04488277      -0.01534617      -0.01146464      -1.18342042
Na       8.99432673      10.17177716      57.24436160      -0.00570403       0.00921856      -0.03679541      -1.27358603
Na      21.33015878      16.98391916       9.14000179      -0.05274430      -0.01803109       0.07178621      -1.25611758
Na      56.78380212       9.79856788      51.44516846      -0.02632480       0.01434050       0.01784294      -1.03911638
Na      23.45335567       0.81013960      45.74584017      -0.01849169       0.02868971      -0.00273333      -1.16594815
Na      13.56316083      40.08356082      43.65640861      -0.00343359      -0.01881447       0.05290163      -1.22163844
Na      30.07150032      50.88036106      40.39224922       0.07712683      -0.00875481      -0.01172990      -1.18864691
Na      58.13373073      19.31906177      22.27791817       0.06369119       0.02127242      -0.00262093      -1.24549651
Na      21.59688595      22.94024601      30.61498827       0.03503868      -0.01229057      -0.04373785      -1.32131600
Na      34.21093238      42.72644976      29.26887238      -0.01631623      -0.01363420      -0.01715672      -1.16918039
Na       3.54900864      57.64178455      24.84299396       0.03780984      -0.02662073      -0.07024198      -1.10307384
Na      33.70931253      19.98483280       7.84639081       0.08457098      -0.01693615      -0.04402156      -1.22851682
Na      34.35588160      10.10813764      56.94176961       0.00651508      -0.01314651      -0.05081782      -1.25594711
Na      20.75566852      27.85093891      20.80428035      -0.08964510       0.07089260       0.08429553      -1.16376042
Na      57.11120791      50.68833975      47.95762862       0.02695391       0.05512638       0.02226486      -1.38379836
Na      12.28030474      40.85711973      40.22325662       0.00822839      -0.04112542       0.01815247      -1.24673557
Na       8.49391516      35.45326729      49.44546952      -0.01098974      -0.09854289      -0.02999375      -1.30422878
Na      44.73857519      15.52927648      35.72938783      -0.00329392      -0.01597623      -0.00310868      -1.23727357
Na      12.87060533      29.36724032      47.54992016      -0.00926275      -0.02737730      -0.00990966      -1.24766648
Na       7.83058521      31.92445970      42.73161508      -0.00901527      -0.01542019       0.03859644      -1.24622679
Na      16.66147042      23.00222149       6.79871971       0.03742016      -0.08309666       0.06305149      -1.21957862
Na      26.88737697      50.41849137      29.55688534       0.04865298       0.05360561       0.00005013      -1.20907640
Na      30.37546514      57.79029337      29.08947366       0.03015627      -0.03768029      -0.01153927      -1.40401757
Na      22.58453307       6.00901182      55.37247628      -0.01781136      -0.02945566       0.02390700      -1.26923513
Na      32.82856851      40.22022496      31.42528355       0.02094899       0.01489567      -0.02419811      -1.20583606
Na      24.04306749      34.31144581      31.14359841       0.03069962       0.06943537      -0.01677314      -1.36267292
Na       3.97868151       2.74800609      42.33541381       0.04307779      -0.10990607       0.09727951      -1.14941120
Na      40.90114062      36.63402381      11.71456675      -0.00235802       0.02336535      -0.05063743      -1.13219190
Na      16.39143130      22.11560601      15.63055061      -0.06298882       0.07220158       0.02160601      -1.28227758
Na       4.71502719      34.83556916      17.97228962      -0.00365163      -0.06044444      -0.05624817      -1.26266897
Na      11.67778927      18.03068107      19.17250180       0.05183165      -0.02498489      -0.00118128      -1.35231137
Na      11.34811667      24.24679444       3.19554688      -0.03938841      -0.00174465       0.00325875      -1.30939090
Na      39.61595487      14.49822673       9.43803089       0.01040193      -0.00722288      -0.01942800      -1.23267496
Na      35.36170388      24.38283014      37.64736425      -0.05201017       0.02367714      -0.00341084      -1.16137612
Na      11.03701779      18.40560831      41.71077756       0.03829414      -0.01932609       0.02266886      -1.26006937
Na      14.78288162      40.79843419       3.37195966       0.05600289      -0.06824817       0.06978118      -1.25874734
Na      53.94774789      48.02403041       8.67791768       0.04610559       0.00819383       0.01244181      -1.28974533
Na      19.47370248      20.86710289      57.05603070      -0.06472123       0.00073430       0.03622004      -1.17976081
Na      29.44862081      17.91415655       1.02721759      -0.07000756      -0.03368293      -0.00028841      -1.20172596
Na      31.86690266      47.14014618       9.90847847       0.03860313       0.01011172       0.10221727      -1.11785519
Na      31.14970535      41.34380290      21.42924061       0.02280813      -0.02500317      -0.00832935      -1.14850032
Na      37.41530467      11.69879330      32.33939161      -0.03203140       0.00309870       0.01785306      -1.27845657
Na      11.57858027      43.82698669      42.80780023       0.04054556       0.01735541      -0.01854313      -1.30761099
Na       2.18596799      54.15112575      40.16084223      -0.09549864       0.01157293       0.08263496      -1.15354156
Na      37.79091501       1.67430962       5.80035554      -0.05022887       0.02754457      -0.02704245      -1.31728113
Na      43.54483208      30.31359180      25.71504892       0.00634900       0.02909965      -0.01019345      -1.21386254
Na      36.66242847      13.48827228      55.57950658      -0.00009982       0.00927084      -0.04414719      -1.13764095
Na      16.35481477      48.09042344       4.38853599      -0.03401519      -0.01453847      -0.08099937      -1.18394995
Na      19.42423487      16.07893980      32.33572417      -0.02771765       0.04031626       0.11050396      -1.05262363
Na      25.71027764      56.90080108      20.69759240       0.06882739      -0.03584790      -0.03662384      -1.16658914
Cl      18.75173112      18.24533115      20.02279024       0.03341837      -0.01742804      -0.19539393      -4.64189053
Cl      43.71252368       9.32801416      24.37302146      -0.02635970      -0.07384135       0.07197731      -4.74177170
Cl      15.38832698       6.31682545      49.48800041       0.03540079      -0.01320534      -0.02175347      -4.85831833
Cl      50.63459863      25.60172718      40.21031497      -0.02536106       0.02753993      -0.03309496      -4.54522324
Cl      18.74290435       8.13149991      31.58221515       0.01820800       0.06819117       0.01137511      -4.96492910
Cl      29.67826076       2.24180928      23.38982163       0.06327927       0.01053944      -0.02392670      -4.85111427
Cl      15.92817800      25.85247397       0.90341315      -0.01075911       0.00331863       0.00892468      -4.87588978
Cl      43.78303878       2.28905860      48.15368175      -0.01458581      -0.03004045       0.00493155      -4.84151077
Cl      34.67564157       7.46867579      50.56080735      -0.02091749       0.09018576       0.05275872      -4.75690889
Cl      10.04838203       6.54928836      39.13594988      -0.09907645       0.05827775      -0.02588704      -4.55963421
Cl      11.65012206      24.37492362      56.73010363       0.03956848      -0.01115154       0.03181193      -4.97570992
Cl      25.21932575      51.12708606      18.76081490      -0.01692311      -0.03058056      -0.05777879      -4.57716322
Cl       5.77229228      33.28147899      14.58520811      -0.05344367       0.01682380      -0.01334412      -4.72311878
Cl      35.21474433      55.05692661       0.98831323      -0.00932991      -0.01553723      -0.05776906      -5.00194550
Cl      54.22007104       2.12416689      14.56010597      -0.01604256      -0.02558626       0.02068072      -4.85765123
Cl      26.39524477      34.14170677      50.64989249       0.05525845       0.00725140       0.00430735      -4.64363861
Cl       3.47659608      41.57168253      56.35212499      -0.03439736       0.00955261      -0.00942298      -4.94810820
Cl      25.79449280      30.25570637      35.19059459       0.02062466      -0.01775351       0.02786938      -4.78876066
Cl      32.37602396      43.50430827      36.90860478       0.11855060       0.00535391      -0.10386911      -4.64776373
Cl       3.17465198      40.25860679       4.77339723      -0.05857432      -0.09003945      -0.03156592      -4.84191418
Cl       3.34186874      39.51593446       8.45046198      -0.09461831       0.07473412       0.05332394      -4.82332325
Cl      43.40768367      13.12240201      56.06112991       0.01935349       0.00837439      -0.01939269      -4.79641342
Cl      51.72597554      14.61690933      51.95155553      -0.02882588       0.03475887       0.05792669      -4.81339359
Cl       2.76195360      37.39653367      56.73668684      -0.04308866       0.02290438      -0.01253792      -4.92758226
Cl      56.48900983      48.49847043      46.03394522       0.06295499       0.01938850      -0.01610941      -4.87657547
Cl       7.72697648       3.98505573      51.06467991      -0.03180547      -0.02030332       0.04601275      -4.82362604
Cl      50.75391313      51.91799273      57.14205570      -0.00792974      -0.03409155      -0.03109692      -5.00510788
Cl      37.68492930       3.27126433      54.84758974       0.13624066       0.03111397       0.09161913      -4.95990705
Cl      11.74302783      45.65934903      25.42937699       0.02033684      -0.02407884      -0.00952106      -4.75997972
Cl      32.44606737      29.14778013      30.89345244       0.01848999       0.09664106      -0.02079488      -4.67535400
Cl       2.33911780      19.35359521       1.77442119       0.00295076       0.13775297      -0.01384413      -4.80300760
Cl      42.82351832       5.72825721      56.49158410      -0.04540875      -0.04145607       0.01244399      -4.81946421
Cl       7.23596413      50.21961558       3.11185914      -0.02402161      -0.00351090       0.01743258      -4.81551170
Cl      48.83273041      48.87266733      54.64879396       0.01308721      -0.02672223      -0.08996271      -4.66216564
Cl      38.36908251      17.56059436      18.11111470       0.02504829       0.03441147      -0.01548889      -4.83569050
Cl       7.18052895      58.64056753      28.77949388      -0.03851021      -0.01182165      -0.04123479      -4.89428711
Cl      33.94021023      30.67499935      25.41358358       0.01700854      -0.05977575       0.05505798      -4.91936111
Cl      16.48607245      20.38072064      23.59382858       0.01148048       0.00870557      -0.00763011      -4.83961773
Cl      55.51973859      12.06493243      52.33156580      -0.01791629      -0.03923354      -0.01068809      -4.79814720
Cl      13.26899249      57.80659995       1.07702811      -0.02823285       0.02329330       0.00666615      -4.68420506
Cl      24.48104141      35.15016353      28.42704815       0.03204641      -0.02405233       0.02910205      -4.96361732
Cl      43.64595691      57.14290035      20.08989410       0.00995462      -0.03825459       0.04537274      -4.88074875
Cl      53.15857156      53.68750976      30.66930942      -0.02380924      -0.00337946      -0.06114679      -4.73894310
Cl      13.76088203      37.62449775      45.36096767      -0.03644835       0.08659285       0.04949878      -4.85334873
Cl      57.62709509      38.88574652      34.32314945      -0.02562196      -0.02212431       0.06002410      -4.72941208
Cl      36.45807637      40.05565430       5.76692314      -0.06069095       0.06242632      -0.05240526      -4.69972897
Cl      24.65309136      42.31920137      11.90868835       0.00357983      -0.02350576      -0.01635045      -4.84757614
Cl       1.34110512       2.09051801      13.06493899      -0.03206485      -0.01596669       0.02384344      -4.74745369
Cl      40.06832328      41.61547616      47.45728707      -0.03397335       0.05366816      -0.05248069      -4.74267292
Cl      21.53086812      29.06547398      18.42072277       0.02409804       0.00081700       0.03615821      -4.90442038
Na      49.11856151      38.48474149      48.59714408       0.04488251      -0.01534619      -0.01146451      -1.18342018
Na       8.99432651      10.17177737      13.34875955      -0.00570321       0.00921916      -0.03679502      -1.27358603
Na      21.33015874      16.98391903      23.77186913      -0.05274452      -0.01803177       0.07178259      -1.25611746
Na      56.78380202       9.79856785       7.54956702      -0.02632516       0.01433993       0.01783645      -1.03911650
Na      23.45335541       0.81013979       1.85023861      -0.01849092       0.02869098      -0.00272985      -1.16594768
Na      13.56316107      40.08356071      58.28827658      -0.00343385      -0.01881537       0.05290052      -1.22163785
Na      30.07150028      50.88036124      55.02411679       0.07712561      -0.00875588      -0.01172885      -1.18864703
Na      58.13373063      19.31906166      36.90978527       0.06368946       0.02127422      -0.00262413      -1.24549627
Na      21.59688594      22.94024608      45.24685539       0.03503961      -0.01228795      -0.04374038      -1.32131648
Na      34.21093224      42.72644967      43.90073941      -0.01631868      -0.01363502      -0.01715184      -1.16918135
Na       3.54900871      57.64178454      39.47486100       0.03780992      -0.02662211      -0.07024109      -1.10307336
Na      33.70931244      19.98483277      22.47825790       0.08457217      -0.01693367      -0.04402405      -1.22851706
Na      34.35588168      10.10813735      13.04616821       0.00651398      -0.01314447      -0.05081950      -1.25594687
Na      20.75566848      27.85093885      35.43614731      -0.08964562       0.07089245       0.08429742      -1.16375995
Na      57.11120788      50.68833980       4.06202726       0.02695624       0.05512634       0.02226786      -1.38379860
Na      12.28030486      40.85711995      54.85512407       0.00822608      -0.04112481       0.01814143      -1.24673569
Na       8.49391527      35.45326731       5.54986834      -0.01099042      -0.09854335      -0.02999371      -1.30422866
Na      44.73857528      15.52927664      50.36125530      -0.00329527      -0.01597605      -0.00310863      -1.23727441
Na      12.87060526      29.36724024       3.65431898      -0.00926279      -0.02737780      -0.00991184      -1.24766660
Na       7.83058525      31.92445977      57.36348276      -0.00901712      -0.01542064       0.03860192      -1.24622667
Na      16.66147049      23.00222155      21.43058673       0.03742077      -0.08309560       0.06305193      -1.21957827
Na      26.88737689      50.41849137      44.18875235       0.04865431       0.05360502       0.00005465      -1.20907712
Na      30.37546517      57.79029334      43.72134091       0.03015666      -0.03768037      -0.01153910      -1.40401793
Na      22.58453290       6.00901200      11.47687477      -0.01780934      -0.02945689       0.02390487      -1.26923537
Na      32.82856843      40.22022493      46.05715053       0.02094985       0.01489686      -0.02420432      -1.20583701
Na      24.04306766      34.31144584      45.77546532       0.03070100       0.06943708      -0.01677551      -1.36267340
Na       3.97868148       2.74800599      56.96728112       0.04307976      -0.10990553       0.09728112      -1.14941072
Na      40.90114066      36.63402376      26.34643384      -0.00235621       0.02336688      -0.05063589      -1.13219178
Na      16.39143120      22.11560592      30.26241774      -0.06298897       0.07220127       0.02160599      -1.28227758
Na       4.71502726      34.83556910      32.60415650      -0.00365253      -0.06044574      -0.05624770      -1.26266956
Na      11.67778915      18.03068106      33.80436887       0.05183256      -0.02498391      -0.00117794      -1.35231185
Na      11.34811671      24.24679457      17.82741436      -0.03938790      -0.00174535       0.00325887      -1.30939078
Na      39.61595490      14.49822676      24.06989808       0.01040075      -0.00722453      -0.01942982      -1.23267519
Na      35.36170382      24.38283023      52.27923128      -0.05200615       0.02367702      -0.00341039      -1.16137552
Na      11.03701774      18.40560836      56.34264508       0.03829365      -0.01932420       0.02267157      -1.26007009
Na      14.78288170      40.79843427      18.00382690       0.05600210      -0.06824806       0.06978182      -1.25874746
Na      53.94774781      48.02403052      23.30978490       0.04610658       0.00819398       0.01243756      -1.28974509
Na      19.47370247      20.86710262      13.16042976      -0.06472240       0.00073790       0.03621963      -1.17976046
Na      29.44862075      17.91415702      15.65908478      -0.07000507      -0.03368445      -0.00028943      -1.20172536
Na      31.86690276      47.14014609      24.54034552       0.03860366       0.01011305       0.10221648      -1.11785495
Na      31.14970528      41.34380283      36.06110753       0.02280524      -0.02500289      -0.00832793      -1.14850020
Na      37.41530457      11.69879336      46.97125893      -0.03203133       0.00309924       0.01785062      -1.27845740
Na      11.57857995      43.82698679      57.43966776       0.04054663       0.01735621      -0.01854208      -1.30761063
Na       2.18596822      54.15112569      54.79270940      -0.09549776       0.01157317       0.08263583      -1.15354180
Na      37.79091500       1.67430952      20.43222282      -0.05022987       0.02754514      -0.02704054      -1.31728125
Na      43.54483218      30.31359192      40.34691561       0.00634868       0.02909817      -0.01018862      -1.21386182
Na      36.66242848      13.48827238      11.68390507      -0.00010075       0.00927063      -0.04414731      -1.13764060
Na      16.35481486      48.09042346      19.02040284      -0.03401455      -0.01453868      -0.08099911      -1.18394995
Na      19.42423492      16.07893978      46.96759120      -0.02771578       0.04031584       0.11050398      -1.05262423
Na      25.71027755      56.90080129      35.32945912       0.06882808      -0.03584993      -0.03662961      -1.16658902
Cl      18.75173115      18.24533114      34.65465738       0.03341852      -0.01742775      -0.19539285      -4.64188862
Cl      43.71252368       9.32801419      39.00488843      -0.02635736      -0.07384124       0.07197942      -4.74177170
Cl      15.38832672       6.31682545       5.59239882       0.03539961      -0.01320718      -0.02175720      -4.85831881
Cl      50.63459853      25.60172712      54.84218219      -0.02536151       0.02754005      -0.03309601      -4.54522228
Cl      18.74290432       8.13149981      46.21408203       0.01820865       0.06819014       0.01137672      -4.96492958
Cl      29.67826084       2.24180931      38.02168827       0.06327746       0.01054000      -0.02391726      -4.85111570
Cl      15.92817809      25.85247380      15.53528052      -0.01075742       0.00331885       0.00892505      -4.87589025
Cl      43.78303878       2.28905868       4.25808052      -0.01458664      -0.03003813       0.00493124      -4.84151173
Cl      34.67564155       7.46867592       6.66520627      -0.02091622       0.09018791       0.05275527      -4.75690889
Cl      10.04838211       6.54928834      53.76781741      -0.09907727       0.05827469      -0.02589631      -4.55963659
Cl      11.65012200      24.37492344      12.83450214       0.03956901      -0.01115192       0.03180934      -4.97570992
Cl      25.21932574      51.12708605      33.39268178      -0.01692370      -0.03058098      -0.05777889      -4.57716274
Cl       5.77229228      33.28147896      29.21707515      -0.05344396       0.01682348      -0.01334458      -4.72311878
Cl      35.21474437      55.05692677      15.62018088      -0.00932993      -0.01553690      -0.05776899      -5.00194550
Cl      54.22007103       2.12416694      29.19197290      -0.01604355      -0.02558745       0.02068199      -4.85765171
Cl      26.39524471      34.14170656       6.75429104       0.05525938       0.00725061       0.00430081      -4.64363813
Cl       3.47659603      41.57168222      12.45652361      -0.03439817       0.00955655      -0.00942943      -4.94810772
Cl      25.79449271      30.25570611      49.82246164       0.02062481      -0.01775332       0.02786814      -4.78875923
Cl      32.37602375      43.50430821      51.54047158       0.11855169       0.00535326      -0.10386913      -4.64776373
Cl       3.17465203      40.25860661      19.40526447      -0.05857602      -0.09003817      -0.03156038      -4.84191418
Cl       3.34186878      39.51593446      23.08232903      -0.09461956       0.07473423       0.05332638      -4.82332373
Cl      43.40768372      13.12240196      12.16552829       0.01935288       0.00837294      -0.01939329      -4.79641247
Cl      51.72597545      14.61690928       8.05595448      -0.02882646       0.03475832       0.05792467      -4.81339264
Cl       2.76195342      37.39653345      12.84108540      -0.04308888       0.02290425      -0.01253825      -4.92758226
Cl      56.48900963      48.49847048       2.13834401       0.06295292       0.01938622      -0.01610602      -4.87657547
Cl       7.72697645       3.98505565       7.16907843      -0.03180708      -0.02030335       0.04600745      -4.82362652
Cl      50.75391307      51.91799229      13.24645347      -0.00793434      -0.03409333      -0.03109688      -5.00510788
Cl      37.68492941       3.27126429      10.95198825       0.13624187       0.03111482       0.09162486      -4.95990658
Cl      11.74302798      45.65934910      40.06124413       0.02033677      -0.02408141      -0.00952475      -4.75997972
Cl      32.44606720      29.14778019      45.52531957       0.01849093       0.09664014      -0.02079736      -4.67535305
Cl       2.33911768      19.35359527      16.40628828       0.00295167       0.13775426      -0.01384336      -4.80300903
Cl      42.82351846       5.72825715      12.59598295      -0.04540634      -0.04145604       0.01244383      -4.81946373
Cl       7.23596418      50.21961568      17.74372676      -0.02402167      -0.00351000       0.01743378      -4.81551170
Cl      48.83273042      48.87266709      10.75319291       0.01308572      -0.02671717      -0.08996212      -4.66216469
Cl      38.36908263      17.56059416      32.74298206       0.02504789       0.03441073      -0.01548678      -4.83569145
Cl       7.18052898      58.64056759      43.41136110      -0.03850993      -0.01181961      -0.04123887      -4.89428568
Cl      33.94021020      30.67499943      40.04545072       0.01700867      -0.05977518       0.05505646      -4.91936016
Cl      16.48607243      20.38072074      38.22569578       0.01147899       0.00870704      -0.00763049      -4.83961821
Cl      55.51973865      12.06493237       8.43596448      -0.01791551      -0.03923447      -0.01068970      -4.79814816
Cl      13.26899248      57.80659978      15.70889546      -0.02823298       0.02329247       0.00666477      -4.68420506
Cl      24.48104139      35.15016355      43.05891527       0.03204669      -0.02405343       0.02909961      -4.96361732
Cl      43.64595695      57.14290009      34.72176131       0.00995380      -0.03825295       0.04537379      -4.88074827
Cl      53.15857175      53.68750978      45.30117675      -0.02381232      -0.00337811      -0.06114992      -4.73894119
Cl      13.76088197      37.62449771       1.46536610      -0.03644656       0.08659480       0.04950240      -4.85335016
Cl      57.62709509      38.88574665      48.95501612      -0.02562117      -0.02212588       0.06002601      -4.72941399
Cl      36.45807639      40.05565427      20.39879038      -0.06069043       0.06242546      -0.05240470      -4.69973087
Cl      24.65309119      42.31920144      26.54055543       0.00357987      -0.02350656      -0.01635088      -4.84757614
Cl       1.34110511       2.09051804      27.69680598      -0.03206493      -0.01596664       0.02384285      -4.74745464
Cl      40.06832334      41.61547584       3.56168589      -0.03397419       0.05366715      -0.05248244      -4.74267197
Cl      21.53086815      29.06547399      33.05258959       0.02409809       0.00081643       0.03615832      -4.90442085
Na      49.11856136      38.48474170       4.70154287       0.04488304      -0.01534833      -0.01146210      -1.18342042
Na       8.99432654      10.17177737      27.98062657      -0.00570286       0.00921945      -0.03679689      -1.27358580
Na      21.33015880      16.98391913      38.40373576      -0.05274578      -0.01803163       0.07178567      -1.25611734
Na      56.78380210       9.79856782      22.18143419      -0.02632636       0.01434030       0.01783548      -1.03911638
Na      23.45335552       0.81013957      16.48210621      -0.01849079       0.02869049      -0.00273047      -1.16594768
Na      13.56316102      40.08356076      14.39267481      -0.00343333      -0.01881539       0.05290126      -1.22163796
Na      30.07150032      50.88036117      11.12851527       0.07712583      -0.00875563      -0.01173038      -1.18864703
Na      58.13373072      19.31906166      51.54165195       0.06368975       0.02127239      -0.00262281      -1.24549603
Na      21.59688580      22.94024588       1.35125345       0.03503895      -0.01228913      -0.04373937      -1.32131612
Na      34.21093221      42.72644975       0.00513775      -0.01631736      -0.01363371      -0.01715435      -1.16918111
Na       3.54900878      57.64178440      54.10672829       0.03780849      -0.02662152      -0.07024175      -1.10307360
Na      33.70931257      19.98483285      37.11012473       0.08457289      -0.01693070      -0.04402527      -1.22851706
Na      34.35588166      10.10813737      27.67803526       0.00651390      -0.01314451      -0.05082044      -1.25594640
Na      20.75566859      27.85093883      50.06801440      -0.08964445       0.07089414       0.08429328      -1.16376066
Na      57.11120780      50.68833982      18.69389456       0.02695530       0.05512681       0.02226584      -1.38379824
Na      12.28030485      40.85711990      10.95952255       0.00822627      -0.04112658       0.01814580      -1.24673581
Na       8.49391527      35.45326726      20.18173564      -0.01099167      -0.09854348      -0.02999455      -1.30422878
Na      44.73857500      15.52927638       6.46565379      -0.00329476      -0.01597473      -0.00310708      -1.23727381
Na      12.87060536      29.36724030      18.28618636      -0.00926271      -0.02737841      -0.00991156      -1.24766612
Na       7.83058515      31.92445961      13.46788142      -0.00901708      -0.01542034       0.03860150      -1.24622679
Na      16.66147060      23.00222162      36.06245377       0.03741904      -0.08309766       0.06305071      -1.21957898
Na      26.88737729      50.41849118       0.29315061       0.04864979       0.05359971       0.00004466      -1.20907688
Na      30.37546509      57.79029334      58.35320826       0.03015617      -0.03768012      -0.01153727      -1.40401804
Na      22.58453308       6.00901201      26.10874178      -0.01780945      -0.02945684       0.02390421      -1.26923525
Na      32.82856815      40.22022501       2.16154911       0.02094965       0.01489652      -0.02420017      -1.20583653
Na      24.04306766      34.31144554       1.87986368       0.03070080       0.06943599      -0.01677221      -1.36267328
Na       3.97868149       2.74800621      13.07168011       0.04307963      -0.10990568       0.09727845      -1.14941132
Na      40.90114043      36.63402367      40.97830084      -0.00236108       0.02336347      -0.05064028      -1.13219261
Na      16.39143123      22.11560605      44.89428468      -0.06298888       0.07220122       0.02160826      -1.28227794
Na       4.71502717      34.83556916      47.23602362      -0.00365290      -0.06044505      -0.05624629      -1.26266956
Na      11.67778928      18.03068120      48.43623564       0.05183111      -0.02498706      -0.00118564      -1.35231161
Na      11.34811675      24.24679453      32.45928149      -0.03938840      -0.00174485       0.00325602      -1.30939054
Na      39.61595481      14.49822671      38.70176486       0.01040172      -0.00722239      -0.01942359      -1.23267496
Na      35.36170388      24.38283014       8.38363035      -0.05201029       0.02367672      -0.00341056      -1.16137564
Na      11.03701775      18.40560842      12.44704359       0.03829449      -0.01932478       0.02266745      -1.26006985
Na      14.78288168      40.79843423      32.63569413       0.05600158      -0.06824871       0.06978443      -1.25874770
Na      53.94774794      48.02403036      37.94165186       0.04610476       0.00819681       0.01244379      -1.28974497
Na      19.47370252      20.86710256      27.79229670      -0.06472315       0.00073831       0.03621966      -1.17975998
Na      29.44862072      17.91415704      30.29095184      -0.07000488      -0.03368536      -0.00028888      -1.20172513
Na      31.86690267      47.14014623      39.17221226       0.03860492       0.01011142       0.10222048      -1.11785460
Na      31.14970538      41.34380273      50.69297488       0.02280593      -0.02500271      -0.00832774      -1.14849973
Na      37.41530470      11.69879324       3.07565734      -0.03203134       0.00309910       0.01785146      -1.27845681
Na      11.57858024      43.82698677      13.54406635       0.04054526       0.01735414      -0.01854614      -1.30761003
Na       2.18596801      54.15112579      10.89710827      -0.09549785       0.01157416       0.08263617      -1.15354192
Na      37.79091500       1.67430971      35.06408939      -0.05022923       0.02754498      -0.02704428      -1.31728101
Na      43.54483224      30.31359178      54.97878321       0.00633941       0.02909883      -0.01019064      -1.21386206
Na      36.66242848      13.48827247      26.31577212      -0.00009997       0.00927018      -0.04414903      -1.13764071
Na      16.35481500      48.09042343      33.65226958      -0.03401430      -0.01453864      -0.08100087      -1.18395007
Na      19.42423450      16.07893954       3.07199022      -0.02771689       0.04031646       0.11050453      -1.05262399
Na      25.71027771      56.90080105      49.96132639       0.06882843      -0.03584904      -0.03662704      -1.16658926
Cl      18.75173098      18.24533121      49.28652428       0.03341802      -0.01742794      -0.19539367      -4.64188862
Cl      43.71252384       9.32801414      53.63675558      -0.02636091      -0.07384098       0.07197666      -4.74177217
Cl      15.38832685       6.31682557      20.22426609       0.03539996      -0.01320815      -0.02175875      -4.85831928
Cl      50.63459860      25.60172723      10.94658094      -0.02536209       0.02754095      -0.03309555      -4.54522276
Cl      18.74290410       8.13149985       2.31848113       0.01820718       0.06819010       0.01137452      -4.96492863
Cl      29.67826070       2.24180930      52.65355573       0.06327952       0.01054014      -0.02392657      -4.85111475
Cl      15.92817817      25.85247381      30.16714760      -0.01075675       0.00331938       0.00892644      -4.87589073
Cl      43.78303882       2.28905856      18.88994776      -0.01458553      -0.03004018       0.00493263      -4.84151220
Cl      34.67564158       7.46867595      21.29707329      -0.02091666       0.09018726       0.05275590      -4.75690889
Cl      10.04838185       6.54928843       9.87221606      -0.09907813       0.05827517      -0.02589398      -4.55963421
Cl      11.65012200      24.37492346      27.46636909       0.03956964      -0.01115168       0.03180851      -4.97570992
Cl      25.21932576      51.12708588      48.02454898      -0.01692439      -0.03058080      -0.05777732      -4.57716227
Cl       5.77229216      33.28147900      43.84894206      -0.05344333       0.01682470      -0.01334339      -4.72311926
Cl      35.21474445      55.05692681      30.25204779      -0.00932863      -0.01553716      -0.05777008      -5.00194645
Cl      54.22007104       2.12416695      43.82384010      -0.01604256      -0.02558583       0.02067714      -4.85765028
Cl      26.39524488      34.14170660      21.38615798       0.05525865       0.00725143       0.00430197      -4.64363861
Cl       3.47659605      41.57168214      27.08839068      -0.03439892       0.00955480      -0.00942726      -4.94810772
Cl      25.79449263      30.25570619       5.92686042       0.02062565      -0.01775325       0.02786763      -4.78875923
Cl      32.37602379      43.50430827       7.64487058       0.11855040       0.00535232      -0.10387235      -4.64776325
Cl       3.17465197      40.25860642      34.03713119      -0.05857328      -0.09003934      -0.03156767      -4.84191418
Cl       3.34186876      39.51593446      37.71419614      -0.09461878       0.07473362       0.05332762      -4.82332325
Cl      43.40768365      13.12240198      26.79739517       0.01935240       0.00837271      -0.01939265      -4.79641247
Cl      51.72597546      14.61690929      22.68782164      -0.02882660       0.03475881       0.05792577      -4.81339264
Cl       2.76195343      37.39653354      27.47295240      -0.04308948       0.02290566      -0.01253704      -4.92758274
Cl      56.48900967      48.49847055      16.77021134       0.06295317       0.01938747      -0.01610878      -4.87657642
Cl       7.72697643       3.98505568      21.80094562      -0.03180730      -0.02030305       0.04600893      -4.82362604
Cl      50.75391307      51.91799236      27.87832063      -0.00793341      -0.03409274      -0.03109454      -5.00510788
Cl      37.68492946       3.27126435      25.58385516       0.13624218       0.03111469       0.09162845      -4.95990658
Cl      11.74302783      45.65934932      54.69311137       0.02033601      -0.02407926      -0.00952350      -4.75998163
Cl      32.44606749      29.14778016       1.62971792       0.01848846       0.09663749      -0.02080069      -4.67535257
Cl       2.33911771      19.35359529      31.03815516       0.00295011       0.13775478      -0.01384122      -4.80300760
Cl      42.82351843       5.72825710      27.22784980      -0.04540556      -0.04145551       0.01244312      -4.81946373
Cl       7.23596414      50.21961563      32.37559371      -0.02402247      -0.00350892       0.01743029      -4.81551170
Cl      48.83273037      48.87266710      25.38506010       0.01308541      -0.02671726      -0.08995996      -4.66216564
Cl      38.36908253      17.56059433      47.37484866       0.02504688       0.03441226      -0.01548366      -4.83569098
Cl       7.18052904      58.64056740      58.04322871      -0.03851118      -0.01182134      -0.04123649      -4.89428616
Cl      33.94021007      30.67499952      54.67731754       0.01700883      -0.05977554       0.05505597      -4.91936064
Cl      16.48607252      20.38072061      52.85756260       0.01147828       0.00870484      -0.00763186      -4.83961725
Cl      55.51973855      12.06493248      23.06783143      -0.01791531      -0.03923439      -0.01068715      -4.79814720
Cl      13.26899247      57.80659978      30.34076249      -0.02823251       0.02329285       0.00666450      -4.68420506
Cl      24.48104120      35.15016344      57.69078289       0.03204715      -0.02405351       0.02909809      -4.96361542
Cl      43.64595691      57.14289996      49.35362801       0.00995320      -0.03825171       0.04537555      -4.88074923
Cl      53.15857187      53.68750990       1.40557505      -0.02380927      -0.00337820      -0.06114495      -4.73894262
Cl      13.76088213      37.62449796      16.09723369      -0.03644621       0.08659425       0.04950420      -4.85334969
Cl      57.62709515      38.88574669       5.05941505      -0.02562267      -0.02212505       0.06002791      -4.72941303
Cl      36.45807629      40.05565421      35.03065734      -0.06069043       0.06242624      -0.05240568      -4.69972849
Cl      24.65309123      42.31920137      41.17242241       0.00357813      -0.02350626      -0.01635475      -4.84757614
Cl       1.34110510       2.09051803      42.32867307      -0.03206641      -0.01596714       0.02384080      -4.74745417
Cl      40.06832332      41.61547621      18.19355310      -0.03397527       0.05366613      -0.05248674      -4.74267197
Cl      21.53086813      29.06547398      47.68445667       0.02409685       0.00081552       0.03616105      -4.90441942
Na      49.11856144      53.11660840      19.33341029       0.04488630      -0.01534536      -0.01146135      -1.18341970
Na       8.99432657      24.80364442      42.61249326      -0.00570403       0.00921855      -0.03679102      -1.27358651
Na      21.33015875      31.61578584      53.03560327      -0.05274323      -0.01802784       0.07178922      -1.25611782
Na      56.78380217      24.43043488      36.81330106      -0.02632515       0.01433584       0.01783818      -1.03911662
Na      23.45335604      15.44200697      31.11397335      -0.01849100       0.02869038      -0.00273001      -1.16594744
Na      13.56316095      54.71542780      29.02454195      -0.00343171      -0.01881295       0.05290204      -1.22163832
Na      30.07150039       6.98476016      25.76038239       0.07712363      -0.00875771      -0.01172964      -1.18864632
Na      58.13373060      33.95092857       7.64605131       0.06369160       0.02127515      -0.00262073      -1.24549580
Na      21.59688593      37.57211334      15.98312121       0.03503851      -0.01228807      -0.04373951      -1.32131624
Na      34.21093227      57.35831711      14.63700555      -0.01631251      -0.01364146      -0.01715570      -1.16918039
Na       3.54900897      13.74618258      10.21112673       0.03780846      -0.02662342      -0.07023760      -1.10307419
Na      33.70931265      34.61669992      51.74199184       0.08457116      -0.01692951      -0.04402476      -1.22851801
Na      34.35588159      24.74000455      42.30990212       0.00651385      -0.01314870      -0.05081787      -1.25594687
Na      20.75566862      42.48280597       6.17241319      -0.08964210       0.07088578       0.08429383      -1.16376019
Na      57.11120774       6.79273885      33.32576163       0.02695741       0.05512683       0.02226806      -1.38379788
Na      12.28030489      55.48898759      25.59138941       0.00822821      -0.04112396       0.01814801      -1.24673629
Na       8.49391520      50.08513419      34.81360248      -0.01098987      -0.09854268      -0.02999219      -1.30422831
Na      44.73857533      30.16114342      21.09752081      -0.00329326      -0.01597500      -0.00310667      -1.23727477
Na      12.87060542      43.99910727      32.91805316      -0.00926396      -0.02737859      -0.00991098      -1.24766636
Na       7.83058527      46.55632655      28.09974848      -0.00901800      -0.01542174       0.03859936      -1.24622607
Na      16.66147058      37.63408867      50.69432089       0.03741899      -0.08310036       0.06304903      -1.21957946
Na      26.88737686       6.52289037      14.92501849       0.04864835       0.05359978       0.00004710      -1.20907617
Na      30.37546531      13.89469162      14.45760655       0.03015773      -0.03767686      -0.01153937      -1.40401816
Na      22.58453263      20.64087917      40.74060867      -0.01780438      -0.02945554       0.02390311      -1.26923513
Na      32.82856828      54.85209203      16.79341631       0.02094923       0.01489728      -0.02420441      -1.20583701
Na      24.04306750      48.94331307      16.51173127       0.03070130       0.06943560      -0.01677302      -1.36267221
Na       3.97868164      17.37987341      27.70354711       0.04308092      -0.10990469       0.09728087      -1.14941156
Na      40.90114035      51.26589130      55.61016860      -0.00235582       0.02336509      -0.05063357      -1.13219273
Na      16.39143138      36.74747289       0.99868355      -0.06298781       0.07220072       0.02160716      -1.28227735
Na       4.71502710      49.46743631       3.34042288      -0.00365470      -0.06045008      -0.05624570      -1.26266932
Na      11.67778941      32.66254794       4.54063489       0.05183189      -0.02498239      -0.00118099      -1.35231197
Na      11.34811665      38.87866127      47.09114853      -0.03938723      -0.00174778       0.00325849      -1.30939162
Na      39.61595488      29.13009362      53.33363222       0.01040318      -0.00722415      -0.01942771      -1.23267436
Na      35.36170388      39.01469698      23.01549726      -0.05201117       0.02367590      -0.00341198      -1.16137636
Na      11.03701774      33.03747574      27.07891061       0.03829487      -0.01932339       0.02266677      -1.26007032
Na      14.78288132      55.43030170      47.26756109       0.05600306      -0.06824963       0.06977548      -1.25874782
Na      53.94774773       4.12842952      52.57351909       0.04610308       0.00819255       0.01243562      -1.28974509
Na      19.47370255      35.49896947      42.42416348      -0.06472126       0.00073455       0.03621983      -1.17976117
Na      29.44862074      32.54602384      44.92281883      -0.07000552      -0.03368204      -0.00028714      -1.20172620
Na      31.86690283       3.24454505      53.80407940       0.03860226       0.01011087       0.10221551      -1.11785531
Na      31.14970518      55.97567018       6.79737320       0.02280986      -0.02499634      -0.00832698      -1.14850020
Na      37.41530456      26.33066042      17.70752485      -0.03203247       0.00309869       0.01784989      -1.27845669
Na      11.57858045      -0.06861482      28.17593342       0.04054427       0.01735687      -0.01854656      -1.30761051
Na       2.18596779      10.25552425      25.52897550      -0.09549590       0.01157746       0.08263524      -1.15354180
Na      37.79091488      16.30617719      49.69595673      -0.05022832       0.02754346      -0.02704420      -1.31728101
Na      43.54483220      44.94545874      11.08318179       0.00634987       0.02909688      -0.01019056      -1.21386206
Na      36.66242862      28.12013953      40.94763902      -0.00009913       0.00927035      -0.04414642      -1.13764071
Na      16.35481451       4.19482208      48.28413700      -0.03401288      -0.01453435      -0.08099930      -1.18395030
Na      19.42423489      30.71080711      17.70385721      -0.02771727       0.04031408       0.11050197      -1.05262375
Na      25.71027706      13.00519921       6.06572533       0.06882669      -0.03584135      -0.03662721      -1.16658926
Cl      18.75173106      32.87719846       5.39092330       0.03341869      -0.01742920      -0.19539404      -4.64189148
Cl      43.71252367      23.95988128       9.74115444      -0.02636028      -0.07384064       0.07197589      -4.74177170
Cl      15.38832692      20.94869243      34.85613308       0.03539947      -0.01320492      -0.02175487      -4.85831690
Cl      50.63459865      40.23359412      25.57844794      -0.02536104       0.02754316      -0.03309257      -4.54522276
Cl      18.74290435      22.76336707      16.95034814       0.01820854       0.06819241       0.01137535      -4.96493053
Cl      29.67826083      16.87367664       8.75795455       0.06327912       0.01054061      -0.02392645      -4.85111427
Cl      15.92817832      40.48434071      44.79901444      -0.01076105       0.00332168       0.00892464      -4.87588978
Cl      43.78303878      16.92092614      33.52181463      -0.01458645      -0.03004099       0.00493223      -4.84151220
Cl      34.67564147      22.10054304      35.92894041      -0.02091878       0.09018256       0.05276088      -4.75690842
Cl      10.04838191      21.18115556      24.50408312      -0.09907921       0.05827259      -0.02589534      -4.55963421
Cl      11.65012208      39.00679060      42.09823595       0.03957012      -0.01114690       0.03180900      -4.97571087
Cl      25.21932560       7.23148520       4.12894815      -0.01692148      -0.03058035      -0.05777914      -4.57716274
Cl       5.77229229      47.91334655      -0.04666070      -0.05344526       0.01682634      -0.01334479      -4.72311878
Cl      35.21474435      11.16132604      44.88391471      -0.00932790      -0.01554072      -0.05776692      -5.00194454
Cl      54.22007113      16.75603457      -0.07176201      -0.01604182      -0.02558691       0.02067973      -4.85764980
Cl      26.39524482      48.77357345      36.01802498       0.05526010       0.00725127       0.00430294      -4.64363956
Cl       3.47659620      56.20354965      41.72025718      -0.03439853       0.00955738      -0.00942810      -4.94810915
Cl      25.79449266      44.88757311      20.55872771       0.02062628      -0.01775094       0.02786585      -4.78875875
Cl      32.37602309      58.13617575      22.27673797       0.11854801       0.00534415      -0.10387123      -4.64776278
Cl       3.17465167      54.89047379      48.66899817      -0.05857483      -0.09004066      -0.03156269      -4.84191608
Cl       3.34186880      54.14780151      52.34606287      -0.09461868       0.07473570       0.05332753      -4.82332563
Cl      43.40768373      27.75426900      41.42926221       0.01935170       0.00837285      -0.01939644      -4.79641247
Cl      51.72597542      29.24877618      37.31968898      -0.02882430       0.03476052       0.05792284      -4.81339359
Cl       2.76195355      52.02840062      42.10481939      -0.04308874       0.02290470      -0.01253879      -4.92758274
Cl      56.48900955       4.60286934      31.40207839       0.06295420       0.01938462      -0.01610591      -4.87657690
Cl       7.72697636      18.61692317      36.43281285      -0.03180836      -0.02030389       0.04601052      -4.82362795
Cl      50.75391312       8.02239125      42.51018747      -0.00793344      -0.03409673      -0.03109627      -5.00510645
Cl      37.68492946      17.90313126      40.21572244       0.13624372       0.03111407       0.09162995      -4.95990658
Cl      11.74302788       1.76374769      10.79751048       0.02033664      -0.02408232      -0.00952339      -4.75997925
Cl      32.44606746      43.77964721      16.26158554       0.01848941       0.09663846      -0.02079969      -4.67535305
Cl       2.33911759      33.98546262      45.67002219       0.00295273       0.13775483      -0.01384129      -4.80300713
Cl      42.82351853      20.36012399      41.85971690      -0.04540446      -0.04145508       0.01244135      -4.81946516
Cl       7.23596413       6.32401434      47.00746090      -0.02402463      -0.00351183       0.01743076      -4.81551170
Cl      48.83273058       4.97706604      40.01692730       0.01308774      -0.02671790      -0.08995983      -4.66216516
Cl      38.36908271      32.19246114       3.47924720       0.02504710       0.03440951      -0.01548911      -4.83569002
Cl       7.18052915      14.74496565      14.14762711      -0.03851134      -0.01181962      -0.04123650      -4.89428568
Cl      33.94021036      45.30686640      10.78171662       0.01700447      -0.05977437       0.05505987      -4.91936064
Cl      16.48607251      35.01258774       8.96196154       0.01148110       0.00870219      -0.00763135      -4.83961582
Cl      55.51973869      26.69679920      37.69969847      -0.01791796      -0.03922927      -0.01069544      -4.79815006
Cl      13.26899268      13.91099823      44.97262961      -0.02823259       0.02328949       0.00666166      -4.68420506
Cl      24.48104126      49.78203043      13.79518122       0.03204808      -0.02405765       0.02909931      -4.96361732
Cl      43.64595693      13.24729863       5.45802695       0.00995498      -0.03825638       0.04537106      -4.88074732
Cl      53.15857173       9.79190859      16.03744261      -0.02380722      -0.00337630      -0.06114503      -4.73894310
Cl      13.76088216      52.25636510      30.72910071      -0.03645083       0.08658513       0.04950148      -4.85335016
Cl      57.62709532      53.51761389      19.69128247      -0.02562106      -0.02212594       0.06002922      -4.72941399
Cl      36.45807619      54.68752145      49.66252433      -0.06069148       0.06241766      -0.05240499      -4.69973087
Cl      24.65309155      56.95106881      55.80428982       0.00357997      -0.02350546      -0.01635207      -4.84757662
Cl       1.34110529      16.72238534      56.96054080      -0.03206603      -0.01596707       0.02384148      -4.74745417
Cl      40.06832407      56.24734277      32.82542052      -0.03397388       0.05366793      -0.05247887      -4.74267101
Cl      21.53086826      43.69734102       3.78885517       0.02409830       0.00081558       0.03615887      -4.90442085
Na      49.11856156      53.11660820      33.96527737       0.04488188      -0.01534159      -0.01146243      -1.18341970
Na       8.99432681      24.80364413      57.24436147      -0.00570362       0.00921826      -0.03679556      -1.27358615
Na      21.33015876      31.61578594       9.14000196      -0.05274446      -0.01802943       0.07178560      -1.25611758
Na      56.78380217      24.43043488      51.44516832      -0.02632400       0.01433937       0.01784330      -1.03911638
Na      23.45335613      15.44200699      45.74584014      -0.01849074       0.02868894      -0.00273254      -1.16594887
Na      13.56316088      54.71542789      43.65640882      -0.00343424      -0.01881434       0.05290133      -1.22163844
Na      30.07150031       6.98476008      40.39224917       0.07712539      -0.00875617      -0.01173115      -1.18864584
Na      58.13373066      33.95092854      22.27791824       0.06369147       0.02127358      -0.00262063      -1.24549639
Na      21.59688587      37.57211337      30.61498833       0.03503771      -0.01228990      -0.04373871      -1.32131577
Na      34.21093237      57.35831681      29.26887246      -0.01631255      -0.01364120      -0.01715637      -1.16918015
Na       3.54900898      13.74618257      24.84299368       0.03780905      -0.02662384      -0.07023699      -1.10307419
Na      33.70931257      34.61669987       7.84639067       0.08457083      -0.01693167      -0.04402313      -1.22851753
Na      34.35588153      24.74000483      56.94176956       0.00651396      -0.01314781      -0.05081847      -1.25594711
Na      20.75566843      42.48280596      20.80428036      -0.08964265       0.07088731       0.08429439      -1.16376030
Na      57.11120783       6.79273874      47.95762870       0.02695462       0.05512702       0.02226492      -1.38379788
Na      12.28030494      55.48898738      40.22325658       0.00822879      -0.04112456       0.01815197      -1.24673605
Na       8.49391518      50.08513422      49.44546943      -0.01098949      -0.09854251      -0.02999280      -1.30422807
Na      44.73857524      30.16114337      35.72938791      -0.00329225      -0.01597619      -0.00310675      -1.23727405
Na      12.87060545      43.99910730      47.54992041      -0.00926441      -0.02737877      -0.00991218      -1.24766636
Na       7.83058522      46.55632661      42.73161508      -0.00901609      -0.01542337       0.03859715      -1.24622643
Na      16.66147051      37.63408859       6.79871970       0.03741939      -0.08309869       0.06305122      -1.21957970
Na      26.88737690       6.52289037      29.55688538       0.04864894       0.05360125       0.00004779      -1.20907605
Na      30.37546528      13.89469162      29.08947349       0.03015781      -0.03767640      -0.01154054      -1.40401793
Na      22.58453283      20.64087907      55.37247609      -0.01781018      -0.02945521       0.02390640      -1.26923466
Na      32.82856830      54.85209205      31.42528341       0.02094839       0.01489610      -0.02419907      -1.20583653
Na      24.04306746      48.94331297      31.14359846       0.03070058       0.06943570      -0.01677257      -1.36267221
Na       3.97868171      17.37987335      42.33541421       0.04307741      -0.10990689       0.09727966      -1.14941204
Na      40.90114066      51.26589116      11.71456697      -0.00235659       0.02336536      -0.05063808      -1.13219249
Na      16.39143117      36.74747314      15.63055062      -0.06298795       0.07220101       0.02160571      -1.28227806
Na       4.71502711      49.46743616      17.97228962      -0.00365395      -0.06045200      -0.05624623      -1.26266861
Na      11.67778923      32.66254800      19.17250197       0.05183185      -0.02498279      -0.00118134      -1.35231149
Na      11.34811661      38.87866130       3.19554689      -0.03938788      -0.00174890       0.00325852      -1.30939126
Na      39.61595484      29.13009363       9.43803088       0.01040239      -0.00722280      -0.01942768      -1.23267472
Na      35.36170377      39.01469700      37.64736421      -0.05200654       0.02367643      -0.00341162      -1.16137624
Na      11.03701765      33.03747568      41.71077748       0.03829422      -0.01932427       0.02266917      -1.26007080
Na      14.78288120      55.43030184       3.37195975       0.05600323      -0.06824656       0.06978101      -1.25874758
Na      53.94774767       4.12842952       8.67791781       0.04610286       0.00819138       0.01244168      -1.28974533
Na      19.47370240      35.49896965      57.05603059      -0.06471859       0.00073450       0.03621981      -1.17976069
Na      29.44862080      32.54602341       1.02721766      -0.07000818      -0.03368409      -0.00028837      -1.20172548
Na      31.86690253       3.24454513       9.90847830       0.03860164       0.01011090       0.10221718      -1.11785579
Na      31.14970517      55.97567010      21.42924066       0.02281037      -0.02499629      -0.00832855      -1.14849985
Na      37.41530477      26.33066035      32.33939167      -0.03203128       0.00309875       0.01785229      -1.27845645
Na      11.57858042      -0.06861487      42.80780022       0.04054306       0.01735917      -0.01854277      -1.30761099
Na       2.18596788      10.25552425      40.16084249      -0.09549689       0.01157757       0.08263431      -1.15354145
Na      37.79091499      16.30617730       5.80035547      -0.05022934       0.02754324      -0.02704232      -1.31728113
Na      43.54483211      44.94545872      25.71504895       0.00634910       0.02909757      -0.01019174      -1.21386206
Na      36.66242847      28.12013929      55.57950655      -0.00009951       0.00926950      -0.04414596      -1.13764083
Na      16.35481452       4.19482202       4.38853613      -0.03401416      -0.01453232      -0.08099704      -1.18394971
Na      19.42423496      30.71080721      32.33572413      -0.02771753       0.04031431       0.11050249      -1.05262327
Na      25.71027702      13.00519911      20.69759234       0.06882768      -0.03583943      -0.03662362      -1.16658878
Cl      18.75173108      32.87719841      20.02279041       0.03341881      -0.01742881      -0.19539458      -4.64189148
Cl      43.71252362      23.95988129      24.37302150      -0.02636111      -0.07384021       0.07197680      -4.74177170
Cl      15.38832700      20.94869232      49.48800037       0.03540067      -0.01320500      -0.02175249      -4.85831833
Cl      50.63459866      40.23359404      40.21031493      -0.02536038       0.02754196      -0.03309484      -4.54522419
Cl      18.74290440      22.76336702      31.58221517       0.01820901       0.06819270       0.01137628      -4.96492910
Cl      29.67826089      16.87367662      23.38982168       0.06327897       0.01054057      -0.02392531      -4.85111380
Cl      15.92817794      40.48434084       0.90341310      -0.01075901       0.00332048       0.00892578      -4.87589073
Cl      43.78303874      16.92092607      48.15368167      -0.01458422      -0.03003599       0.00493211      -4.84151077
Cl      34.67564143      22.10054290      50.56080728      -0.02091759       0.09018815       0.05275791      -4.75690937
Cl      10.04838202      21.18115556      39.13594984      -0.09907694       0.05827533      -0.02588705      -4.55963373
Cl      11.65012207      39.00679042      56.73010350       0.03956817      -0.01114588       0.03181291      -4.97571039
Cl      25.21932573       7.23148513      18.76081505      -0.01692249      -0.03057994      -0.05777770      -4.57716274
Cl       5.77229235      47.91334593      14.58520822      -0.05344344       0.01682418      -0.01334570      -4.72311926
Cl      35.21474446      11.16132575       0.98831318      -0.00932747      -0.01553840      -0.05776793      -5.00194597
Cl      54.22007104      16.75603450      14.56010595      -0.01604281      -0.02558658       0.02068128      -4.85765076
Cl      26.39524480      48.77357371      50.64989212       0.05525759       0.00725154       0.00430704      -4.64363861
Cl       3.47659634      56.20354980      56.35212501      -0.03439865       0.00955674      -0.00942685      -4.94810820
Cl      25.79449276      44.88757326      35.19059468       0.02062321      -0.01775258       0.02786870      -4.78875971
Cl      32.37602313      58.13617569      36.90860518       0.11854797       0.00534398      -0.10387030      -4.64776278
Cl       3.17465172      54.89047404       4.77339712      -0.05857555      -0.09004045      -0.03156379      -4.84191513
Cl       3.34186872      54.14780154       8.45046179      -0.09461749       0.07473508       0.05332565      -4.82332563
Cl      43.40768376      27.75426905      56.06112988       0.01935299       0.00837513      -0.01939309      -4.79641342
Cl      51.72597550      29.24877624      51.95155553      -0.02882590       0.03476092       0.05792571      -4.81339407
Cl       2.76195361      52.02840088      56.73668681      -0.04308845       0.02290445      -0.01253830      -4.92758083
Cl      56.48900967       4.60286940      46.03394529       0.06295440       0.01938700      -0.01611075      -4.87657547
Cl       7.72697648      18.61692319      51.06467995      -0.03180563      -0.02030398       0.04601258      -4.82362747
Cl      50.75391317       8.02239156      57.14205562      -0.00792990      -0.03409552      -0.03109705      -5.00510788
Cl      37.68492918      17.90313131      54.84758957       0.13624223       0.03111475       0.09161965      -4.95990801
Cl      11.74302792       1.76374773      25.42937740       0.02033598      -0.02408196      -0.00952257      -4.75997829
Cl      32.44606749      43.77964721      30.89345257       0.01848979       0.09663837      -0.02079732      -4.67535400
Cl       2.33911787      33.98546232       1.77442130       0.00295215       0.13775487      -0.01384352      -4.80300760
Cl      42.82351831      20.36012418      56.49158414      -0.04540949      -0.04145607       0.01244486      -4.81946421
Cl       7.23596413       6.32401450       3.11185904      -0.02402347      -0.00351208       0.01743225      -4.81551123
Cl      48.83273064       4.97706611      54.64879394       0.01308945      -0.02671766      -0.08996089      -4.66216469
Cl      38.36908255      32.19246129      18.11111468       0.02504688       0.03441017      -0.01548778      -4.83569098
Cl       7.18052916      14.74496559      28.77949419      -0.03851151      -0.01181976      -0.04123496      -4.89428568
Cl      33.94021040      45.30686632      25.41358357       0.01700363      -0.05977533       0.05505963      -4.91936159
Cl      16.48607246      35.01258765      23.59382868       0.01148088       0.00870150      -0.00763060      -4.83961535
Cl      55.51973861      26.69679938      52.33156581      -0.01791630      -0.03923514      -0.01068853      -4.79814768
Cl      13.26899259      13.91099842       1.07702823      -0.02823072       0.02328971       0.00666260      -4.68420458
Cl      24.48104133      49.78203028      28.42704828       0.03204786      -0.02405797       0.02910105      -4.96361780
Cl      43.64595693      13.24729856      20.08989441       0.00995459      -0.03825868       0.04536905      -4.88074636
Cl      53.15857159       9.79190860      30.66930971      -0.02380840      -0.00337692      -0.06114396      -4.73894358
Cl      13.76088210      52.25636490      45.36096769      -0.03645118       0.08658500       0.04949895      -4.85334969
Cl      57.62709537      53.51761399      34.32314958      -0.02562011      -0.02212423       0.06002450      -4.72941208
Cl      36.45807618      54.68752143       5.76692310      -0.06069085       0.06241687      -0.05240491      -4.69973087
Cl      24.65309163      56.95106856      11.90868838       0.00358086      -0.02350498      -0.01635075      -4.84757566
Cl       1.34110532      16.72238542      13.06493880      -0.03206616      -0.01596713       0.02384215      -4.74745321
Cl      40.06832400      56.24734290      47.45728756      -0.03397238       0.05366935      -0.05247773      -4.74267101
Cl      21.53086824      43.69734102      18.42072275       0.02409900       0.00081591       0.03615798      -4.90442038
Na      49.11856153      53.11660836      48.59714416       0.04488132      -0.01534217      -0.01146271      -1.18341947
Na       8.99432647      24.80364436      13.34875951      -0.00570374       0.00921880      -0.03679609      -1.27358627
Na      21.33015871      31.61578591      23.77186912      -0.05274453      -0.01802935       0.07178368      -1.25611782
Na      56.78380211      24.43043482       7.54956699      -0.02632433       0.01433649       0.01783668      -1.03911686
Na      23.45335586      15.44200734       1.85023859      -0.01849056       0.02869064      -0.00273006      -1.16594815
Na      13.56316102      54.71542779      58.28827676      -0.00343364      -0.01881409       0.05290103      -1.22163820
Na      30.07150020       6.98476029      55.02411679       0.07712386      -0.00875700      -0.01172931      -1.18864632
Na      58.13373067      33.95092856      36.90978537       0.06368946       0.02127673      -0.00262304      -1.24549627
Na      21.59688591      37.57211345      45.24685532       0.03503915      -0.01228709      -0.04374094      -1.32131648
Na      34.21093223      57.35831699      43.90073969      -0.01631053      -0.01364206      -0.01715872      -1.16918063
Na       3.54900893      13.74618247      39.47486055       0.03780909      -0.02662212      -0.07024170      -1.10307395
Na      33.70931257      34.61669985      22.47825767       0.08457038      -0.01693141      -0.04402315      -1.22851789
Na      34.35588155      24.74000448      13.04616811       0.00651329      -0.01314457      -0.05082008      -1.25594687
Na      20.75566841      42.48280584      35.43614735      -0.08964325       0.07088599       0.08429696      -1.16375995
Na      57.11120779       6.79273884       4.06202736       0.02695684       0.05512644       0.02226749      -1.38379753
Na      12.28030498      55.48898747      54.85512409       0.00822790      -0.04112206       0.01814149      -1.24673605
Na       8.49391527      50.08513419       5.54986827      -0.01099059      -0.09854359      -0.02999318      -1.30422831
Na      44.73857533      30.16114359      50.36125520      -0.00329442      -0.01597472      -0.00310791      -1.23727465
Na      12.87060538      43.99910724       3.65431912      -0.00926396      -0.02737980      -0.00991216      -1.24766612
Na       7.83058537      46.55632650      57.36348292      -0.00901767      -0.01542340       0.03860240      -1.24622607
Na      16.66147052      37.63408855      21.43058667       0.03742043      -0.08309823       0.06305119      -1.21957922
Na      26.88737689       6.52289027      44.18875255       0.04865071       0.05360258       0.00005381      -1.20907640
Na      30.37546539      13.89469156      43.72134078       0.03015685      -0.03767711      -0.01153973      -1.40401793
Na      22.58453279      20.64087915      11.47687456      -0.01781023      -0.02945615       0.02390410      -1.26923513
Na      32.82856814      54.85209205      46.05715045       0.02094842       0.01489681      -0.02420654      -1.20583677
Na      24.04306756      48.94331297      45.77546532       0.03070187       0.06943534      -0.01677562      -1.36267257
Na       3.97868165      17.37987334      56.96728138       0.04308068      -0.10990520       0.09728129      -1.14941144
Na      40.90114068      51.26589123      26.34643398      -0.00235588       0.02336730      -0.05063502      -1.13219261
Na      16.39143107      36.74747312      30.26241771      -0.06298769       0.07220041       0.02160672      -1.28227806
Na       4.71502721      49.46743621      32.60415655      -0.00365401      -0.06045084      -0.05624656      -1.26266956
Na      11.67778919      32.66254793      33.80436907       0.05183266      -0.02498260      -0.00118571      -1.35231185
Na      11.34811674      38.87866153      17.82741435      -0.03938709      -0.00174735       0.00325881      -1.30939126
Na      39.61595487      29.13009363      24.06989800       0.01040205      -0.00722395      -0.01942924      -1.23267484
Na      35.36170389      39.01469706      52.27923129      -0.05201053       0.02367586      -0.00341193      -1.16137624
Na      11.03701773      33.03747563      56.34264507       0.03829322      -0.01932134       0.02267206      -1.26007056
Na      14.78288131      55.43030183      18.00382709       0.05600185      -0.06824724       0.06978112      -1.25874782
Na      53.94774768       4.12842953      23.30978495       0.04610327       0.00819071       0.01243767      -1.28974533
Na      19.47370246      35.49896952      13.16042968      -0.06472280       0.00073505       0.03621960      -1.17976069
Na      29.44862066      32.54602393      15.65908490      -0.07000445      -0.03368288      -0.00028916      -1.20172620
Na      31.86690275       3.24454515      24.54034538       0.03860158       0.01011070       0.10221529      -1.11785555
Na      31.14970514      55.97567028      36.06110743       0.02280791      -0.02499567      -0.00832751      -1.14850020
Na      37.41530467      26.33066044      46.97125897      -0.03203114       0.00309932       0.01785040      -1.27845716
Na      11.57858015      -0.06861485      57.43966789       0.04054502       0.01735968      -0.01854238      -1.30761075
Na       2.18596806      10.25552427      54.79270966      -0.09549709       0.01157705       0.08263524      -1.15354204
Na      37.79091489      16.30617717      20.43222278      -0.05022921       0.02754323      -0.02704113      -1.31728148
Na      43.54483229      44.94545888      40.34691570       0.00634034       0.02909658      -0.01018787      -1.21386194
Na      36.66242860      28.12013935      11.68390508      -0.00010000       0.00926860      -0.04414716      -1.13764095
Na      16.35481461       4.19482202      19.02040296      -0.03401363      -0.01453255      -0.08099733      -1.18394995
Na      19.42423499      30.71080704      46.96759119      -0.02771612       0.04031434       0.11050291      -1.05262423
Na      25.71027692      13.00519926      35.32945927       0.06882828      -0.03584136      -0.03662933      -1.16658854
Cl      18.75173118      32.87719843      34.65465756       0.03341853      -0.01742850      -0.19539437      -4.64189196
Cl      43.71252360      23.95988138      39.00488840      -0.02635748      -0.07384122       0.07198038      -4.74177170
Cl      15.38832669      20.94869238       5.59239884       0.03540003      -0.01320680      -0.02175727      -4.85831833
Cl      50.63459846      40.23359418      54.84218223      -0.02535985       0.02754252      -0.03309460      -4.54522324
Cl      18.74290429      22.76336704      46.21408201       0.01820875       0.06819305       0.01137615      -4.96492958
Cl      29.67826097      16.87367656      38.02168837       0.06327812       0.01054167      -0.02391733      -4.85111618
Cl      15.92817800      40.48434058      15.53528050      -0.01075779       0.00332069       0.00892534      -4.87589073
Cl      43.78303876      16.92092623       4.25808041      -0.01458731      -0.03004205       0.00493168      -4.84151268
Cl      34.67564143      22.10054284       6.66520623      -0.02091580       0.09019232       0.05275302      -4.75690937
Cl      10.04838208      21.18115543      53.76781742      -0.09907849       0.05827134      -0.02589700      -4.55963564
Cl      11.65012206      39.00679036      12.83450208       0.03956832      -0.01114574       0.03180949      -4.97571087
Cl      25.21932554       7.23148500      33.39268211      -0.01692166      -0.03057966      -0.05777758      -4.57716227
Cl       5.77229232      47.91334602      29.21707532      -0.05344404       0.01682420      -0.01334557      -4.72311878
Cl      35.21474432      11.16132596      15.62018079      -0.00932704      -0.01554119      -0.05776792      -5.00194550
Cl      54.22007107      16.75603448      29.19197294      -0.01604318      -0.02558653       0.02068223      -4.85765171
Cl      26.39524484      48.77357348       6.75429109       0.05525909       0.00725063       0.00429954      -4.64363813
Cl       3.47659623      56.20354952      12.45652340      -0.03439810       0.00955666      -0.00942763      -4.94810820
Cl      25.79449272      44.88757290      49.82246160       0.02062421      -0.01775185       0.02786814      -4.78875923
Cl      32.37602300      58.13617579      51.54047190       0.11854991       0.00534461      -0.10387000      -4.64776325
Cl       3.17465172      54.89047386      19.40526435      -0.05857609      -0.09004041      -0.03155958      -4.84191608
Cl       3.34186874      54.14780159      23.08232876      -0.09461771       0.07473633       0.05332399      -4.82332611
Cl      43.40768365      27.75426897      12.16552831       0.01935264       0.00837366      -0.01939274      -4.79641247
Cl      51.72597544      29.24877623       8.05595450      -0.02882532       0.03476074       0.05792535      -4.81339312
Cl       2.76195355      52.02840068      12.84108537      -0.04308943       0.02290441      -0.01253800      -4.92758131
Cl      56.48900939       4.60286933       2.13834401       0.06295423       0.01938468      -0.01610518      -4.87657642
Cl       7.72697646      18.61692317       7.16907845      -0.03180762      -0.02030382       0.04600755      -4.82362747
Cl      50.75391305       8.02239124      13.24645346      -0.00793071      -0.03409503      -0.03109540      -5.00510883
Cl      37.68492937      17.90313124      10.95198828       0.13624281       0.03111403       0.09162562      -4.95990753
Cl      11.74302796       1.76374758      40.06124432       0.02033691      -0.02408458      -0.00952453      -4.75997877
Cl      32.44606743      43.77964725      45.52531947       0.01849104       0.09663761      -0.02079972      -4.67535305
Cl       2.33911769      33.98546253      16.40628828       0.00295264       0.13775359      -0.01384290      -4.80300903
Cl      42.82351847      20.36012407      12.59598290      -0.04540718      -0.04145588       0.01244438      -4.81946421
Cl       7.23596418       6.32401443      17.74372669      -0.02402335      -0.00351189       0.01743214      -4.81551075
Cl      48.83273053       4.97706596      10.75319299       0.01308725      -0.02671887      -0.08996315      -4.66216421
Cl      38.36908271      32.19246123      32.74298188       0.02504724       0.03440858      -0.01548493      -4.83569050
Cl       7.18052923      14.74496564      43.41136114      -0.03851009      -0.01181749      -0.04123821      -4.89428520
Cl      33.94021025      45.30686658      40.04545087       0.01701008      -0.05977076       0.05505566      -4.91936064
Cl      16.48607248      35.01258771      38.22569594       0.01147986       0.00870285      -0.00763316      -4.83961582
Cl      55.51973870      26.69679925       8.43596451      -0.01791783      -0.03923088      -0.01069299      -4.79814816
Cl      13.26899264      13.91099827      15.70889552      -0.02823244       0.02328978       0.00666358      -4.68420458
Cl      24.48104126      49.78203030      43.05891536       0.03204869      -0.02405716       0.02909950      -4.96361732
Cl      43.64595684      13.24729835      34.72176124       0.00995694      -0.03825541       0.04537445      -4.88074684
Cl      53.15857178       9.79190858      45.30117668      -0.02380954      -0.00337664      -0.06114573      -4.73894310
Cl      13.76088203      52.25636456       1.46536604      -0.03644638       0.08659449       0.04950413      -4.85335016
Cl      57.62709536      53.51761408      48.95501622      -0.02561970      -0.02212596       0.06002731      -4.72941399
Cl      36.45807622      54.68752142      20.39879021      -0.06069069       0.06241719      -0.05240519      -4.69973040
Cl      24.65309154      56.95106852      26.54055544       0.00358145      -0.02350523      -0.01635132      -4.84757519
Cl       1.34110531      16.72238544      27.69680575      -0.03206665      -0.01596700       0.02384170      -4.74745369
Cl      40.06832386      56.24734250       3.56168636      -0.03397282       0.05366701      -0.05248125      -4.74267054
Cl      21.53086826      43.69734109      33.05258957       0.02409838       0.00081584       0.03615806      -4.90442133
Na      49.11856132      53.11660849       4.70154315       0.04488143      -0.01534293      -0.01146107      -1.18341959
Na       8.99432652      24.80364439      27.98062649      -0.00570399       0.00921848      -0.03679767      -1.27358651
Na      21.33015879      31.61578601      38.40373579      -0.05274609      -0.01802877       0.07178739      -1.25611782
Na      56.78380216      24.43043490      22.18143419      -0.02632435       0.01433788       0.01783596      -1.03911650
Na      23.45335608      15.44200702      16.48210627      -0.01849071       0.02869091      -0.00273130      -1.16594791
Na      13.56316101      54.71542783      14.39267493      -0.00343315      -0.01881299       0.05290145      -1.22163820
Na      30.07150030       6.98476014      11.12851521       0.07712393      -0.00875705      -0.01172983      -1.18864632
Na      58.13373073      33.95092855      51.54165201       0.06369010       0.02127413      -0.00262185      -1.24549603
Na      21.59688573      37.57211327       1.35125333       0.03503772      -0.01228933      -0.04373940      -1.32131672
Na      34.21093245      57.35831709       0.00513789      -0.01631336      -0.01364081      -0.01715538      -1.16918051
Na       3.54900908      13.74618243      54.10672805       0.03780746      -0.02662273      -0.07024312      -1.10307431
Na      33.70931265      34.61669996      37.11012450       0.08457032      -0.01693254      -0.04402020      -1.22851765
Na      34.35588150      24.74000450      27.67803517       0.00651316      -0.01314433      -0.05082157      -1.25594652
Na      20.75566855      42.48280586      50.06801438      -0.08964227       0.07088710       0.08429132      -1.16376007
Na      57.11120788       6.79273880      18.69389471       0.02695638       0.05512692       0.02226713      -1.38379741
Na      12.28030493      55.48898754      10.95952250       0.00822813      -0.04112322       0.01814719      -1.24673641
Na       8.49391521      50.08513426      20.18173555      -0.01099006      -0.09854297      -0.02999411      -1.30422807
Na      44.73857498      30.16114338       6.46565378      -0.00329350      -0.01597465      -0.00310771      -1.23727393
Na      12.87060551      43.99910728      18.28618631      -0.00926463      -0.02737888      -0.00991233      -1.24766588
Na       7.83058524      46.55632671      13.46788130      -0.00901845      -0.01542751       0.03860343      -1.24622583
Na      16.66147069      37.63408881      36.06245375       0.03741796      -0.08309954       0.06305079      -1.21958005
Na      26.88737728       6.52289008       0.29315053       0.04864911       0.05360113       0.00004562      -1.20907664
Na      30.37546535      13.89469167      58.35320826       0.03015817      -0.03767699      -0.01153765      -1.40401816
Na      22.58453272      20.64087918      26.10874162      -0.01780642      -0.02945585       0.02390260      -1.26923537
Na      32.82856811      54.85209208       2.16154889       0.02094869       0.01489721      -0.02420147      -1.20583725
Na      24.04306762      48.94331280       1.87986375       0.03070154       0.06943557      -0.01677285      -1.36267257
Na       3.97868166      17.37987345      13.07168030       0.04307930      -0.10990492       0.09727938      -1.14941192
Na      40.90114043      51.26589126      40.97830097      -0.00235926       0.02336427      -0.05064036      -1.13219273
Na      16.39143110      36.74747309      44.89428468      -0.06298719       0.07220104       0.02160833      -1.28227842
Na       4.71502717      49.46743624      47.23602357      -0.00365509      -0.06045282      -0.05624505      -1.26266897
Na      11.67778929      32.66254801      48.43623586       0.05183141      -0.02498309      -0.00118512      -1.35231197
Na      11.34811679      38.87866144      32.45928153      -0.03938724      -0.00174714       0.00325810      -1.30939114
Na      39.61595485      29.13009366      38.70176487       0.01040199      -0.00722250      -0.01942299      -1.23267460
Na      35.36170386      39.01469702       8.38363028      -0.05200686       0.02367467      -0.00341157      -1.16137660
Na      11.03701773      33.03747574      12.44704359       0.03829428      -0.01932291       0.02266764      -1.26007080
Na      14.78288125      55.43030182      32.63569412       0.05600188      -0.06824763       0.06978323      -1.25874805
Na      53.94774785       4.12842954      37.94165192       0.04610113       0.00819147       0.01244117      -1.28974521
Na      19.47370250      35.49896941      27.79229679      -0.06472319       0.00073478       0.03621732      -1.17976046
Na      29.44862069      32.54602390      30.29095194      -0.07000522      -0.03368336      -0.00028838      -1.20172548
Na      31.86690267       3.24454517      39.17221236       0.03860289       0.01010910       0.10221776      -1.11785519
Na      31.14970517      55.97567004      50.69297462       0.02280833      -0.02499560      -0.00832520      -1.14849997
Na      37.41530469      26.33066031       3.07565737      -0.03203120       0.00309836       0.01785154      -1.27845669
Na      11.57858042      -0.06861480      13.54406627       0.04054352       0.01735744      -0.01854591      -1.30761051
Na       2.18596782      10.25552429      10.89710839      -0.09549731       0.01157753       0.08263727      -1.15354180
Na      37.79091496      16.30617735      35.06408925      -0.05022914       0.02754419      -0.02704432      -1.31728101
Na      43.54483239      44.94545861      54.97878335       0.00634006       0.02909611      -0.01018813      -1.21386170
Na      36.66242864      28.12013947      26.31577200      -0.00010013       0.00926864      -0.04414856      -1.13764119
Na      16.35481462       4.19482203      33.65226985      -0.03401275      -0.01453338      -0.08099917      -1.18395042
Na      19.42423456      30.71080662       3.07199020      -0.02771768       0.04031674       0.11050358      -1.05262339
Na      25.71027706      13.00519909      49.96132684       0.06882762      -0.03584078      -0.03662804      -1.16658938
Cl      18.75173098      32.87719837      49.28652436       0.03341835      -0.01742890      -0.19539434      -4.64189053
Cl      43.71252384      23.95988132      53.63675553      -0.02636260      -0.07384094       0.07197487      -4.74177170
Cl      15.38832683      20.94869247      20.22426606       0.03540029      -0.01320756      -0.02175792      -4.85831928
Cl      50.63459860      40.23359408      10.94658090      -0.02536126       0.02754280      -0.03309602      -4.54522276
Cl      18.74290421      22.76336705       2.31848109       0.01820799       0.06819268       0.01137505      -4.96492958
Cl      29.67826084      16.87367652      52.65355571       0.06327906       0.01054115      -0.02392628      -4.85111523
Cl      15.92817807      40.48434062      30.16714750      -0.01075626       0.00332051       0.00892564      -4.87589169
Cl      43.78303879      16.92092606      18.88994763      -0.01458441      -0.03003706       0.00493152      -4.84151268
Cl      34.67564149      22.10054304      21.29707320      -0.02091734       0.09018575       0.05275694      -4.75690937
Cl      10.04838190      21.18115554       9.87221608      -0.09907857       0.05827230      -0.02589409      -4.55963516
Cl      11.65012203      39.00679043      27.46636912       0.03956819      -0.01114613       0.03180824      -4.97570992
Cl      25.21932561       7.23148504      48.02454918      -0.01692409      -0.03058094      -0.05777667      -4.57716274
Cl       5.77229215      47.91334608      43.84894219      -0.05344339       0.01682658      -0.01334403      -4.72311974
Cl      35.21474434      11.16132589      30.25204773      -0.00932638      -0.01553876      -0.05776773      -5.00194740
Cl      54.22007102      16.75603452      43.82384027      -0.01604339      -0.02558564       0.02067693      -4.85764980
Cl      26.39524487      48.77357351      21.38615813       0.05525822       0.00725156       0.00430207      -4.64363909
Cl       3.47659628      56.20354964      27.08839046      -0.03439898       0.00955623      -0.00942609      -4.94810867
Cl      25.79449272      44.88757303       5.92686053       0.02062561      -0.01775059       0.02786578      -4.78875828
Cl      32.37602293      58.13617572       7.64487082       0.11854765       0.00534443      -0.10387364      -4.64776278
Cl       3.17465167      54.89047381      34.03713139      -0.05857320      -0.09004080      -0.03156601      -4.84191465
Cl       3.34186865      54.14780162      37.71419594      -0.09461728       0.07473664       0.05332817      -4.82332516
Cl      43.40768365      27.75426899      26.79739519       0.01935206       0.00837288      -0.01939301      -4.79641247
Cl      51.72597547      29.24877623      22.68782161      -0.02882604       0.03476030       0.05792556      -4.81339264
Cl       2.76195346      52.02840058      27.47295239      -0.04308878       0.02290536      -0.01253677      -4.92758083
Cl      56.48900955       4.60286938      16.77021138       0.06295435       0.01938647      -0.01610774      -4.87657642
Cl       7.72697640      18.61692308      21.80094564      -0.03180654      -0.02030323       0.04600936      -4.82362652
Cl      50.75391301       8.02239128      27.87832056      -0.00792984      -0.03409524      -0.03109417      -5.00510931
Cl      37.68492942      17.90313130      25.58385527       0.13624394       0.03111477       0.09162787      -4.95990801
Cl      11.74302779       1.76374782      54.69311176       0.02033609      -0.02408292      -0.00952466      -4.75998020
Cl      32.44606749      43.77964716       1.62971784       0.01849014       0.09663710      -0.02080106      -4.67535210
Cl       2.33911766      33.98546252      31.03815518       0.00295080       0.13775516      -0.01384072      -4.80300713
Cl      42.82351835      20.36012411      27.22784975      -0.04540689      -0.04145473       0.01244317      -4.81946421
Cl       7.23596408       6.32401451      32.37559349      -0.02402432      -0.00351125       0.01742999      -4.81551075
Cl      48.83273048       4.97706595      25.38505998       0.01308724      -0.02671793      -0.08995974      -4.66216469
Cl      38.36908255      32.19246124      47.37484864       0.02504539       0.03440906      -0.01548396      -4.83569050
Cl       7.18052926      14.74496555      58.04322892      -0.03851049      -0.01181977      -0.04123632      -4.89428616
Cl      33.94021024      45.30686684      54.67731764       0.01701110      -0.05976804       0.05505585      -4.91936207
Cl      16.48607241      35.01258775      52.85756263       0.01147915       0.00870225      -0.00763129      -4.83961582
Cl      55.51973863      26.69679932      23.06783138      -0.01791532      -0.03923531      -0.01068324      -4.79814863
Cl      13.26899264      13.91099824      30.34076258      -0.02823191       0.02329053       0.00666406      -4.68420553
Cl      24.48104120      49.78203039      57.69078295       0.03204787      -0.02405795       0.02909721      -4.96361637
Cl      43.64595680      13.24729831      49.35362815       0.00995554      -0.03825453       0.04537630      -4.88074684
Cl      53.15857180       9.79190861       1.40557513      -0.02380813      -0.00337607      -0.06114443      -4.73894310
Cl      13.76088211      52.25636499      16.09723371      -0.03645018       0.08658614       0.04950210      -4.85334969
Cl      57.62709544      53.51761395       5.05941527      -0.02562015      -0.02212485       0.06002716      -4.72941303
Cl      36.45807621      54.68752127      35.03065729      -0.06069040       0.06241751      -0.05240576      -4.69972897
Cl      24.65309156      56.95106843      41.17242240       0.00358111      -0.02350400      -0.01634899      -4.84757566
Cl       1.34110528      16.72238546      42.32867291      -0.03206621      -0.01596639       0.02384127      -4.74745369
Cl      40.06832390      56.24734272      18.19355335      -0.03397379       0.05366698      -0.05248377      -4.74267149
Cl      21.53086829      43.69734103      47.68445655       0.02409789       0.00081525       0.03616315      -4.90442038
Na       5.22296015       9.22100732      19.33341023       0.04488126      -0.01534534      -0.01146094      -1.18341994
Na      23.62619341      39.43551153      42.61249332      -0.00570281       0.00921713      -0.03678905      -1.27358651
Na      35.96202555      46.24765290      53.03560334      -0.05274328      -0.01803191       0.07178857      -1.25611639
Na      12.88819999      39.06230148      36.81330144      -0.02632328       0.01433525       0.01783746      -1.03911686
Na      38.08522284      30.07387380      31.11397337      -0.01849137       0.02869394      -0.00272916      -1.16594744
Na      28.19502814      10.81982686      29.02454191      -0.00343498      -0.01881379       0.05289999      -1.22163773
Na      44.70336730      21.61662711      25.76038241       0.07712366      -0.00875715      -0.01172938      -1.18864620
Na      14.23812882      48.58279601       7.64605142       0.06369158       0.02127418      -0.00262043      -1.24549603
Na      36.22875292      52.20398005      15.98312128       0.03504004      -0.01228657      -0.04373994      -1.32131624
Na      48.84279927      13.46271566      14.63700534      -0.01631419      -0.01363813      -0.01715563      -1.16918099
Na      18.18087597      28.37804966      10.21112688       0.03780701      -0.02662457      -0.07024057      -1.10307419
Na      48.34117964      49.24856701      51.74199177       0.08457231      -0.01692795      -0.04402509      -1.22851729
Na      48.98774869      39.37187150      42.30990217       0.00651379      -0.01314717      -0.05081624      -1.25594592
Na      35.38753643      57.11467352       6.17241307      -0.08964224       0.07089250       0.08429502      -1.16375923
Na      13.21560665      21.42460598      33.32576146       0.02695498       0.05512685       0.02226626      -1.38379753
Na      26.91217181      11.59338590      25.59138959       0.00822545      -0.04112384       0.01814709      -1.24673617
Na      23.12578232       6.18953316      34.81360264      -0.01098990      -0.09854484      -0.02999230      -1.30422878
Na       0.84297372      44.79301043      21.09752065      -0.00329422      -0.01597325      -0.00310847      -1.23727357
Na      27.50247272       0.10350567      32.91805294      -0.00926319      -0.02737798      -0.00991063      -1.24766636
Na      22.46245213       2.66072509      28.09974805      -0.00901744      -0.01542101       0.03859889      -1.24622631
Na      31.29333740      52.26595562      50.69432069       0.03741785      -0.08310011       0.06305020      -1.21957874
Na      41.51924373      21.15475761      14.92501837       0.04864553       0.05359805       0.00004507      -1.20907617
Na      45.00733221      28.52655863      14.45760641       0.03016009      -0.03767543      -0.01153977      -1.40401804
Na      37.21639990      35.27274595      40.74060867      -0.01780815      -0.02945410       0.02390448      -1.26923633
Na      47.46043536      10.95649098      16.79341651       0.02095132       0.01489900      -0.02420313      -1.20583642
Na      38.67493445       5.04771151      16.51173128       0.03070057       0.06943743      -0.01677503      -1.36267257
Na      18.61054900      32.01174048      27.70354726       0.04307561      -0.10990619       0.09727790      -1.14941156
Na      55.53300773       7.37028995      55.61016874      -0.00234770       0.02337139      -0.05062596      -1.13219249
Na      31.02329842      51.37933976       0.99868354      -0.06298732       0.07220017       0.02160607      -1.28227735
Na      19.34689431       5.57183516       3.34042285      -0.00365280      -0.06044743      -0.05624674      -1.26266909
Na      26.30965646      47.29441529       4.54063482       0.05183275      -0.02498211      -0.00118048      -1.35231161
Na      25.97998355      53.51052870      47.09114856      -0.03938624      -0.00174651       0.00325791      -1.30939174
Na      54.24782184      43.76196085      53.33363233       0.01040250      -0.00722472      -0.01942758      -1.23267484
Na      49.99357098      53.64656423      23.01549730      -0.05200946       0.02367876      -0.00341206      -1.16137600
Na      25.66888475      47.66934254      27.07891058       0.03829429      -0.01932364       0.02266646      -1.26006961
Na      29.41474876      11.53470013      47.26756092       0.05600001      -0.06824341       0.06978916      -1.25874758
Na      10.05214654      18.76029634      52.57351923       0.04609992       0.00819153       0.01243939      -1.28974462
Na      34.10556923      50.13083646      42.42416349      -0.06471638       0.00073582       0.03621931      -1.17976069
Na      44.08048770      47.17789115      44.92281896      -0.07000315      -0.03368378      -0.00028672      -1.20172668
Na      46.49876989      17.87641223      53.80407943       0.03859865       0.01011119       0.10221589      -1.11785519
Na      45.78157240      12.08006850       6.79737323       0.02280614      -0.02499870      -0.00832812      -1.14850044
Na      52.04717166      40.96252735      17.70752484      -0.03203002       0.00309574       0.01784834      -1.27845716
Na      26.21044746      14.56325270      28.17593335       0.04054262       0.01735838      -0.01854608      -1.30761063
Na      16.81783486      24.88739151      25.52897559      -0.09549793       0.01157617       0.08263455      -1.15354204
Na      52.42278182      30.93804441      49.69595674      -0.05022840       0.02754609      -0.02704625      -1.31728077
Na      58.17669959       1.04985732      11.08318176       0.00634045       0.02910027      -0.01019132      -1.21386194
Na      51.29429572      42.75200661      40.94763916      -0.00010005       0.00927185      -0.04414743      -1.13764119
Na      30.98668188      18.82668962      48.28413681      -0.03401427      -0.01453534      -0.08100083      -1.18395019
Na      34.05610170      45.34267406      17.70385709      -0.02771892       0.04031543       0.11050160      -1.05262399
Na      40.34214397      27.63706630       6.06572534       0.06882818      -0.03583950      -0.03662822      -1.16658854
Cl      33.38359815      47.50906548       5.39092325       0.03341949      -0.01742636      -0.19539203      -4.64189053
Cl      -0.18307758      38.59174834       9.74115393      -0.02636004      -0.07383758       0.07197702      -4.74177265
Cl      30.02019400      35.58055951      34.85613318       0.03540003      -0.01320240      -0.02175363      -4.85831690
Cl       6.73899797      54.86546162      25.57844821      -0.02536344       0.02753519      -0.03309415      -4.54522228
Cl      33.37477116      37.39523384      16.95034807       0.01820775       0.06819320       0.01137439      -4.96492863
Cl      44.31012792      31.50554381       8.75795447       0.06327526       0.01053682      -0.02392678      -4.85111618
Cl      30.56004508      55.11620849      44.79901481      -0.01075792       0.00332373       0.00892524      -4.87588835
Cl      58.41490670      31.55279341      33.52181503      -0.01458430      -0.03003733       0.00493058      -4.84151268
Cl      49.30750843      36.73240996      35.92894048      -0.02091704       0.09018413       0.05275887      -4.75690842
Cl      24.68024920      35.81302261      24.50408320      -0.09907518       0.05827684      -0.02589370      -4.55963421
Cl      26.28198911      53.63865787      42.09823567       0.03956745      -0.01114567       0.03180944      -4.97571039
Cl      39.85119297      21.86335226       4.12894793      -0.01692108      -0.03057884      -0.05777949      -4.57716370
Cl      20.40415971       4.01774477      -0.04666062      -0.05344572       0.01682312      -0.01334472      -4.72311878
Cl      49.84661157      25.79319271      44.88391478      -0.00932716      -0.01553885      -0.05776734      -5.00194502
Cl      10.32447006      31.38790171      -0.07176205      -0.01604491      -0.02558787       0.02068192      -4.85764980
Cl      41.02711211       4.87797216      36.01802498       0.05526225       0.00725175       0.00429928      -4.64363813
Cl      18.10846327      12.30794823      41.72025750      -0.03439792       0.00955250      -0.00942560      -4.94810963
Cl      40.42635971       0.99197108      20.55872705       0.02062569      -0.01774671       0.02786404      -4.78876019
Cl      47.00789062      14.24057433      22.27673739       0.11855125       0.00534981      -0.10386883      -4.64776230
Cl      17.80651950      10.99487287      48.66899844      -0.05857027      -0.09004304      -0.03156454      -4.84191608
Cl      17.97373597      10.25220046      52.34606304      -0.09461787       0.07473256       0.05332867      -4.82332468
Cl      58.03955065      42.38613656      41.42926229       0.01935670       0.00837737      -0.01939476      -4.79641294
Cl       7.83037412      43.88064304      37.31968891      -0.02882737       0.03476221       0.05792309      -4.81339359
Cl      17.39382082       8.13279978      42.10481956      -0.04309128       0.02290236      -0.01253841      -4.92758322
Cl      12.59340788      19.23473678      31.40207821       0.06295520       0.01938375      -0.01610554      -4.87657976
Cl      22.35884347      33.24879005      36.43281271      -0.03180772      -0.02030807       0.04600942      -4.82362747
Cl       6.85831177      22.65425829      42.51018743      -0.00792842      -0.03409687      -0.03109726      -5.00510693
Cl      52.31679678      32.53499835      40.21572228       0.13624159       0.03111437       0.09163087      -4.95990562
Cl      26.37489477      16.39561521      10.79751007       0.02033643      -0.02407917      -0.00952214      -4.75997925
Cl      47.07793426      58.41151479      16.26158539       0.01848872       0.09663969      -0.02079821      -4.67535496
Cl      16.97098546      48.61732928      45.67002210       0.00295142       0.13775574      -0.01384173      -4.80300760
Cl      57.45538583      34.99199104      41.85971656      -0.04541264      -0.04145025       0.01244216      -4.81946182
Cl      21.86783146      20.95588151      47.00746098      -0.02402586      -0.00350997       0.01743113      -4.81551218
Cl       4.93712949      19.60893281      40.01692731       0.01308765      -0.02671598      -0.08996105      -4.66216469
Cl      53.00094975      46.82432838       3.47924716       0.02504661       0.03441375      -0.01548823      -4.83569193
Cl      21.81239626      29.37683280      14.14762719      -0.03851397      -0.01182173      -0.04123626      -4.89428568
Cl      48.57207655       1.41126553      10.78171604       0.01700583      -0.05977741       0.05505717      -4.91935921
Cl      31.11793944      49.64445491       8.96196160       0.01148197       0.00870197      -0.00763178      -4.83961582
Cl      11.62413762      41.32866623      37.69969864      -0.01791911      -0.03922965      -0.01069442      -4.79815102
Cl      27.90085967      28.54286523      44.97262953      -0.02823103       0.02328818       0.00666208      -4.68420506
Cl      39.11290849       5.88642904      13.79518113       0.03205010      -0.02405661       0.02910044      -4.96361589
Cl      58.27782495      27.87916569       5.45802721       0.00995571      -0.03825859       0.04537282      -4.88074875
Cl       9.26297081      24.42377564      16.03744258      -0.02380478      -0.00337433      -0.06114483      -4.73894405
Cl      28.39274877       8.36076364      30.72910065      -0.03644437       0.08659093       0.04950288      -4.85335112
Cl      13.73149411       9.62201283      19.69128284      -0.02562316      -0.02212968       0.06002972      -4.72941351
Cl      51.08994322      10.79192018      49.66252430      -0.06068996       0.06241861      -0.05240548      -4.69973183
Cl      39.28495879      13.05546733      55.80428993       0.00358312      -0.02350442      -0.01635126      -4.84757757
Cl      15.97297276      31.35425222      56.96054092      -0.03206518      -0.01596672       0.02384099      -4.74745417
Cl      54.70019016      12.35174177      32.82542000      -0.03397505       0.05366359      -0.05248246      -4.74267006
Cl      36.16273542      58.32920854       3.78885491       0.02410045       0.00081701       0.03615771      -4.90441990
Na       5.22296024       9.22100721      33.96527732       0.04488016      -0.01534452      -0.01146471      -1.18341970
Na      23.62619373      39.43551120      57.24436155      -0.00570267       0.00921686      -0.03679573      -1.27358568
Na      35.96202558      46.24765301       9.14000192      -0.05274299      -0.01803252       0.07178456      -1.25611687
Na      12.88819993      39.06230163      51.44516893      -0.02632147       0.01433556       0.01784095      -1.03911638
Na      38.08522295      30.07387389      45.74584024      -0.01849122       0.02869162      -0.00272974      -1.16594768
Na      28.19502796      10.81982687      43.65640875      -0.00343664      -0.01881392       0.05289943      -1.22163773
Na      44.70336731      21.61662709      40.39224928       0.07712216      -0.00875667      -0.01172870      -1.18864572
Na      14.23812893      48.58279590      22.27791834       0.06369297       0.02127355      -0.00261990      -1.24549580
Na      36.22875303      52.20398022      30.61498827       0.03503906      -0.01228798      -0.04373907      -1.32131600
Na      48.84279925      13.46271566      29.26887241      -0.01631308      -0.01363849      -0.01715817      -1.16918075
Na      18.18087600      28.37804972      24.84299389       0.03780703      -0.02662480      -0.07024322      -1.10307431
Na      48.34117946      49.24856685       7.84639071       0.08457120      -0.01692987      -0.04402360      -1.22851682
Na      48.98774847      39.37187191      56.94176960       0.00651266      -0.01314725      -0.05081859      -1.25594604
Na      35.38753628      57.11467345      20.80428017      -0.08964311       0.07089320       0.08429602      -1.16375959
Na      13.21560672      21.42460594      47.95762845       0.02695228       0.05512744       0.02226334      -1.38379788
Na      26.91217173      11.59338588      40.22325657       0.00822552      -0.04112367       0.01814910      -1.24673629
Na      23.12578223       6.18953313      49.44546952      -0.01098960      -0.09854425      -0.02999120      -1.30422843
Na       0.84297364      44.79301034      35.72938754      -0.00329372      -0.01597545      -0.00310844      -1.23727322
Na      27.50247272       0.10350569      47.54992000      -0.00926191      -0.02737792      -0.00990887      -1.24766636
Na      22.46245214       2.66072509      42.73161495      -0.00901755      -0.01542344       0.03860614      -1.24622655
Na      31.29333738      52.26595562       6.79871958       0.03741906      -0.08309897       0.06305117      -1.21957946
Na      41.51924399      21.15475767      29.55688543       0.04864616       0.05360021       0.00004634      -1.20907593
Na      45.00733219      28.52655869      29.08947336       0.03015949      -0.03767480      -0.01154075      -1.40401793
Na      37.21640012      35.27274575      55.37247605      -0.01781052      -0.02945529       0.02390729      -1.26923585
Na      47.46043536      10.95649104      31.42528364       0.02094942       0.01489712      -0.02419864      -1.20583653
Na      38.67493437       5.04771151      31.14359836       0.03069986       0.06943841      -0.01677352      -1.36267269
Na      18.61054896      32.01174029      42.33541409       0.04307884      -0.10990546       0.09727901      -1.14941216
Na      55.53300786       7.37029000      11.71456708      -0.00235377       0.02336891      -0.05063353      -1.13219225
Na      31.02329832      51.37933987      15.63055055      -0.06298897       0.07220136       0.02160648      -1.28227711
Na      19.34689434       5.57183497      17.97228967      -0.00365290      -0.06044865      -0.05624715      -1.26266909
Na      26.30965637      47.29441528      19.17250198       0.05183238      -0.02498366      -0.00118055      -1.35231149
Na      25.97998366      53.51052862       3.19554709      -0.03938850      -0.00174678       0.00325837      -1.30939102
Na      54.24782199      43.76196085       9.43803113       0.01040244      -0.00722363      -0.01942664      -1.23267543
Na      49.99357097      53.64656411      37.64736417      -0.05201079       0.02367887      -0.00341201      -1.16137516
Na      25.66888478      47.66934247      41.71077751       0.03829350      -0.01932484       0.02266920      -1.26006961
Na      29.41474872      11.53470018       3.37195963       0.05600227      -0.06824426       0.06978253      -1.25874782
Na      10.05214650      18.76029634       8.67791786       0.04609937       0.00819189       0.01244459      -1.28974533
Na      34.10556917      50.13083665      57.05603072      -0.06471682       0.00073760       0.03622061      -1.17976069
Na      44.08048788      47.17789047       1.02721766      -0.07000284      -0.03368495      -0.00028830      -1.20172596
Na      46.49876971      17.87641244       9.90847837       0.03860399       0.01010805       0.10222005      -1.11785519
Na      45.78157238      12.08006859      21.42924071       0.02280640      -0.02499914      -0.00833122      -1.14850080
Na      52.04717172      40.96252721      32.33939152      -0.03203038       0.00309571       0.01785124      -1.27845669
Na      26.21044735      14.56325258      42.80780022       0.04054261       0.01736071      -0.01854351      -1.30761123
Na      16.81783487      24.88739154      40.16084249      -0.09549782       0.01157670       0.08263497      -1.15354180
Na      52.42278181      30.93804454       5.80035527      -0.05022956       0.02754564      -0.02704374      -1.31728077
Na      58.17669953       1.04985734      25.71504880       0.00633997       0.02910150      -0.01019449      -1.21386194
Na      51.29429571      42.75200646      55.57950671      -0.00010066       0.00927099      -0.04414730      -1.13764143
Na      30.98668177      18.82668945       4.38853590      -0.03401634      -0.01453377      -0.08099755      -1.18394983
Na      34.05610168      45.34267408      32.33572419      -0.02771897       0.04031645       0.11050189      -1.05262363
Na      40.34214383      27.63706620      20.69759235       0.06882893      -0.03583872      -0.03662361      -1.16658854
Cl      33.38359817      47.50906546      20.02279021       0.03342043      -0.01742682      -0.19539189      -4.64189148
Cl      -0.18307761      38.59174844      24.37302098      -0.02635836      -0.07383767       0.07197952      -4.74177265
Cl      30.02019408      35.58055949      49.48800033       0.03539773      -0.01320135      -0.02175292      -4.85831785
Cl       6.73899791      54.86546166      40.21031528      -0.02536296       0.02753437      -0.03309575      -4.54522419
Cl      33.37477110      37.39523374      31.58221510       0.01820872       0.06819372       0.01137534      -4.96492863
Cl      44.31012783      31.50554370      23.38982148       0.06328090       0.01054236      -0.02392324      -4.85111380
Cl      30.56004476      55.11620874       0.90341327      -0.01075978       0.00332149       0.00892552      -4.87588930
Cl      58.41490655      31.55279336      48.15368191      -0.01458318      -0.03003814       0.00493225      -4.84151220
Cl      49.30750845      36.73240988      50.56080740      -0.02091721       0.09018171       0.05276178      -4.75690794
Cl      24.68024934      35.81302274      39.13595004      -0.09907561       0.05827767      -0.02588751      -4.55963278
Cl      26.28198917      53.63865814      56.73010327       0.03956612      -0.01114652       0.03181265      -4.97571039
Cl      39.85119314      21.86335211      18.76081489      -0.01692181      -0.03057806      -0.05777783      -4.57716322
Cl      20.40415958       4.01774425      14.58520816      -0.05344576       0.01682308      -0.01334582      -4.72311878
Cl      49.84661124      25.79319257       0.98831333      -0.00932573      -0.01553867      -0.05776897      -5.00194693
Cl      10.32447021      31.38790133      14.56010595      -0.01604469      -0.02558772       0.02068248      -4.85765076
Cl      41.02711197       4.87797231      50.64989222       0.05526014       0.00725339       0.00430676      -4.64363956
Cl      18.10846346      12.30794848      56.35212524      -0.03439837       0.00955640      -0.00943367      -4.94810867
Cl      40.42635974       0.99197107      35.19059415       0.02062516      -0.01774593       0.02786669      -4.78876066
Cl      47.00789079      14.24057431      36.90860482       0.11854474       0.00534893      -0.10387167      -4.64776230
Cl      17.80651941      10.99487311       4.77339732      -0.05856999      -0.09004252      -0.03156576      -4.84191513
Cl      17.97373577      10.25220046       8.45046205      -0.09461734       0.07473254       0.05332388      -4.82332420
Cl      58.03955069      42.38613648      56.06113015       0.01935691       0.00837919      -0.01939077      -4.79641390
Cl       7.83037415      43.88064315      51.95155555      -0.02882610       0.03476214       0.05792551      -4.81339359
Cl      17.39382107       8.13279986      56.73668697      -0.04309141       0.02290133      -0.01253925      -4.92758179
Cl      12.59340788      19.23473688      46.03394515       0.06295577       0.01938522      -0.01610731      -4.87657738
Cl      22.35884363      33.24879014      51.06467987      -0.03180594      -0.02030779       0.04601356      -4.82362700
Cl       6.85831193      22.65425867      57.14205560      -0.00792984      -0.03409719      -0.03109730      -5.00510645
Cl      52.31679672      32.53499838      54.84758989       0.13623938       0.03111435       0.09161842      -4.95990753
Cl      26.37489470      16.39561515      25.42937694       0.02033655      -0.02407780      -0.00952070      -4.75997925
Cl      47.07793439      58.41151473      30.89345245       0.01848932       0.09664021      -0.02079644      -4.67535543
Cl      16.97098564      48.61732916       1.77442123       0.00295068       0.13775614      -0.01384361      -4.80300760
Cl      57.45538589      34.99199109      56.49158352      -0.04541245      -0.04145367       0.01244649      -4.81946039
Cl      21.86783146      20.95588167       3.11185906      -0.02402388      -0.00350896       0.01743147      -4.81551170
Cl       4.93712950      19.60893303      54.64879386       0.01308693      -0.02671730      -0.08996062      -4.66216469
Cl      53.00094972      46.82432879      18.11111466       0.02504632       0.03441307      -0.01548871      -4.83569145
Cl      21.81239626      29.37683273      28.77949419      -0.03851400      -0.01182162      -0.04123541      -4.89428616
Cl      48.57207656       1.41126557      25.41358303       0.01700526      -0.05977754       0.05505782      -4.91935921
Cl      31.11793948      49.64445497      23.59382867       0.01148169       0.00870221      -0.00763043      -4.83961582
Cl      11.62413744      41.32866652      52.33156533      -0.01791793      -0.03923070      -0.01068907      -4.79814959
Cl      27.90085959      28.54286543       1.07702833      -0.02823076       0.02328922       0.00666243      -4.68420410
Cl      39.11290846       5.88642904      28.42704816       0.03205060      -0.02405641       0.02910173      -4.96361637
Cl      58.27782490      27.87916542      20.08989467       0.00995603      -0.03825823       0.04537264      -4.88074875
Cl       9.26297077      24.42377566      30.66930961      -0.02380445      -0.00337395      -0.06114079      -4.73894310
Cl      28.39274872       8.36076365      45.36096770      -0.03644484       0.08658960       0.04949888      -4.85335016
Cl      13.73149405       9.62201290      34.32315001      -0.02562293      -0.02212816       0.06002606      -4.72941303
Cl      51.08994327      10.79192015       5.76692308      -0.06068969       0.06241939      -0.05240467      -4.69973087
Cl      39.28495880      13.05546729      11.90868846       0.00358358      -0.02350555      -0.01635086      -4.84757757
Cl      15.97297270      31.35425243      13.06493872      -0.03206504      -0.01596616       0.02384234      -4.74745369
Cl      54.70019039      12.35174184      47.45728707      -0.03397344       0.05366331      -0.05248021      -4.74267006
Cl      36.16273553      58.32920857      18.42072249       0.02410155       0.00081660       0.03615704      -4.90442085
Na       5.22296017       9.22100724      48.59714414       0.04488030      -0.01534453      -0.01146336      -1.18341959
Na      23.62619344      39.43551143      13.34875957      -0.00570441       0.00921755      -0.03679416      -1.27358603
Na      35.96202540      46.24765298      23.77186914      -0.05274288      -0.01803270       0.07178336      -1.25611711
Na      12.88819995      39.06230152       7.54956728      -0.02632235       0.01433522       0.01783843      -1.03911698
Na      38.08522271      30.07387427       1.85023852      -0.01849089       0.02869458      -0.00272767      -1.16594768
Na      28.19502823      10.81982672      58.28827672      -0.00343503      -0.01881396       0.05290052      -1.22163820
Na      44.70336717      21.61662729      55.02411707       0.07713013      -0.00875505      -0.01172985      -1.18864655
Na      14.23812891      48.58279588      36.90978546       0.06369147       0.02127504      -0.00262304      -1.24549580
Na      36.22875305      52.20398023      45.24685538       0.03503994      -0.01228519      -0.04374193      -1.32131648
Na      48.84279928      13.46271567      43.90073945      -0.01631610      -0.01363919      -0.01715359      -1.16918159
Na      18.18087593      28.37804959      39.47486093       0.03780719      -0.02662316      -0.07024247      -1.10307419
Na      48.34117943      49.24856674      22.47825788       0.08457100      -0.01693026      -0.04402523      -1.22851717
Na      48.98774859      39.37187164      13.04616810       0.00651418      -0.01314700      -0.05081984      -1.25594640
Na      35.38753619      57.11467345      35.43614722      -0.08964324       0.07089231       0.08429757      -1.16375947
Na      13.21560672      21.42460596       4.06202728       0.02695369       0.05512749       0.02226557      -1.38379717
Na      26.91217180      11.59338588      54.85512400       0.00822536      -0.04112225       0.01813815      -1.24673617
Na      23.12578225       6.18953314       5.54986833      -0.01099149      -0.09854466      -0.02999203      -1.30422854
Na       0.84297365      44.79301044      50.36125475      -0.00329215      -0.01597448      -0.00310717      -1.23727405
Na      27.50247267       0.10350551       3.65431872      -0.00926322      -0.02737832      -0.00991237      -1.24766624
Na      22.46245218       2.66072513      57.36348260      -0.00901775      -0.01542182       0.03860174      -1.24622619
Na      31.29333739      52.26595565      21.43058662       0.03741882      -0.08309866       0.06305096      -1.21957874
Na      41.51924388      21.15475753      44.18875250       0.04864413       0.05359752       0.00005020      -1.20907664
Na      45.00733219      28.52655863      43.72134064       0.03016003      -0.03767548      -0.01153792      -1.40401852
Na      37.21639996      35.27274596      11.47687449      -0.01780936      -0.02945500       0.02390410      -1.26923609
Na      47.46043519      10.95649101      46.05715057       0.02095068       0.01489895      -0.02420352      -1.20583689
Na      38.67493437       5.04771147      45.77546538       0.03070198       0.06943876      -0.01677610      -1.36267304
Na      18.61054893      32.01174038      56.96728138       0.04308014      -0.10990556       0.09727972      -1.14941072
Na      55.53300785       7.37028993      26.34643412      -0.00235208       0.02336947      -0.05063123      -1.13219190
Na      31.02329828      51.37933987      30.26241760      -0.06298828       0.07220124       0.02160770      -1.28227687
Na      19.34689436       5.57183499      32.60415668      -0.00365245      -0.06044823      -0.05624594      -1.26266956
Na      26.30965624      47.29441529      33.80436898       0.05183253      -0.02498369      -0.00118462      -1.35231125
Na      25.97998371      53.51052876      17.82741456      -0.03938798      -0.00174538       0.00325669      -1.30939174
Na      54.24782204      43.76196092      24.06989824       0.01040150      -0.00722392      -0.01942893      -1.23267508
Na      49.99357095      53.64656415      52.27923130      -0.05201020       0.02367856      -0.00341139      -1.16137528
Na      25.66888484      47.66934248      56.34264496       0.03829340      -0.01932178       0.02267100      -1.26007020
Na      29.41474876      11.53470018      18.00382680       0.05600220      -0.06824415       0.06978312      -1.25874782
Na      10.05214648      18.76029637      23.30978491       0.04609938       0.00819087       0.01244090      -1.28974557
Na      34.10556918      50.13083637      13.16042982      -0.06471677       0.00073575       0.03621819      -1.17976022
Na      44.08048766      47.17789113      15.65908498      -0.07000251      -0.03368545      -0.00028823      -1.20172572
Na      46.49876982      17.87641245      24.54034548       0.03859722       0.01010641       0.10221521      -1.11785531
Na      45.78157237      12.08006860      36.06110752       0.02280741      -0.02499688      -0.00832886      -1.14850056
Na      52.04717162      40.96252739      46.97125893      -0.03203029       0.00309562       0.01785021      -1.27845740
Na      26.21044708      14.56325259      57.43966788       0.04054360       0.01736099      -0.01854262      -1.30761099
Na      16.81783505      24.88739144      54.79270974      -0.09549724       0.01157556       0.08263671      -1.15354156
Na      52.42278184      30.93804440      20.43222264      -0.05022916       0.02754524      -0.02704262      -1.31728125
Na      58.17669960       1.04985738      40.34691564       0.00634230       0.02910178      -0.01019293      -1.21386170
Na      51.29429565      42.75200654      11.68390523      -0.00010110       0.00926832      -0.04414971      -1.13764179
Na      30.98668186      18.82668960      19.02040285      -0.03401528      -0.01453416      -0.08099736      -1.18394971
Na      34.05610169      45.34267410      46.96759104      -0.02771928       0.04031441       0.11050169      -1.05262434
Na      40.34214393      27.63706636      35.32945943       0.06882820      -0.03584033      -0.03662875      -1.16658795
Cl      33.38359836      47.50906553      34.65465740       0.03341830      -0.01742695      -0.19539219      -4.64188957
Cl      -0.18307757      38.59174848      39.00488801      -0.02635819      -0.07383797       0.07198000      -4.74177265
Cl      30.02019383      35.58055944       5.59239891       0.03539964      -0.01320336      -0.02175510      -4.85831738
Cl       6.73899777      54.86546160      54.84218251      -0.02536318       0.02753384      -0.03309680      -4.54522324
Cl      33.37477102      37.39523386      46.21408198       0.01820843       0.06819355       0.01137565      -4.96492863
Cl      44.31012811      31.50554380      38.02168847       0.06327441       0.01053423      -0.02393119      -4.85111713
Cl      30.56004491      55.11620847      15.53528071      -0.01075797       0.00332287       0.00892215      -4.87588930
Cl      58.41490643      31.55279333       4.25808077      -0.01458400      -0.03003749       0.00493014      -4.84151316
Cl      49.30750841      36.73240984       6.66520634      -0.02091726       0.09018548       0.05275710      -4.75690842
Cl      24.68024920      35.81302248      53.76781735      -0.09907472       0.05827542      -0.02589458      -4.55963564
Cl      26.28198911      53.63865794      12.83450179       0.03956619      -0.01114755       0.03180816      -4.97571039
Cl      39.85119300      21.86335211      33.39268171      -0.01692187      -0.03057949      -0.05777777      -4.57716274
Cl      20.40415958       4.01774422      29.21707515      -0.05344583       0.01682306      -0.01334563      -4.72311878
Cl      49.84661150      25.79319263      15.62018084      -0.00932617      -0.01553906      -0.05776740      -5.00194693
Cl      10.32447022      31.38790132      29.19197294      -0.01604466      -0.02558739       0.02068315      -4.85765123
Cl      41.02711200       4.87797206       6.75429106       0.05526155       0.00725223       0.00429949      -4.64363861
Cl      18.10846334      12.30794825      12.45652360      -0.03439754       0.00955329      -0.00942758      -4.94810867
Cl      40.42635984       0.99197095      49.82246084       0.02062552      -0.01774695       0.02786567      -4.78876114
Cl      47.00789056      14.24057427      51.54047150       0.11855198       0.00535046      -0.10386602      -4.64776325
Cl      17.80651937      10.99487298      19.40526458      -0.05857163      -0.09004175      -0.03156176      -4.84191513
Cl      17.97373586      10.25220047      23.08232901      -0.09461717       0.07473230       0.05332630      -4.82332420
Cl      58.03955068      42.38613655      12.16552842       0.01935792       0.00837816      -0.01939043      -4.79641390
Cl       7.83037415      43.88064305       8.05595458      -0.02882700       0.03476249       0.05792512      -4.81339264
Cl      17.39382067       8.13279980      12.84108550      -0.04308801       0.02290224      -0.01253716      -4.92758274
Cl      12.59340780      19.23473678       2.13834389       0.06295545       0.01938256      -0.01610401      -4.87657738
Cl      22.35884348      33.24879004       7.16907845      -0.03180739      -0.02030739       0.04600969      -4.82362700
Cl       6.85831184      22.65425825      13.24645344      -0.00792821      -0.03409621      -0.03109538      -5.00510788
Cl      52.31679677      32.53499833      10.95198821       0.13624033       0.03111344       0.09162514      -4.95990658
Cl      26.37489473      16.39561525      40.06124412       0.02033539      -0.02408135      -0.00952464      -4.75997925
Cl      47.07793437      58.41151494      45.52531956       0.01849033       0.09663991      -0.02079891      -4.67535448
Cl      16.97098557      48.61732922      16.40628829       0.00295230       0.13775724      -0.01384300      -4.80300856
Cl      57.45538580      34.99199109      12.59598246      -0.04541346      -0.04145642       0.01244576      -4.81946182
Cl      21.86783134      20.95588153      17.74372679      -0.02402445      -0.00350924       0.01743187      -4.81551170
Cl       4.93712946      19.60893282      10.75319292       0.01308650      -0.02671776      -0.08996298      -4.66216326
Cl      53.00094961      46.82432860      32.74298200       0.02504616       0.03441302      -0.01548456      -4.83569145
Cl      21.81239626      29.37683272      43.41136111      -0.03851529      -0.01182175      -0.04123798      -4.89428425
Cl      48.57207657       1.41126554      40.04545012       0.01700389      -0.05977535       0.05506291      -4.91935921
Cl      31.11793948      49.64445486      38.22569601       0.01148058       0.00870239      -0.00763291      -4.83961678
Cl      11.62413756      41.32866640       8.43596431      -0.01791805      -0.03923076      -0.01069182      -4.79814959
Cl      27.90085960      28.54286538      15.70889547      -0.02823265       0.02328976       0.00666403      -4.68420458
Cl      39.11290857       5.88642907      43.05891515       0.03204998      -0.02405662       0.02910129      -4.96361589
Cl      58.27782490      27.87916534      34.72176167       0.00995698      -0.03825816       0.04537533      -4.88074780
Cl       9.26297079      24.42377569      45.30117672      -0.02380656      -0.00337759      -0.06114873      -4.73894167
Cl      28.39274867       8.36076353       1.46536613      -0.03644492       0.08659056       0.04950232      -4.85335112
Cl      13.73149407       9.62201290      48.95501654      -0.02562276      -0.02212887       0.06002949      -4.72941446
Cl      51.08994308      10.79192020      20.39879029      -0.06068978       0.06241784      -0.05240508      -4.69972992
Cl      39.28495867      13.05546723      26.54055542       0.00358394      -0.02350553      -0.01635049      -4.84757710
Cl      15.97297270      31.35425238      27.69680573      -0.03206311      -0.01596555       0.02384185      -4.74745321
Cl      54.70019021      12.35174151       3.56168601      -0.03397368       0.05366388      -0.05248144      -4.74266958
Cl      36.16273556      58.32920873      33.05258910       0.02410025       0.00081615       0.03615787      -4.90442085
Na       5.22296012       9.22100746       4.70154314       0.04488026      -0.01534538      -0.01146115      -1.18341947
Na      23.62619344      39.43551146      27.98062655      -0.00570340       0.00921770      -0.03679641      -1.27358532
Na      35.96202545      46.24765298      38.40373585      -0.05274506      -0.01803279       0.07178646      -1.25611699
Na      12.88819986      39.06230149      22.18143458      -0.02632214       0.01433499       0.01783598      -1.03911674
Na      38.08522289      30.07387392      16.48210624      -0.01849258       0.02869301      -0.00272906      -1.16594732
Na      28.19502813      10.81982688      14.39267486      -0.00343396      -0.01881310       0.05290089      -1.22163796
Na      44.70336724      21.61662713      11.12851516       0.07712282      -0.00875688      -0.01172895      -1.18864620
Na      14.23812892      48.58279587      51.54165220       0.06369223       0.02127400      -0.00262159      -1.24549556
Na      36.22875258      52.20397999       1.35125336       0.03503921      -0.01228759      -0.04374083      -1.32131672
Na      48.84279952      13.46271566       0.00513761      -0.01631448      -0.01363765      -0.01715516      -1.16918087
Na      18.18087610      28.37804966      54.10672803       0.03780797      -0.02662553      -0.07023744      -1.10307384
Na      48.34117962      49.24856688      37.11012463       0.08457144      -0.01692773      -0.04402543      -1.22851706
Na      48.98774856      39.37187166      27.67803510       0.00651341      -0.01314739      -0.05082233      -1.25594592
Na      35.38753631      57.11467341      50.06801420      -0.08964363       0.07089231       0.08429292      -1.16375947
Na      13.21560680      21.42460592      18.69389459       0.02695226       0.05512780       0.02226425      -1.38379741
Na      26.91217178      11.59338587      10.95952247       0.00822521      -0.04112370       0.01814521      -1.24673629
Na      23.12578228       6.18953321      20.18173557      -0.01099109      -0.09854534      -0.02999335      -1.30422831
Na       0.84297344      44.79301026       6.46565353      -0.00329299      -0.01597549      -0.00310638      -1.23727298
Na      27.50247290       0.10350559      18.28618604      -0.00926554      -0.02737760      -0.00991348      -1.24766612
Na      22.46245208       2.66072517      13.46788105      -0.00901735      -0.01542241       0.03860072      -1.24622643
Na      31.29333754      52.26595561      36.06245370       0.03741739      -0.08309980       0.06304927      -1.21957898
Na      41.51924426      21.15475728       0.29315054       0.04864760       0.05360260       0.00004501      -1.20907676
Na      45.00733226      28.52655873      58.35320816       0.03015878      -0.03767592      -0.01153636      -1.40401816
Na      37.21639998      35.27274601      26.10874146      -0.01780914      -0.02945513       0.02390433      -1.26923573
Na      47.46043548      10.95649106       2.16154909       0.02095090       0.01489829      -0.02419974      -1.20583653
Na      38.67493439       5.04771141       1.87986366       0.03070090       0.06943698      -0.01677338      -1.36267328
Na      18.61054893      32.01174043      13.07168037       0.04308004      -0.10990511       0.09727851      -1.14941132
Na      55.53300783       7.37028995      40.97830111      -0.00235799       0.02336672      -0.05063686      -1.13219237
Na      31.02329825      51.37933985      44.89428468      -0.06298886       0.07220104       0.02160820      -1.28227782
Na      19.34689432       5.57183498      47.23602367      -0.00365306      -0.06044865      -0.05624592      -1.26266932
Na      26.30965628      47.29441533      48.43623580       0.05183246      -0.02498495      -0.00118482      -1.35231161
Na      25.97998384      53.51052880      32.45928184      -0.03938776      -0.00174553       0.00325785      -1.30939150
Na      54.24782185      43.76196083      38.70176497       0.01040185      -0.00722206      -0.01942329      -1.23267496
Na      49.99357092      53.64656417       8.38363024      -0.05201024       0.02367791      -0.00341125      -1.16137552
Na      25.66888480      47.66934245      12.44704357       0.03829458      -0.01932336       0.02266713      -1.26006985
Na      29.41474871      11.53470014      32.63569407       0.05600112      -0.06824514       0.06978555      -1.25874770
Na      10.05214661      18.76029632      37.94165191       0.04609961       0.00819134       0.01244327      -1.28974509
Na      34.10556918      50.13083626      27.79229680      -0.06471727       0.00073666       0.03621821      -1.17976022
Na      44.08048762      47.17789112      30.29095199      -0.07000288      -0.03368454      -0.00028865      -1.20172584
Na      46.49876959      17.87641247      39.17221213       0.03860766       0.01010667       0.10222392      -1.11785436
Na      45.78157243      12.08006861      50.69297485       0.02280190      -0.02499750      -0.00832783      -1.14849997
Na      52.04717168      40.96252717       3.07565728      -0.03203012       0.00309553       0.01785048      -1.27845669
Na      26.21044737      14.56325270      13.54406628       0.04054309       0.01735946      -0.01854504      -1.30761087
Na      16.81783483      24.88739152      10.89710853      -0.09549882       0.01157595       0.08263731      -1.15354192
Na      52.42278186      30.93804452      35.06408915      -0.05023002       0.02754594      -0.02704607      -1.31728077
Na      58.17669968       1.04985726      54.97878313       0.00634061       0.02909943      -0.01018877      -1.21386147
Na      51.29429560      42.75200664      26.31577223      -0.00010110       0.00926904      -0.04415134      -1.13764143
Na      30.98668192      18.82668946      33.65226961      -0.03401407      -0.01453467      -0.08099911      -1.18395007
Na      34.05610113      45.34267363       3.07199014      -0.02771971       0.04031554       0.11050154      -1.05262458
Na      40.34214394      27.63706611      49.96132670       0.06882869      -0.03583899      -0.03662741      -1.16658843
Cl      33.38359814      47.50906542      49.28652432       0.03341872      -0.01742570      -0.19539204      -4.64188957
Cl      -0.18307743      38.59174849      53.63675517      -0.02636120      -0.07383743       0.07197545      -4.74177217
Cl      30.02019383      35.58055968      20.22426611       0.03539941      -0.01320365      -0.02175538      -4.85831785
Cl       6.73899789      54.86546157      10.94658112      -0.02536340       0.02753441      -0.03309600      -4.54522276
Cl      33.37477108      37.39523374       2.31848109       0.01820780       0.06819362       0.01137310      -4.96492863
Cl      44.31012782      31.50554374      52.65355559       0.06328090       0.01053836      -0.02392575      -4.85111523
Cl      30.56004484      55.11620856      30.16714785      -0.01075833       0.00332341       0.00891999      -4.87588978
Cl      58.41490660      31.55279335      18.88994798      -0.01458310      -0.03003801       0.00493173      -4.84151268
Cl      49.30750844      36.73240972      21.29707349      -0.02091696       0.09018528       0.05275654      -4.75690842
Cl      24.68024916      35.81302266       9.87221614      -0.09907395       0.05827695      -0.02589209      -4.55963326
Cl      26.28198903      53.63865794      27.46636884       0.03957183      -0.01114707       0.03180815      -4.97570992
Cl      39.85119313      21.86335199      48.02454891      -0.01692185      -0.03057919      -0.05777690      -4.57716322
Cl      20.40415950       4.01774427      43.84894213      -0.05344444       0.01682340      -0.01334564      -4.72311878
Cl      49.84661140      25.79319256      30.25204781      -0.00932521      -0.01553789      -0.05776722      -5.00194836
Cl      10.32447020      31.38790134      43.82384031      -0.01604482      -0.02558673       0.02068038      -4.85765028
Cl      41.02711207       4.87797219      21.38615807       0.05526096       0.00725337       0.00430151      -4.64363956
Cl      18.10846335      12.30794807      27.08839073      -0.03439648       0.00955260      -0.00942537      -4.94810915
Cl      40.42635973       0.99197109       5.92685983       0.02062545      -0.01774516       0.02786521      -4.78876019
Cl      47.00789058      14.24057431       7.64487035       0.11855099       0.00534908      -0.10387003      -4.64776278
Cl      17.80651941      10.99487278      34.03713130      -0.05856949      -0.09004328      -0.03156812      -4.84191513
Cl      17.97373572      10.25220052      37.71419622      -0.09461749       0.07473219       0.05332889      -4.82332468
Cl      58.03955070      42.38613656      26.79739534       0.01935720       0.00837715      -0.01939001      -4.79641485
Cl       7.83037417      43.88064310      22.68782166      -0.02882640       0.03476303       0.05792626      -4.81339169
Cl      17.39382068       8.13279981      27.47295246      -0.04308738       0.02290190      -0.01253652      -4.92758274
Cl      12.59340788      19.23473679      16.77021124       0.06295533       0.01938384      -0.01610539      -4.87657833
Cl      22.35884350      33.24878996      21.80094564      -0.03180768      -0.02030752       0.04601025      -4.82362652
Cl       6.85831186      22.65425827      27.87832047      -0.00792881      -0.03409570      -0.03109483      -5.00510788
Cl      52.31679679      32.53499838      25.58385515       0.13624050       0.03111436       0.09162828      -4.95990705
Cl      26.37489463      16.39561541      54.69311133       0.02033644      -0.02407911      -0.00952321      -4.75998020
Cl      47.07793442      58.41151474       1.62971783       0.01848834       0.09663916      -0.02080016      -4.67535400
Cl      16.97098541      48.61732923      31.03815523       0.00295246       0.13775569      -0.01384032      -4.80300808
Cl      57.45538575      34.99199110      27.22784937      -0.04541415      -0.04145461       0.01244790      -4.81946230
Cl      21.86783124      20.95588177      32.37559355      -0.02402502      -0.00350866       0.01742908      -4.81551170
Cl       4.93712939      19.60893279      25.38506000       0.01308557      -0.02671685      -0.08996055      -4.66216421
Cl      53.00094975      46.82432865      47.37484868       0.02504546       0.03441247      -0.01548484      -4.83569002
Cl      21.81239632      29.37683252      58.04322891      -0.03851390      -0.01182254      -0.04123491      -4.89428568
Cl      48.57207638       1.41126578      54.67731701       0.01700568      -0.05977826       0.05505541      -4.91935968
Cl      31.11793944      49.64445493      52.85756267       0.01148036       0.00870071      -0.00763251      -4.83961582
Cl      11.62413748      41.32866642      23.06783139      -0.01791788      -0.03923140      -0.01068971      -4.79815006
Cl      27.90085951      28.54286531      30.34076257      -0.02823242       0.02329031       0.00666433      -4.68420458
Cl      39.11290843       5.88642904      57.69078291       0.03205056      -0.02405668       0.02909919      -4.96361446
Cl      58.27782479      27.87916527      49.35362838       0.00995509      -0.03825867       0.04537145      -4.88074875
Cl       9.26297083      24.42377577       1.40557508      -0.02380495      -0.00337674      -0.06114376      -4.73894310
Cl      28.39274870       8.36076362      16.09723368      -0.03644384       0.08659075       0.04950340      -4.85335064
Cl      13.73149410       9.62201287       5.05941568      -0.02562298      -0.02212870       0.06002778      -4.72941399
Cl      51.08994314      10.79192010      35.03065727      -0.06068936       0.06242056      -0.05240657      -4.69972897
Cl      39.28495875      13.05546727      41.17242263       0.00358355      -0.02350629      -0.01635334      -4.84757662
Cl      15.97297277      31.35425236      42.32867285      -0.03206619      -0.01596686       0.02384151      -4.74745417
Cl      54.70019017      12.35174179      18.19355322      -0.03397471       0.05366278      -0.05248703      -4.74267006
Cl      36.16273563      58.32920862      47.68445629       0.02410000       0.00081540       0.03616128      -4.90442038
Na       5.22296014      23.85287436      19.33341019       0.04488194      -0.01534588      -0.01146050      -1.18341959
Na      23.62619349      54.06737814      42.61249346      -0.00570300       0.00921782      -0.03678984      -1.27358603
Na      35.96202569       2.35205159      53.03560338      -0.05274381      -0.01802819       0.07178770      -1.25611711
Na      12.88819975      53.69416866      36.81330140      -0.02632205       0.01433623       0.01784029      -1.03911686
Na      38.08522275      44.70574079      31.11397318      -0.01849276       0.02869073      -0.00272924      -1.16594696
Na      28.19502815      25.45169388      29.02454196      -0.00343478      -0.01881394       0.05290002      -1.22163785
Na      44.70336722      36.24849414      25.76038247       0.07713009      -0.00875402      -0.01173255      -1.18864691
Na      14.23812899       4.68719456       7.64605136       0.06369251       0.02127342      -0.00262072      -1.24549592
Na      36.22875306       8.30837919      15.98312114       0.03503738      -0.01228908      -0.04373940      -1.32131624
Na      48.84279915      28.09458271      14.63700533      -0.01631287      -0.01363926      -0.01715546      -1.16918099
Na      18.18087591      43.00991667      10.21112675       0.03780553      -0.02663132      -0.07023787      -1.10307372
Na      48.34117955       5.35296591      51.74199191       0.08457109      -0.01693183      -0.04402426      -1.22851753
Na      48.98774879      54.00373865      42.30990217       0.00651345      -0.01314612      -0.05081685      -1.25594616
Na      35.38753548      13.21907190       6.17241327      -0.08964220       0.07089119       0.08429543      -1.16375971
Na      13.21560665      36.05647282      33.32576136       0.02695363       0.05512748       0.02226639      -1.38379860
Na      26.91217183      26.22525299      25.59138957       0.00822555      -0.04112433       0.01814540      -1.24673641
Na      23.12578236      20.82140024      34.81360258      -0.01098961      -0.09854532      -0.02999163      -1.30422831
Na       0.84297334       0.89740837      21.09752087      -0.00329308      -0.01597200      -0.00310516      -1.23727357
Na      27.50247230      14.73537323      32.91805314      -0.00926327      -0.02737932      -0.00990959      -1.24766684
Na      22.46245227      17.29259276      28.09974836      -0.00901685      -0.01542301       0.03859981      -1.24622607
Na      31.29333740       8.37035438      50.69432066       0.03741902      -0.08309558       0.06305086      -1.21957862
Na      41.51924379      35.78662455      14.92501835       0.04864560       0.05359857       0.00004640      -1.20907617
Na      45.00733223      43.15842550      14.45760636       0.03016032      -0.03767670      -0.01153872      -1.40401793
Na      37.21639978      49.90461319      40.74060873      -0.01780834      -0.02945530       0.02390349      -1.26923585
Na      47.46043532      25.58835803      16.79341650       0.02095136       0.01489774      -0.02420455      -1.20583653
Na      38.67493440      19.67957903      16.51173126       0.03070106       0.06943712      -0.01677500      -1.36267281
Na      18.61054887      46.64360741      27.70354709       0.04308100      -0.10990590       0.09728029      -1.14941120
Na      55.53300761      22.00215706      55.61016844      -0.00234900       0.02337155      -0.05062610      -1.13219237
Na      31.02329852       7.48373874       0.99868356      -0.06298795       0.07220387       0.02160780      -1.28227651
Na      19.34689429      20.20370230       3.34042274      -0.00365435      -0.06044987      -0.05624558      -1.26266956
Na      26.30965651       3.39881356       4.54063471       0.05183235      -0.02498275      -0.00118036      -1.35231125
Na      25.97998361       9.61492740      47.09114852      -0.03938657      -0.00174457       0.00325885      -1.30939126
Na      54.24782169      58.39382850      53.33363244       0.01040255      -0.00722520      -0.01942741      -1.23267484
Na      49.99357099       9.75096317      23.01549735      -0.05200881       0.02367941      -0.00341110      -1.16137600
Na      25.66888467       3.77374110      27.07891074       0.03829440      -0.01932487       0.02266658      -1.26006985
Na      29.41474875      26.16656713      47.26756087       0.05599973      -0.06824216       0.06978928      -1.25874734
Na      10.05214657      33.39216335      52.57351917       0.04610069       0.00819434       0.01243918      -1.28974509
Na      34.10556940       6.23523528      42.42416353      -0.06471600       0.00073716       0.03622087      -1.17976022
Na      44.08048782       3.28228974      44.92281854      -0.07000329      -0.03368184      -0.00028628      -1.20172596
Na      46.49876986      32.50827919      53.80407948       0.03859937       0.01011423       0.10221507      -1.11785507
Na      45.78157225      26.71193551       6.79737321       0.02281330      -0.02499644      -0.00832786      -1.14850068
Na      52.04717194      55.59439471      17.70752485      -0.03202973       0.00309801       0.01785088      -1.27845740
Na      26.21044743      29.19511967      28.17593331       0.04054303       0.01735760      -0.01854572      -1.30761051
Na      16.81783497      39.51925867      25.52897555      -0.09549873       0.01157410       0.08263341      -1.15354252
Na      52.42278172      45.56991139      49.69595673      -0.05022806       0.02754108      -0.02704737      -1.31728101
Na      58.17669940      15.68172500      11.08318178       0.00634082       0.02910024      -0.01019165      -1.21386266
Na      51.29429594      57.38387320      40.94763931      -0.00009748       0.00927476      -0.04414645      -1.13763988
Na      30.98668191      33.45855632      48.28413678      -0.03401363      -0.01453758      -0.08100124      -1.18395019
Na      34.05610114       1.44707224      17.70385625      -0.02771726       0.04031762       0.11050487      -1.05262327
Na      40.34214404      42.26893302       6.06572532       0.06882711      -0.03584070      -0.03662804      -1.16658866
Cl      33.38359811       3.61346419       5.39092332       0.03341991      -0.01742807      -0.19539237      -4.64189053
Cl      -0.18307758      53.22361553       9.74115415      -0.02635744      -0.07383578       0.07197705      -4.74177217
Cl      30.02019396      50.21242662      34.85613297       0.03539891      -0.01320218      -0.02175337      -4.85831690
Cl       6.73899766      10.96986036      25.57844804      -0.02536353       0.02753701      -0.03309526      -4.54522181
Cl      33.37477133      52.02710093      16.95034821       0.01820736       0.06819514       0.01137460      -4.96493053
Cl      44.31012804      46.13741068       8.75795451       0.06327683       0.01054206      -0.02392621      -4.85111618
Cl      30.56004543      11.22060688      44.79901461      -0.01075838       0.00331929       0.00892078      -4.87589121
Cl      58.41490655      46.18466006      33.52181512      -0.01458548      -0.03004133       0.00493246      -4.84151268
Cl      49.30750853      51.36427703      35.92894010      -0.02091881       0.09018107       0.05276120      -4.75690889
Cl      24.68024919      50.44488982      24.50408319      -0.09907617       0.05827576      -0.02589495      -4.55963469
Cl      26.28198898       9.74305663      42.09823596       0.03957269      -0.01115116       0.03180876      -4.97570992
Cl      39.85119321      36.49521920       4.12894790      -0.01692116      -0.03057924      -0.05777853      -4.57716179
Cl      20.40415963      18.64961226      -0.04666068      -0.05344514       0.01682334      -0.01334616      -4.72311831
Cl      49.84661162      40.42506004      44.88391473      -0.00932545      -0.01554148      -0.05776899      -5.00194645
Cl      10.32447009      46.01976863      -0.07176217      -0.01604458      -0.02558172       0.02068152      -4.85765123
Cl      41.02711205      19.50983963      36.01802502       0.05526263       0.00725143       0.00429944      -4.64363766
Cl      18.10846325      26.93981531      41.72025751      -0.03439762       0.00955115      -0.00942606      -4.94810915
Cl      40.42635944      15.62383909      20.55872777       0.02062571      -0.01775160       0.02786520      -4.78875923
Cl      47.00789064      28.87244131      22.27673746       0.11854986       0.00534703      -0.10387000      -4.64776230
Cl      17.80651946      25.62673997      48.66899834      -0.05857127      -0.09004290      -0.03156474      -4.84191656
Cl      17.97373600      24.88406762      52.34606316      -0.09461728       0.07473270       0.05332750      -4.82332516
Cl      58.03955077      57.01800390      41.42926223       0.01935433       0.00837654      -0.01939716      -4.79641342
Cl       7.83037432      58.51251120      37.31968887      -0.02882680       0.03475665       0.05792422      -4.81339407
Cl      17.39382077      22.76466674      42.10481955      -0.04309126       0.02290231      -0.01253877      -4.92758417
Cl      12.59340797      33.86660383      31.40207834       0.06295396       0.01938567      -0.01610478      -4.87657690
Cl      22.35884346      47.88065693      36.43281280      -0.03180850      -0.02030484       0.04600944      -4.82362890
Cl       6.85831183      37.28612535      42.51018737      -0.00792843      -0.03409502      -0.03109774      -5.00510693
Cl      52.31679677      47.16686513      40.21572243       0.13624384       0.03111701       0.09162510      -4.95990801
Cl      26.37489475      31.02748231      10.79751016       0.02033637      -0.02408390      -0.00952388      -4.75997972
Cl      47.07793415      14.51591318      16.26158550       0.01848872       0.09663978      -0.02079783      -4.67535353
Cl      16.97098549       4.72172795      45.67002219       0.00295187       0.13775536      -0.01384049      -4.80300808
Cl      57.45538596      49.62385792      41.85971663      -0.04541140      -0.04145705       0.01244398      -4.81946325
Cl      21.86783124      35.58774842      47.00746099      -0.02402730      -0.00351290       0.01743174      -4.81551170
Cl       4.93712939      34.24079989      40.01692734       0.01308566      -0.02671680      -0.08996192      -4.66216421
Cl      53.00094966       2.92872701       3.47924714       0.02504788       0.03441481      -0.01548881      -4.83569098
Cl      21.81239633      44.00869972      14.14762713      -0.03851682      -0.01182352      -0.04123580      -4.89428616
Cl      48.57207735      16.04313259      10.78171663       0.01700172      -0.05978009       0.05505835      -4.91935921
Cl      31.11793945       5.74885356       8.96196171       0.01148176       0.00870415      -0.00763104      -4.83961725
Cl      11.62413759      55.96053403      37.69969852      -0.01791935      -0.03922911      -0.01069617      -4.79814911
Cl      27.90085957      43.17473237      44.97262949      -0.02823279       0.02329187       0.00666376      -4.68420410
Cl      39.11290841      20.51829630      13.79518123       0.03205008      -0.02405729       0.02910066      -4.96361589
Cl      58.27782495      42.51103270       5.45802720       0.00995466      -0.03825541       0.04537160      -4.88074970
Cl       9.26297080      39.05564275      16.03744273      -0.02380530      -0.00337201      -0.06114420      -4.73894310
Cl      28.39274874      22.99263079      30.72910057      -0.03644313       0.08659363       0.04950309      -4.85335159
Cl      13.73149408      24.25387980      19.69128274      -0.02562286      -0.02212768       0.06002995      -4.72941446
Cl      51.08994320      25.42378725      49.66252430      -0.06069040       0.06241710      -0.05240502      -4.69973087
Cl      39.28495874      27.68733439      55.80428994       0.00358244      -0.02350350      -0.01635155      -4.84757710
Cl      15.97297279      45.98611924      56.96054093      -0.03206595      -0.01596424       0.02384041      -4.74745464
Cl      54.70019016      26.98360869      32.82542009      -0.03397515       0.05366329      -0.05248122      -4.74267006
Cl      36.16273537      14.43360704       3.78885520       0.02410116       0.00081490       0.03615780      -4.90441990
Na       5.22296025      23.85287420      33.96527740       0.04488026      -0.01534640      -0.01146398      -1.18341947
Na      23.62619378      54.06737803      57.24436140      -0.00570177       0.00921781      -0.03679573      -1.27358556
Na      35.96202576       2.35205166       9.14000204      -0.05274464      -0.01803022       0.07178602      -1.25611734
Na      12.88819969      53.69416880      51.44516888      -0.02632210       0.01433811       0.01784172      -1.03911698
Na      38.08522281      44.70574092      45.74584019      -0.01849227       0.02868747      -0.00273148      -1.16594744
Na      28.19502795      25.45169384      43.65640882      -0.00343616      -0.01881464       0.05289876      -1.22163773
Na      44.70336724      36.24849406      40.39224931       0.07712224      -0.00875621      -0.01172846      -1.18864608
Na      14.23812902       4.68719451      22.27791830       0.06369261       0.02127199      -0.00262006      -1.24549568
Na      36.22875304       8.30837918      30.61498825       0.03503761      -0.01229024      -0.04373885      -1.32131624
Na      48.84279918      28.09458266      29.26887237      -0.01631317      -0.01363933      -0.01715708      -1.16918051
Na      18.18087592      43.00991667      24.84299380       0.03780463      -0.02662911      -0.07024264      -1.10307360
Na      48.34117938       5.35296569       7.84639076       0.08457074      -0.01693334      -0.04402234      -1.22851706
Na      48.98774847      54.00373884      56.94176960       0.00651315      -0.01314577      -0.05081784      -1.25594640
Na      35.38753544      13.21907191      20.80428034      -0.08964278       0.07089180       0.08429479      -1.16376007
Na      13.21560667      36.05647272      47.95762836       0.02695101       0.05512757       0.02226371      -1.38379884
Na      26.91217180      26.22525297      40.22325649       0.00822579      -0.04112400       0.01814988      -1.24673653
Na      23.12578229      20.82140030      49.44546941      -0.01098914      -0.09854519      -0.02999171      -1.30422807
Na       0.84297333       0.89740841      35.72938799      -0.00329293      -0.01597509      -0.00311081      -1.23727345
Na      27.50247238      14.73537327      47.54992006      -0.00926317      -0.02737937      -0.00990914      -1.24766707
Na      22.46245239      17.29259283      42.73161500      -0.00901666      -0.01542491       0.03860615      -1.24622703
Na      31.29333742       8.37035441       6.79871961       0.03742057      -0.08309412       0.06305225      -1.21957898
Na      41.51924389      35.78662451      29.55688529       0.04864607       0.05359990       0.00004638      -1.20907617
Na      45.00733223      43.15842561      29.08947334       0.03015931      -0.03767656      -0.01154138      -1.40401769
Na      37.21640012      49.90461302      55.37247602      -0.01781147      -0.02945415       0.02390759      -1.26923561
Na      47.46043528      25.58835810      31.42528360       0.02094814       0.01489661      -0.02419888      -1.20583618
Na      38.67493435      19.67957892      31.14359836       0.03069988       0.06943794      -0.01677427      -1.36267257
Na      18.61054896      46.64360733      42.33541411       0.04307897      -0.10990825       0.09727966      -1.14941180
Na      55.53300795      22.00215728      11.71456704      -0.00234935       0.02337186      -0.05062895      -1.13219237
Na      31.02329837       7.48373898      15.63055060      -0.06298815       0.07220336       0.02160756      -1.28227663
Na      19.34689442      20.20370223      17.97228949      -0.00365402      -0.06045054      -0.05624696      -1.26266932
Na      26.30965649       3.39881354      19.17250185       0.05183149      -0.02498455      -0.00118273      -1.35231137
Na      25.97998362       9.61492733       3.19554702      -0.03938841      -0.00174451       0.00325808      -1.30939102
Na      54.24782185      58.39382841       9.43803128       0.01040355      -0.00722315      -0.01942632      -1.23267543
Na      49.99357096       9.75096313      37.64736422      -0.05200918       0.02367911      -0.00341205      -1.16137624
Na      25.66888468       3.77374111      41.71077771       0.03829360      -0.01932482       0.02266823      -1.26006961
Na      29.41474868      26.16656716       3.37195962       0.05600184      -0.06824341       0.06978293      -1.25874794
Na      10.05214652      33.39216344       8.67791781       0.04610021       0.00819306       0.01244419      -1.28974581
Na      34.10556933       6.23523555      57.05603064      -0.06471555       0.00073740       0.03621946      -1.17976034
Na      44.08048790       3.28228928       1.02721747      -0.07000300      -0.03368363      -0.00028768      -1.20172584
Na      46.49876970      32.50827931       9.90847834       0.03860611       0.01011298       0.10221913      -1.11785543
Na      45.78157237      26.71193563      21.42924065       0.02280771      -0.02499606      -0.00832964      -1.14850080
Na      52.04717188      55.59439467      32.33939161      -0.03202920       0.00309887       0.01785291      -1.27845669
Na      26.21044747      29.19511956      42.80780025       0.04054242       0.01735966      -0.01854383      -1.30761099
Na      16.81783489      39.51925857      40.16084236      -0.09549797       0.01157405       0.08263458      -1.15354204
Na      52.42278184      45.56991147       5.80035540      -0.05022871       0.02754060      -0.02704223      -1.31728053
Na      58.17669950      15.68172497      25.71504884       0.00634032       0.02910043      -0.01019430      -1.21386242
Na      51.29429598      57.38387314      55.57950705      -0.00009801       0.00927572      -0.04414460      -1.13764048
Na      30.98668168      33.45855617       4.38853591      -0.03401524      -0.01453586      -0.08099802      -1.18394971
Na      34.05610112       1.44707231      32.33572332      -0.02771816       0.04031700       0.11050300      -1.05262327
Na      40.34214388      42.26893302      20.69759229       0.06882866      -0.03583871      -0.03662370      -1.16658831
Cl      33.38359817       3.61346419      20.02279030       0.03341911      -0.01742764      -0.19539297      -4.64188957
Cl      -0.18307760      53.22361551      24.37302124      -0.02635853      -0.07383645       0.07197578      -4.74177265
Cl      30.02019396      50.21242633      49.48800043       0.03540168      -0.01320177      -0.02175213      -4.85831833
Cl       6.73899758      10.96986035      40.21031497      -0.02536182       0.02753788      -0.03309491      -4.54522419
Cl      33.37477133      52.02710097      31.58221516       0.01820887       0.06819497       0.01137461      -4.96493006
Cl      44.31012789      46.13741071      23.38982161       0.06327653       0.01054172      -0.02392482      -4.85111523
Cl      30.56004501      11.22060703       0.90341319      -0.01076021       0.00331929       0.00892308      -4.87589025
Cl      58.41490651      46.18465995      48.15368201      -0.01458135      -0.03003275       0.00493099      -4.84151173
Cl      49.30750857      51.36427686      50.56080715      -0.02091834       0.09018213       0.05276117      -4.75690889
Cl      24.68024928      50.44488982      39.13594991      -0.09907795       0.05827693      -0.02588626      -4.55963278
Cl      26.28198906       9.74305680      56.73010351       0.03957020      -0.01115535       0.03181159      -4.97571039
Cl      39.85119316      36.49521907      18.76081492      -0.01692248      -0.03058009      -0.05777748      -4.57716179
Cl      20.40415952      18.64961176      14.58520822      -0.05344472       0.01682160      -0.01334583      -4.72311878
Cl      49.84661136      40.42505981       0.98831322      -0.00932404      -0.01554248      -0.05776823      -5.00194788
Cl      10.32447027      46.01976849      14.56010586      -0.01604559      -0.02558135       0.02068035      -4.85765314
Cl      41.02711199      19.50983976      50.64989219       0.05525980       0.00725450       0.00430766      -4.64363956
Cl      18.10846339      26.93981559      56.35212521      -0.03439834       0.00955596      -0.00943300      -4.94810867
Cl      40.42635942      15.62383928      35.19059460       0.02062494      -0.01775207       0.02786675      -4.78875971
Cl      47.00789073      28.87244127      36.90860473       0.11854444       0.00534979      -0.10387253      -4.64776230
Cl      17.80651941      25.62674019       4.77339730      -0.05857027      -0.09004247      -0.03156602      -4.84191561
Cl      17.97373585      24.88406755       8.45046206      -0.09461675       0.07473287       0.05332410      -4.82332468
Cl      58.03955074      57.01800394      56.06113018       0.01935475       0.00837662      -0.01939309      -4.79641438
Cl       7.83037434      58.51251129      51.95155557      -0.02882633       0.03475657       0.05792623      -4.81339359
Cl      17.39382101      22.76466679      56.73668701      -0.04309040       0.02290231      -0.01253884      -4.92758179
Cl      12.59340796      33.86660404      46.03394517       0.06295427       0.01938607      -0.01610930      -4.87657595
Cl      22.35884351      47.88065711      51.06467970      -0.03180581      -0.02030434       0.04601326      -4.82362843
Cl       6.85831210      37.28612543      57.14205559      -0.00792979      -0.03409380      -0.03109624      -5.00510693
Cl      52.31679666      47.16686513      54.84758982       0.13624062       0.03111651       0.09161902      -4.95990849
Cl      26.37489480      31.02748218      25.42937694       0.02033668      -0.02408304      -0.00952253      -4.75998020
Cl      47.07793425      14.51591318      30.89345251       0.01848858       0.09663987      -0.02079575      -4.67535448
Cl      16.97098567       4.72172785       1.77442121       0.00295096       0.13775477      -0.01384401      -4.80300856
Cl      57.45538588      49.62385821      56.49158359      -0.04541228      -0.04145529       0.01244546      -4.81946039
Cl      21.86783134      35.58774874       3.11185922      -0.02402574      -0.00351280       0.01743254      -4.81551123
Cl       4.93712943      34.24080017      54.64879394       0.01308582      -0.02671738      -0.08996087      -4.66216516
Cl      53.00094952       2.92872714      18.11111471       0.02504780       0.03441297      -0.01548839      -4.83569098
Cl      21.81239623      44.00869950      28.77949413      -0.03851720      -0.01182448      -0.04123340      -4.89428568
Cl      48.57207736      16.04313264      25.41358374       0.01700300      -0.05977961       0.05505961      -4.91936064
Cl      31.11793952       5.74885355      23.59382873       0.01148133       0.00870469      -0.00762964      -4.83961725
Cl      11.62413756      55.96053416      52.33156538      -0.01791796      -0.03923009      -0.01069095      -4.79814768
Cl      27.90085951      43.17473255       1.07702816      -0.02823287       0.02329133       0.00666532      -4.68420362
Cl      39.11290841      20.51829628      28.42704817       0.03205085      -0.02405629       0.02910253      -4.96361637
Cl      58.27782485      42.51103265      20.08989460       0.00995479      -0.03825637       0.04537117      -4.88074875
Cl       9.26297079      39.05564272      30.66930971      -0.02380493      -0.00337210      -0.06114376      -4.73894405
Cl      28.39274866      22.99263077      45.36096759      -0.03644379       0.08659364       0.04950374      -4.85334969
Cl      13.73149402      24.25387994      34.32314993      -0.02562317      -0.02212676       0.06002714      -4.72941351
Cl      51.08994324      25.42378720       5.76692312      -0.06069067       0.06241671      -0.05240623      -4.69973087
Cl      39.28495869      27.68733432      11.90868849       0.00358305      -0.02350274      -0.01635106      -4.84757662
Cl      15.97297268      45.98611943      13.06493877      -0.03206511      -0.01596418       0.02384102      -4.74745417
Cl      54.70019023      26.98360886      47.45728710      -0.03397270       0.05366358      -0.05248039      -4.74267006
Cl      36.16273534      14.43360705      18.42072274       0.02410157       0.00081536       0.03615833      -4.90441990
Na       5.22296016      23.85287422      48.59714411       0.04488179      -0.01534477      -0.01146149      -1.18341923
Na      23.62619350      54.06737815      13.34875950      -0.00570218       0.00921865      -0.03679420      -1.27358603
Na      35.96202565       2.35205161      23.77186932      -0.05274452      -0.01802978       0.07178399      -1.25611746
Na      12.88819975      53.69416875       7.54956723      -0.02632395       0.01433684       0.01783849      -1.03911722
Na      38.08522261      44.70574121       1.85023840      -0.01849231       0.02869006      -0.00272936      -1.16594708
Na      28.19502819      25.45169372      58.28827674      -0.00343313      -0.01881362       0.05290093      -1.22163796
Na      44.70336720      36.24849430      55.02411698       0.07712914      -0.00875472      -0.01173072      -1.18864679
Na      14.23812901       4.68719445      36.90978535       0.06369072       0.02127395      -0.00262386      -1.24549627
Na      36.22875307       8.30837924      45.24685533       0.03503786      -0.01228738      -0.04374137      -1.32131672
Na      48.84279916      28.09458265      43.90073942      -0.01631467      -0.01364037      -0.01715320      -1.16918147
Na      18.18087583      43.00991636      39.47486076       0.03780535      -0.02662845      -0.07024131      -1.10307360
Na      48.34117938       5.35296576      22.47825786       0.08457192      -0.01693308      -0.04402338      -1.22851729
Na      48.98774854      54.00373878      13.04616807       0.00651430      -0.01314520      -0.05081846      -1.25594664
Na      35.38753535      13.21907199      35.43614727      -0.08964358       0.07089003       0.08429687      -1.16375983
Na      13.21560666      36.05647289       4.06202721       0.02695286       0.05512698       0.02226551      -1.38379812
Na      26.91217181      26.22525299      54.85512401       0.00822540      -0.04112220       0.01813871      -1.24673605
Na      23.12578228      20.82140021       5.54986834      -0.01099087      -0.09854531      -0.02999195      -1.30422807
Na       0.84297343       0.89740849      50.36125538      -0.00329319      -0.01597248      -0.00310676      -1.23727369
Na      27.50247220      14.73537317       3.65431893      -0.00926363      -0.02737881      -0.00991155      -1.24766672
Na      22.46245219      17.29259272      57.36348280      -0.00901736      -0.01542306       0.03860221      -1.24622679
Na      31.29333747       8.37035456      21.43058662       0.03742135      -0.08309392       0.06305292      -1.21957874
Na      41.51924375      35.78662448      44.18875231       0.04864724       0.05360062       0.00005231      -1.20907712
Na      45.00733225      43.15842552      43.72134056       0.03016013      -0.03767693      -0.01153703      -1.40401828
Na      37.21639984      49.90461314      11.47687455      -0.01780976      -0.02945477       0.02390437      -1.26923561
Na      47.46043527      25.58835805      46.05715076       0.02095156       0.01489800      -0.02420488      -1.20583701
Na      38.67493447      19.67957892      45.77546530       0.03070178       0.06943872      -0.01677624      -1.36267328
Na      18.61054881      46.64360728      56.96728131       0.04308041      -0.10990848       0.09728027      -1.14941096
Na      55.53300783      22.00215727      26.34643401      -0.00234868       0.02337182      -0.05062786      -1.13219213
Na      31.02329831       7.48373895      30.26241767      -0.06298900       0.07220276       0.02160777      -1.28227663
Na      19.34689430      20.20370218      32.60415655      -0.00365462      -0.06045029      -0.05624545      -1.26266980
Na      26.30965641       3.39881350      33.80436895       0.05183231      -0.02498258      -0.00117845      -1.35231161
Na      25.97998363       9.61492743      17.82741442      -0.03938724      -0.00174467       0.00325832      -1.30939078
Na      54.24782189      58.39382853      24.06989827       0.01040203      -0.00722503      -0.01942845      -1.23267579
Na      49.99357098       9.75096322      52.27923129      -0.05200923       0.02367815      -0.00341116      -1.16137552
Na      25.66888471       3.77374107      56.34264512       0.03829294      -0.01932213       0.02267136      -1.26007009
Na      29.41474874      26.16656714      18.00382674       0.05600108      -0.06824309       0.06978413      -1.25874770
Na      10.05214648      33.39216354      23.30978489       0.04609989       0.00819287       0.01244176      -1.28974581
Na      34.10556934       6.23523528      13.16042976      -0.06471635       0.00073775       0.03622059      -1.17976046
Na      44.08048771       3.28228970      15.65908465      -0.07000353      -0.03368219      -0.00028743      -1.20172572
Na      46.49876981      32.50827940      24.54034548       0.03859781       0.01011301       0.10221412      -1.11785567
Na      45.78157239      26.71193556      36.06110742       0.02280506      -0.02499461      -0.00832542      -1.14850056
Na      52.04717188      55.59439470      46.97125881      -0.03202862       0.00309770       0.01784971      -1.27845716
Na      26.21044705      29.19511957      57.43966777       0.04054398       0.01736015      -0.01854236      -1.30761087
Na      16.81783505      39.51925848      54.79270973      -0.09549627       0.01157799       0.08263556      -1.15354192
Na      52.42278170      45.56991149      20.43222264      -0.05022887       0.02754032      -0.02704195      -1.31728101
Na      58.17669944      15.68172503      40.34691577       0.00634190       0.02909917      -0.01019209      -1.21386206
Na      51.29429576      57.38387322      11.68390558      -0.00009783       0.00927443      -0.04414666      -1.13764048
Na      30.98668173      33.45855614      19.02040283      -0.03401372      -0.01453534      -0.08099907      -1.18394995
Na      34.05610105       1.44707208      46.96759029      -0.02771894       0.04031643       0.11050352      -1.05262339
Na      40.34214390      42.26893314      35.32945929       0.06882694      -0.03584118      -0.03662873      -1.16658783
Cl      33.38359831       3.61346420      34.65465752       0.03341981      -0.01742821      -0.19539312      -4.64188957
Cl      -0.18307761      53.22361551      39.00488819      -0.02635624      -0.07383645       0.07197909      -4.74177170
Cl      30.02019383      50.21242638       5.59239898       0.03540042      -0.01320237      -0.02175551      -4.85831785
Cl       6.73899743      10.96986029      54.84218240      -0.02536219       0.02753816      -0.03309615      -4.54522324
Cl      33.37477134      52.02710096      46.21408218       0.01820903       0.06819607       0.01137679      -4.96493006
Cl      44.31012823      46.13741060      38.02168858       0.06327584       0.01054097      -0.02392974      -4.85111809
Cl      30.56004530      11.22060695      15.53528053      -0.01075953       0.00331918       0.00892317      -4.87589025
Cl      58.41490632      46.18465998       4.25808081      -0.01458576      -0.03004124       0.00493222      -4.84151316
Cl      49.30750864      51.36427689       6.66520601      -0.02091862       0.09018347       0.05275862      -4.75690985
Cl      24.68024928      50.44488973      53.76781747      -0.09907860       0.05827374      -0.02589585      -4.55963612
Cl      26.28198899       9.74305655      12.83450205       0.03957080      -0.01115185       0.03180875      -4.97571039
Cl      39.85119305      36.49521917      33.39268178      -0.01692202      -0.03058091      -0.05777814      -4.57716179
Cl      20.40415952      18.64961169      29.21707526      -0.05344474       0.01682204      -0.01334620      -4.72311974
Cl      49.84661156      40.42505976      15.62018073      -0.00932454      -0.01554312      -0.05776571      -5.00194788
Cl      10.32447024      46.01976839      29.19197290      -0.01604450      -0.02558186       0.02068296      -4.85765314
Cl      41.02711204      19.50983960       6.75429106       0.05526109       0.00725260       0.00429929      -4.64363909
Cl      18.10846329      26.93981525      12.45652353      -0.03439670       0.00955340      -0.00942752      -4.94810867
Cl      40.42635943      15.62383894      49.82246169       0.02062440      -0.01775157       0.02786737      -4.78875923
Cl      47.00789067      28.87244123      51.54047172       0.11855130       0.00535113      -0.10386714      -4.64776325
Cl      17.80651945      25.62674008      19.40526454      -0.05857196      -0.09004188      -0.03156164      -4.84191608
Cl      17.97373587      24.88406759      23.08232913      -0.09461786       0.07473193       0.05332568      -4.82332420
Cl      58.03955071      57.01800388      12.16552830       0.01935559       0.00837480      -0.01939298      -4.79641342
Cl       7.83037432      58.51251129       8.05595449      -0.02882630       0.03475632       0.05792522      -4.81339407
Cl      17.39382070      22.76466679      12.84108549      -0.04308693       0.02290209      -0.01253712      -4.92758179
Cl      12.59340789      33.86660365       2.13834398       0.06295416       0.01938536      -0.01610591      -4.87657690
Cl      22.35884346      47.88065701       7.16907846      -0.03180742      -0.02030413       0.04600900      -4.82362795
Cl       6.85831190      37.28612527      13.24645341      -0.00792942      -0.03409391      -0.03109455      -5.00510740
Cl      52.31679671      47.16686518      10.95198815       0.13624170       0.03111621       0.09162563      -4.95990753
Cl      26.37489474      31.02748235      40.06124411       0.02033591      -0.02408512      -0.00952503      -4.75997972
Cl      47.07793422      14.51591316      45.52531952       0.01849126       0.09663929      -0.02079833      -4.67535305
Cl      16.97098560       4.72172798      16.40628832       0.00295148       0.13775517      -0.01384349      -4.80300903
Cl      57.45538589      49.62385804      12.59598257      -0.04541420      -0.04145676       0.01244753      -4.81946278
Cl      21.86783125      35.58774864      17.74372680      -0.02402573      -0.00351244       0.01743293      -4.81551123
Cl       4.93712934      34.24079991      10.75319292       0.01308542      -0.02671781      -0.08996259      -4.66216373
Cl      53.00094947       2.92872704      32.74298205       0.02504822       0.03441237      -0.01548550      -4.83569050
Cl      21.81239620      44.00869956      43.41136107      -0.03851645      -0.01182280      -0.04123835      -4.89428377
Cl      48.57207726      16.04313269      40.04545086       0.01700149      -0.05977944       0.05505695      -4.91935873
Cl      31.11793943       5.74885352      38.22569597       0.01148046       0.00870584      -0.00763043      -4.83961773
Cl      11.62413761      55.96053397       8.43596438      -0.01791829      -0.03923015      -0.01069341      -4.79814768
Cl      27.90085946      43.17473244      15.70889548      -0.02823259       0.02329121       0.00666384      -4.68420458
Cl      39.11290842      20.51829629      43.05891526       0.03205103      -0.02405718       0.02910073      -4.96361589
Cl      58.27782486      42.51103272      34.72176165       0.00995614      -0.03825460       0.04537457      -4.88074875
Cl       9.26297077      39.05564267      45.30117675      -0.02380679      -0.00337262      -0.06114913      -4.73894119
Cl      28.39274870      22.99263057       1.46536606      -0.03644433       0.08659318       0.04950339      -4.85334969
Cl      13.73149406      24.25387991      48.95501647      -0.02562327      -0.02212816       0.06002875      -4.72941542
Cl      51.08994325      25.42378722      20.39879024      -0.06069066       0.06241562      -0.05240534      -4.69973087
Cl      39.28495859      27.68733430      26.54055553       0.00358351      -0.02350311      -0.01635024      -4.84757662
Cl      15.97297270      45.98611928      27.69680575      -0.03206534      -0.01596413       0.02384181      -4.74745464
Cl      54.70019016      26.98360846       3.56168602      -0.03397404       0.05366313      -0.05248292      -4.74267006
Cl      36.16273530      14.43360710      33.05258957       0.02410099       0.00081552       0.03615817      -4.90442085
Na       5.22296007      23.85287442       4.70154309       0.04488210      -0.01534613      -0.01145944      -1.18341959
Na      23.62619350      54.06737815      27.98062653      -0.00570405       0.00921894      -0.03679535      -1.27358603
Na      35.96202564       2.35205160      38.40373598      -0.05274495      -0.01803009       0.07178313      -1.25611746
Na      12.88819973      53.69416869      22.18143451      -0.02632300       0.01433698       0.01783662      -1.03911710
Na      38.08522280      44.70574088      16.48210608      -0.01849369       0.02869035      -0.00272674      -1.16594672
Na      28.19502812      25.45169383      14.39267496      -0.00343501      -0.01881434       0.05289952      -1.22163796
Na      44.70336720      36.24849414      11.12851530       0.07712986      -0.00875380      -0.01173041      -1.18864727
Na      14.23812905       4.68719455      51.54165214       0.06369267       0.02127287      -0.00262210      -1.24549556
Na      36.22875282       8.30837900       1.35125337       0.03503680      -0.01228936      -0.04374067      -1.32131648
Na      48.84279947      28.09458257       0.00513764      -0.01631391      -0.01363933      -0.01715504      -1.16918099
Na      18.18087599      43.00991643      54.10672798       0.03780581      -0.02663182      -0.07023549      -1.10307360
Na      48.34117952       5.35296578      37.11012480       0.08457322      -0.01693104      -0.04402564      -1.22851706
Na      48.98774860      54.00373877      27.67803511       0.00651370      -0.01314550      -0.05082106      -1.25594616
Na      35.38753543      13.21907192      50.06801446      -0.08964270       0.07089125       0.08429263      -1.16376007
Na      13.21560675      36.05647285      18.69389446       0.02695181       0.05512837       0.02226421      -1.38379800
Na      26.91217180      26.22525301      10.95952243       0.00822582      -0.04112354       0.01814503      -1.24673629
Na      23.12578231      20.82140031      20.18173546      -0.01099013      -0.09854538      -0.02999330      -1.30422807
Na       0.84297310       0.89740828       6.46565389      -0.00329352      -0.01597301      -0.00310506      -1.23727322
Na      27.50247228      14.73537322      18.28618619      -0.00926326      -0.02737897      -0.00991194      -1.24766648
Na      22.46245231      17.29259281      13.46788129      -0.00901717      -0.01542293       0.03860113      -1.24622655
Na      31.29333756       8.37035462      36.06245369       0.03741922      -0.08309516       0.06305154      -1.21957898
Na      41.51924412      35.78662439       0.29315052       0.04864534       0.05359849       0.00004510      -1.20907664
Na      45.00733225      43.15842578      58.35320809       0.03016015      -0.03767681      -0.01153729      -1.40401816
Na      37.21639988      49.90461323      26.10874152      -0.01780967      -0.02945492       0.02390421      -1.26923561
Na      47.46043537      25.58835809       2.16154907       0.02095120       0.01489750      -0.02419992      -1.20583677
Na      38.67493449      19.67957881       1.87986366       0.03070108       0.06943665      -0.01677345      -1.36267328
Na      18.61054889      46.64360738      13.07168020       0.04308037      -0.10990774       0.09727978      -1.14941144
Na      55.53300786      22.00215728      40.97830112      -0.00235431       0.02336869      -0.05063332      -1.13219213
Na      31.02329834       7.48373892      44.89428468      -0.06298925       0.07220338       0.02160987      -1.28227711
Na      19.34689435      20.20370217      47.23602354      -0.00365430      -0.06045064      -0.05624482      -1.26266968
Na      26.30965647       3.39881360      48.43623573       0.05183239      -0.02498474      -0.00118500      -1.35231125
Na      25.97998376       9.61492748      32.45928157      -0.03938812      -0.00174452       0.00325808      -1.30939114
Na      54.24782169      58.39382837      38.70176518       0.01040141      -0.00722497      -0.01942708      -1.23267472
Na      49.99357100       9.75096322       8.38363031      -0.05200901       0.02367845      -0.00341072      -1.16137600
Na      25.66888472       3.77374108      12.44704368       0.03829424      -0.01932440       0.02266731      -1.26006997
Na      29.41474864      26.16656712      32.63569395       0.05600080      -0.06824464       0.06978492      -1.25874758
Na      10.05214656      33.39216345      37.94165196       0.04609978       0.00819391       0.01244641      -1.28974557
Na      34.10556935       6.23523515      27.79229673      -0.06471604       0.00073745       0.03621947      -1.17976010
Na      44.08048770       3.28228971      30.29095170      -0.07000222      -0.03368246      -0.00028730      -1.20172524
Na      46.49876957      32.50827920      39.17221226       0.03860939       0.01011331       0.10222258      -1.11785519
Na      45.78157243      26.71193563      50.69297479       0.02280412      -0.02499777      -0.00832942      -1.14849985
Na      52.04717188      55.59439479       3.07565735      -0.03202908       0.00309938       0.01785105      -1.27845681
Na      26.21044735      29.19511961      13.54406630       0.04054310       0.01735822      -0.01854564      -1.30761075
Na      16.81783493      39.51925864      10.89710860      -0.09549897       0.01157444       0.08263429      -1.15354252
Na      52.42278168      45.56991159      35.06408925      -0.05022966       0.02754100      -0.02704490      -1.31728041
Na      58.17669950      15.68172497      54.97878320       0.00634108       0.02909915      -0.01019048      -1.21386194
Na      51.29429575      57.38387328      26.31577258      -0.00009736       0.00927472      -0.04414864      -1.13764060
Na      30.98668176      33.45855612      33.65226954      -0.03401425      -0.01453600      -0.08100060      -1.18394959
Na      34.05610092       1.44707194       3.07198953      -0.02771838       0.04031600       0.11050304      -1.05262351
Na      40.34214393      42.26893283      49.96132665       0.06882805      -0.03583975      -0.03662770      -1.16658831
Cl      33.38359811       3.61346422      49.28652435       0.03341976      -0.01742839      -0.19539380      -4.64188957
Cl      -0.18307750      53.22361546      53.63675538      -0.02635941      -0.07383532       0.07197507      -4.74177170
Cl      30.02019396      50.21242657      20.22426617       0.03540159      -0.01320423      -0.02175595      -4.85831833
Cl       6.73899766      10.96986035      10.94658095      -0.02536282       0.02753828      -0.03309683      -4.54522228
Cl      33.37477132      52.02710090       2.31848117       0.01820844       0.06819643       0.01137442      -4.96492958
Cl      44.31012791      46.13741072      52.65355573       0.06327774       0.01054312      -0.02392753      -4.85111666
Cl      30.56004529      11.22060691      30.16714760      -0.01075935       0.00331886       0.00892366      -4.87589169
Cl      58.41490649      46.18465999      18.88994807      -0.01458476      -0.03004172       0.00493357      -4.84151268
Cl      49.30750853      51.36427694      21.29707305      -0.02091816       0.09018351       0.05275843      -4.75690985
Cl      24.68024913      50.44488986       9.87221605      -0.09907509       0.05827615      -0.02589226      -4.55963373
Cl      26.28198891       9.74305662      27.46636903       0.03957132      -0.01115184       0.03180731      -4.97570992
Cl      39.85119305      36.49521922      48.02454888      -0.01692256      -0.03058100      -0.05777559      -4.57716179
Cl      20.40415945      18.64961179      43.84894221      -0.05344396       0.01682322      -0.01334720      -4.72311831
Cl      49.84661148      40.42505983      30.25204778      -0.00932408      -0.01554328      -0.05776696      -5.00194836
Cl      10.32447026      46.01976854      43.82384019      -0.01604502      -0.02558044       0.02068034      -4.85765171
Cl      41.02711201      19.50983969      21.38615795       0.05526058       0.00725426       0.00430181      -4.64363861
Cl      18.10846337      26.93981521      27.08839064      -0.03439624       0.00955306      -0.00942503      -4.94810820
Cl      40.42635934      15.62383904       5.92686057       0.02062625      -0.01775202       0.02786585      -4.78875971
Cl      47.00789065      28.87244135       7.64487038       0.11854765       0.00534402      -0.10387103      -4.64776134
Cl      17.80651938      25.62673989      34.03713125      -0.05856952      -0.09004268      -0.03156771      -4.84191513
Cl      17.97373581      24.88406758      37.71419629      -0.09461663       0.07473300       0.05332815      -4.82332468
Cl      58.03955073      57.01800387      26.79739529       0.01935637       0.00837502      -0.01939174      -4.79641390
Cl       7.83037433      58.51251127      22.68782168      -0.02882641       0.03475700       0.05792486      -4.81339264
Cl      17.39382068      22.76466680      27.47295252      -0.04308643       0.02290114      -0.01253702      -4.92758226
Cl      12.59340797      33.86660389      16.77021120       0.06295478       0.01938359      -0.01610183      -4.87657738
Cl      22.35884345      47.88065699      21.80094562      -0.03180672      -0.02030380       0.04601026      -4.82362747
Cl       6.85831193      37.28612533      27.87832045      -0.00792986      -0.03409305      -0.03109364      -5.00510788
Cl      52.31679669      47.16686519      25.58385520       0.13624203       0.03111589       0.09162817      -4.95990801
Cl      26.37489459      31.02748233      54.69311126       0.02033658      -0.02408366      -0.00952404      -4.75998116
Cl      47.07793408      14.51591297       1.62971797       0.01848890       0.09663837      -0.02080050      -4.67535257
Cl      16.97098550       4.72172793      31.03815517       0.00295174       0.13775454      -0.01384070      -4.80300856
Cl      57.45538600      49.62385805      27.22784946      -0.04541443      -0.04145624       0.01244699      -4.81946230
Cl      21.86783119      35.58774856      32.37559386      -0.02402015      -0.00351185       0.01743106      -4.81551170
Cl       4.93712940      34.24079995      25.38506003       0.01308510      -0.02671755      -0.08996020      -4.66216469
Cl      53.00094952       2.92872713      47.37484867       0.02504699       0.03441314      -0.01548316      -4.83569098
Cl      21.81239635      44.00869975      58.04322889      -0.03851663      -0.01182431      -0.04123504      -4.89428425
Cl      48.57207712      16.04313281      54.67731748       0.01700334      -0.05978116       0.05505743      -4.91936111
Cl      31.11793947       5.74885358      52.85756272       0.01148028       0.00870483      -0.00763065      -4.83961725
Cl      11.62413756      55.96053409      23.06783154      -0.01791796      -0.03923017      -0.01069243      -4.79814816
Cl      27.90085941      43.17473246      30.34076264      -0.02823304       0.02329125       0.00666298      -4.68420458
Cl      39.11290827      20.51829632      57.69078297       0.03205051      -0.02405746       0.02909889      -4.96361446
Cl      58.27782484      42.51103256      49.35362841       0.00995323      -0.03825758       0.04537251      -4.88074875
Cl       9.26297081      39.05564281       1.40557508      -0.02380558      -0.00337156      -0.06114341      -4.73894310
Cl      28.39274883      22.99263070      16.09723366      -0.03644406       0.08659358       0.04950401      -4.85335064
Cl      13.73149403      24.25387983       5.05941559      -0.02562373      -0.02212820       0.06002767      -4.72941399
Cl      51.08994314      25.42378710      35.03065723      -0.06068945       0.06242179      -0.05240665      -4.69972992
Cl      39.28495869      27.68733430      41.17242259       0.00358287      -0.02350372      -0.01635399      -4.84757614
Cl      15.97297274      45.98611939      42.32867286      -0.03206722      -0.01596396       0.02383992      -4.74745464
Cl      54.70019014      26.98360879      18.19355314      -0.03397455       0.05366290      -0.05248193      -4.74267006
Cl      36.16273544      14.43360707      47.68445653       0.02410003       0.00081420       0.03616152      -4.90441990
Na       5.22296016      38.48474171      19.33341004       0.04488158      -0.01534769      -0.01146227      -1.18342042
Na      23.62619347      10.17177745      42.61249334      -0.00570496       0.00921939      -0.03679075      -1.27358663
Na      35.96202569      16.98391907      53.03560333      -0.05274491      -0.01802983       0.07178806      -1.25611711
Na      12.88820012       9.79856743      36.81330132      -0.02632276       0.01433680       0.01783741      -1.03911662
Na      38.08522263       0.81013940      31.11397329      -0.01849269       0.02869114      -0.00272984      -1.16594696
Na      28.19502808      40.08356079      29.02454182      -0.00343389      -0.01881518       0.05289995      -1.22163796
Na      44.70336725      50.88036117      25.76038243       0.07712358      -0.00875459      -0.01172931      -1.18864667
Na      14.23812896      19.31906200       7.64605147       0.06369190       0.02127339      -0.00262073      -1.24549603
Na      36.22875300      22.94024606      15.98312132       0.03503765      -0.01229060      -0.04373895      -1.32131612
Na      48.84279930      42.72644973      14.63700539      -0.01631694      -0.01363426      -0.01715543      -1.16918063
Na      18.18087563      57.64178475      10.21112731       0.03780761      -0.02662428      -0.07023925      -1.10307372
Na      48.34117969      19.98483306      51.74199190       0.08457074      -0.01693131      -0.04402505      -1.22851729
Na      48.98774871      10.10813745      42.30990219       0.00651408      -0.01314442      -0.05081778      -1.25594711
Na      35.38753551      27.85093898       6.17241328      -0.08964330       0.07089255       0.08429494      -1.16375923
Na      13.21560676      50.68833968      33.32576135       0.02695374       0.05512860       0.02226628      -1.38379788
Na      26.91217182      40.85711993      25.59138953       0.00822485      -0.04112700       0.01814646      -1.24673593
Na      23.12578228      35.45326736      34.81360264      -0.01098968      -0.09854284      -0.02999194      -1.30422926
Na       0.84297354      15.52927638      21.09752063      -0.00329206      -0.01597351      -0.00310576      -1.23727381
Na      27.50247232      29.36724024      32.91805317      -0.00926274      -0.02737824      -0.00991013      -1.24766648
Na      22.46245217      31.92445965      28.09974843      -0.00901609      -0.01541959       0.03859873      -1.24622655
Na      31.29333754      23.00222147      50.69432077       0.03741972      -0.08309650       0.06305129      -1.21957827
Na      41.51924377      50.41849139      14.92501841       0.04864572       0.05359929       0.00004598      -1.20907617
Na      45.00733219      57.79029341      14.45760665       0.03015993      -0.03767892      -0.01153884      -1.40401793
Na      37.21639992       6.00901208      40.74060895      -0.01780790      -0.02945510       0.02390463      -1.26923549
Na      47.46043538      40.22022490      16.79341657       0.02095198       0.01489656      -0.02420152      -1.20583606
Na      38.67493444      34.31144588      16.51173120       0.03070197       0.06943755      -0.01677502      -1.36267281
Na      18.61054874       2.74800613      27.70354707       0.04308081      -0.10990402       0.09728165      -1.14941132
Na      55.53300764      36.63402426      55.61016858      -0.00234896       0.02336472      -0.05062970      -1.13219261
Na      31.02329857      22.11560570       0.99868350      -0.06298921       0.07220198       0.02160668      -1.28227663
Na      19.34689430      34.83556936       3.34042277      -0.00365138      -0.06044495      -0.05624750      -1.26266968
Na      26.30965643      18.03068108       4.54063476       0.05183148      -0.02498390      -0.00118167      -1.35231161
Na      25.97998365      24.24679452      47.09114846      -0.03938876      -0.00174456       0.00325802      -1.30939078
Na      54.24782179      14.49822688      53.33363234       0.01040236      -0.00722545      -0.01942770      -1.23267508
Na      49.99357099      24.38283021      23.01549734      -0.05200794       0.02367917      -0.00341096      -1.16137600
Na      25.66888471      18.40560844      27.07891067       0.03829405      -0.01932694       0.02266603      -1.26007009
Na      29.41474865      40.79843442      47.26756109       0.05600302      -0.06824854       0.06977704      -1.25874758
Na      10.05214656      48.02403019      52.57351911       0.04610086       0.00819270       0.01243903      -1.28974462
Na      34.10556933      20.86710244      42.42416346      -0.06471518       0.00074045       0.03622089      -1.17976069
Na      44.08048770      17.91415696      44.92281877      -0.07000311      -0.03368306      -0.00028695      -1.20172668
Na      46.49876976      47.14014598      53.80407939       0.03860491       0.01011221       0.10221747      -1.11785364
Na      45.78157236      41.34380260       6.79737323       0.02280573      -0.02500363      -0.00832975      -1.14850020
Na      52.04717178      11.69879339      17.70752482      -0.03203069       0.00309795       0.01785067      -1.27845728
Na      26.21044732      43.82698680      28.17593331       0.04054394       0.01735484      -0.01854679      -1.30761039
Na      16.81783508      54.15112600      25.52897542      -0.09549876       0.01157411       0.08263637      -1.15354192
Na      52.42278167       1.67430950      49.69595691      -0.05022902       0.02754602      -0.02704411      -1.31728053
Na      58.17669945      30.31359197      11.08318181       0.00634080       0.02909895      -0.01019094      -1.21386194
Na      51.29429565      13.48827241      40.94763902      -0.00009903       0.00927246      -0.04414868      -1.13764191
Na      30.98668193      48.09042356      48.28413691      -0.03401475      -0.01453992      -0.08100280      -1.18395019
Na      34.05610157      16.07893976      17.70385694      -0.02771785       0.04031620       0.11050205      -1.05262375
Na      40.34214453      56.90080111       6.06572512       0.06882749      -0.03584928      -0.03662646      -1.16658854
Cl      33.38359822      18.24533125       5.39092329       0.03341871      -0.01742785      -0.19539291      -4.64189053
Cl      -0.18307752       9.32801432       9.74115388      -0.02635926      -0.07383998       0.07197741      -4.74177265
Cl      30.02019384       6.31682543      34.85613310       0.03539923      -0.01320544      -0.02175602      -4.85831738
Cl       6.73899772      25.60172743      25.57844806      -0.02536321       0.02754074      -0.03309437      -4.54522181
Cl      33.37477117       8.13149977      16.95034820       0.01820734       0.06819049       0.01137382      -4.96492958
Cl      44.31012777       2.24180934       8.75795444       0.06327744       0.01054021      -0.02392800      -4.85111523
Cl      30.56004529      25.85247375      44.79901472      -0.01075851       0.00331942       0.00892179      -4.87589169
Cl      58.41490672       2.28905902      33.52181513      -0.01458476      -0.03003941       0.00493093      -4.84151220
Cl      49.30750872       7.46867599      35.92894042      -0.02091961       0.09018191       0.05276126      -4.75690842
Cl      24.68024900       6.54928841      24.50408306      -0.09907700       0.05827638      -0.02589475      -4.55963516
Cl      26.28198904      24.37492348      42.09823604       0.03957231      -0.01115148       0.03180907      -4.97570992
Cl      39.85119289      51.12708633       4.12894783      -0.01692157      -0.03057902      -0.05777971      -4.57716227
Cl      20.40415961      33.28147947      -0.04666064      -0.05344530       0.01682469      -0.01334386      -4.72311783
Cl      49.84661146      55.05692691      44.88391463      -0.00932866      -0.01553768      -0.05776802      -5.00194502
Cl      10.32446991       2.12416732      -0.07176217      -0.01604206      -0.02558749       0.02068159      -4.85765076
Cl      41.02711208      34.14170659      36.01802511       0.05526169       0.00725093       0.00430208      -4.64363909
Cl      18.10846334      41.57168222      41.72025762      -0.03439703       0.00955612      -0.00942713      -4.94811010
Cl      40.42635944      30.25570617      20.55872772       0.02062548      -0.01775303       0.02786613      -4.78875971
Cl      47.00789053      43.50430824      22.27673730       0.11855224       0.00535509      -0.10386841      -4.64776278
Cl      17.80651948      40.25860676      48.66899841      -0.05857316      -0.09003983      -0.03156302      -4.84191561
Cl      17.97373604      39.51593429      52.34606303      -0.09461866       0.07473612       0.05332885      -4.82332420
Cl      58.03955070      13.12240226      41.42926230       0.01935677       0.00837547      -0.01939438      -4.79641247
Cl       7.83037412      14.61690923      37.31968895      -0.02882598       0.03475883       0.05792465      -4.81339359
Cl      17.39382078      37.39653355      42.10481952      -0.04309163       0.02290442      -0.01253914      -4.92758274
Cl      12.59340797      48.49847083      31.40207825       0.06295481       0.01938692      -0.01610515      -4.87657833
Cl      22.35884360       3.98505574      36.43281270      -0.03180713      -0.02030519       0.04601018      -4.82362604
Cl       6.85831185      51.91799246      42.51018752      -0.00792796      -0.03409307      -0.03109791      -5.00510740
Cl      52.31679686       3.27126423      40.21572246       0.13624363       0.03111628       0.09162620      -4.95990753
Cl      26.37489466      45.65934909      10.79751015       0.02033634      -0.02407889      -0.00952125      -4.75997925
Cl      47.07793409      29.14778001      16.26158535       0.01849023       0.09664033      -0.02079636      -4.67535257
Cl      16.97098538      19.35359521      45.67002212       0.00295127       0.13775489      -0.01384054      -4.80300760
Cl      57.45538594       5.72825695      41.85971664      -0.04541234      -0.04145489       0.01244271      -4.81946421
Cl      21.86783146      50.21961560      47.00746095      -0.02402477      -0.00351067       0.01743247      -4.81551266
Cl       4.93712946      48.87266710      40.01692748       0.01308652      -0.02671690      -0.08996221      -4.66216516
Cl      53.00094986      17.56059417       3.47924709       0.02504789       0.03441279      -0.01548903      -4.83569098
Cl      21.81239597      58.64056754      14.14762698      -0.03850900      -0.01181919      -0.04123774      -4.89428616
Cl      48.57207734      30.67499963      10.78171651       0.01700293      -0.05977850       0.05505959      -4.91935968
Cl      31.11793949      20.38072065       8.96196158       0.01148182       0.00870615      -0.00763160      -4.83961773
Cl      11.62413749      12.06493242      37.69969860      -0.01792039      -0.03923189      -0.01069452      -4.79815006
Cl      27.90085947      57.80659978      44.97262958      -0.02823227       0.02329188       0.00666260      -4.68420506
Cl      39.11290839      35.15016351      13.79518116       0.03204908      -0.02405417       0.02910142      -4.96361589
Cl      58.27782499      57.14290037       5.45802694       0.00995638      -0.03825553       0.04537389      -4.88074970
Cl       9.26297067      53.68751007      16.03744269      -0.02380664      -0.00337767      -0.06114659      -4.73894310
Cl      28.39274885      37.62449781      30.72910058      -0.03644739       0.08659303       0.04950136      -4.85335064
Cl      13.73149418      38.88574659      19.69128285      -0.02562175      -0.02212532       0.06002896      -4.72941399
Cl      51.08994312      40.05565431      49.66252437      -0.06068920       0.06242607      -0.05240311      -4.69972992
Cl      39.28495882      42.31920155      55.80428988       0.00358207      -0.02350611      -0.01635199      -4.84757805
Cl      15.97297264       2.09051796      56.96054113      -0.03206613      -0.01596528       0.02384350      -4.74745464
Cl      54.70019036      41.61547592      32.82542031      -0.03397566       0.05366604      -0.05248201      -4.74267054
Cl      36.16273536      29.06547404       3.78885521       0.02410135       0.00081580       0.03615732      -4.90441990
Na       5.22296022      38.48474165      33.96527715       0.04488052      -0.01534617      -0.01146512      -1.18342078
Na      23.62619370      10.17177722      57.24436152      -0.00570401       0.00921944      -0.03679574      -1.27358615
Na      35.96202576      16.98391909       9.14000183      -0.05274536      -0.01803069       0.07178552      -1.25611699
Na      12.88820010       9.79856757      51.44516888      -0.02632186       0.01433960       0.01784119      -1.03911662
Na      38.08522264       0.81013955      45.74584018      -0.01849187       0.02868935      -0.00273279      -1.16594803
Na      28.19502788      40.08356081      43.65640861      -0.00343532      -0.01881439       0.05290141      -1.22163832
Na      44.70336728      50.88036110      40.39224919       0.07712278      -0.00875433      -0.01172823      -1.18864655
Na      14.23812895      19.31906202      22.27791838       0.06369220       0.02127123      -0.00261982      -1.24549603
Na      36.22875306      22.94024608      30.61498831       0.03503698      -0.01229231      -0.04373829      -1.32131600
Na      48.84279924      42.72644964      29.26887235      -0.01631657      -0.01363435      -0.01715744      -1.16918039
Na      18.18087566      57.64178469      24.84299435       0.03780743      -0.02662286      -0.07024224      -1.10307360
Na      48.34117947      19.98483280       7.84639077       0.08457119      -0.01693304      -0.04402305      -1.22851670
Na      48.98774853      10.10813771      56.94176962       0.00651383      -0.01314655      -0.05081836      -1.25594664
Na      35.38753538      27.85093893      20.80428038      -0.08964397       0.07089268       0.08429456      -1.16375971
Na      13.21560681      50.68833975      47.95762838       0.02695060       0.05512767       0.02226278      -1.38379824
Na      26.91217172      40.85711983      40.22325651       0.00822651      -0.04112685       0.01815150      -1.24673581
Na      23.12578225      35.45326731      49.44546960      -0.01098908      -0.09854264      -0.02999283      -1.30422878
Na       0.84297351      15.52927630      35.72938769      -0.00329259      -0.01597464      -0.00311084      -1.23727393
Na      27.50247235      29.36724031      47.54992018      -0.00926241      -0.02737775      -0.00990822      -1.24766684
Na      22.46245235      31.92445971      42.73161502      -0.00901704      -0.01542226       0.03860484      -1.24622750
Na      31.29333756      23.00222149       6.79871969       0.03742011      -0.08309542       0.06305296      -1.21957874
Na      41.51924399      50.41849145      29.55688531       0.04864767       0.05360124       0.00004688      -1.20907617
Na      45.00733210      57.79029339      29.08947362       0.03016014      -0.03767876      -0.01153913      -1.40401745
Na      37.21640011       6.00901194      55.37247627      -0.01781069      -0.02945494       0.02390762      -1.26923561
Na      47.46043524      40.22022497      31.42528361       0.02095092       0.01489550      -0.02419757      -1.20583582
Na      38.67493438      34.31144574      31.14359841       0.03070059       0.06943706      -0.01677352      -1.36267304
Na      18.61054872       2.74800607      42.33541399       0.04307927      -0.10990509       0.09728087      -1.14941168
Na      55.53300795      36.63402411      11.71456689      -0.00235451       0.02336356      -0.05063624      -1.13219297
Na      31.02329836      22.11560590      15.63055067      -0.06298967       0.07220155       0.02160636      -1.28227675
Na      19.34689438      34.83556907      17.97228959      -0.00365190      -0.06044490      -0.05624809      -1.26266932
Na      26.30965639      18.03068113      19.17250185       0.05183148      -0.02498427      -0.00118309      -1.35231149
Na      25.97998365      24.24679453       3.19554695      -0.03938936      -0.00174531       0.00325755      -1.30939102
Na      54.24782186      14.49822686       9.43803105       0.01040262      -0.00722333      -0.01942702      -1.23267555
Na      49.99357092      24.38283021      37.64736423      -0.05200861       0.02367965      -0.00341083      -1.16137612
Na      25.66888471      18.40560840      41.71077758       0.03829319      -0.01932861       0.02266781      -1.26006985
Na      29.41474858      40.79843415       3.37195960       0.05600160      -0.06824630       0.06978300      -1.25874782
Na      10.05214652      48.02403028       8.67791770       0.04610113       0.00819290       0.01244369      -1.28974545
Na      34.10556930      20.86710276      57.05603072      -0.06471624       0.00073740       0.03621963      -1.17976093
Na      44.08048787      17.91415643       1.02721758      -0.07000162      -0.03368214      -0.00028741      -1.20172584
Na      46.49876944      47.14014618       9.90847829       0.03860483       0.01011110       0.10221875      -1.11785483
Na      45.78157257      41.34380268      21.42924057       0.02280416      -0.02500352      -0.00832997      -1.14850068
Na      52.04717182      11.69879330      32.33939162      -0.03202986       0.00309801       0.01785211      -1.27845669
Na      26.21044738      43.82698658      42.80780024       0.04054465       0.01735601      -0.01854395      -1.30761111
Na      16.81783510      54.15112607      40.16084237      -0.09549864       0.01157519       0.08263534      -1.15354204
Na      52.42278177       1.67430959       5.80035549      -0.05022985       0.02754477      -0.02704344      -1.31728077
Na      58.17669956      30.31359191      25.71504880       0.00633973       0.02910249      -0.01019535      -1.21386218
Na      51.29429574      13.48827235      55.57950661      -0.00009974       0.00927287      -0.04414718      -1.13764143
Na      30.98668180      48.09042337       4.38853586      -0.03401653      -0.01453852      -0.08099928      -1.18394995
Na      34.05610167      16.07893977      32.33572410      -0.02771895       0.04031620       0.11050243      -1.05262339
Na      40.34214445      56.90080124      20.69759240       0.06882757      -0.03584873      -0.03662237      -1.16658831
Cl      33.38359829      18.24533120      20.02279032       0.03341901      -0.01742704      -0.19539243      -4.64189100
Cl      -0.18307751       9.32801433      24.37302096      -0.02635731      -0.07384014       0.07197924      -4.74177265
Cl      30.02019402       6.31682548      49.48800041       0.03540155      -0.01320668      -0.02175385      -4.85831928
Cl       6.73899757      25.60172743      40.21031498      -0.02536173       0.02753992      -0.03309665      -4.54522324
Cl      33.37477120       8.13149980      31.58221516       0.01820789       0.06819054       0.01137521      -4.96492958
Cl      44.31012773       2.24180936      23.38982151       0.06327686       0.01053887      -0.02392816      -4.85111427
Cl      30.56004500      25.85247391       0.90341320      -0.01075928       0.00331878       0.00892482      -4.87589025
Cl      58.41490670       2.28905898      48.15368202      -0.01458279      -0.03003947       0.00493179      -4.84151173
Cl      49.30750869       7.46867578      50.56080734      -0.02091768       0.09018342       0.05276038      -4.75690889
Cl      24.68024920       6.54928841      39.13594974      -0.09907411       0.05827746      -0.02588730      -4.55963421
Cl      26.28198910      24.37492363      56.73010354       0.03956585      -0.01115263       0.03181266      -4.97571039
Cl      39.85119317      51.12708602      18.76081484      -0.01692229      -0.03057958      -0.05777862      -4.57716274
Cl      20.40415951      33.28147905      14.58520811      -0.05344508       0.01682318      -0.01334488      -4.72311831
Cl      49.84661148      55.05692665       0.98831325      -0.00932732      -0.01553994      -0.05776900      -5.00194645
Cl      10.32447003       2.12416704      14.56010594      -0.01604250      -0.02558675       0.02068115      -4.85765219
Cl      41.02711206      34.14170671      50.64989210       0.05525850       0.00725192       0.00430696      -4.64363861
Cl      18.10846345      41.57168252      56.35212524      -0.03439819       0.00955845      -0.00943468      -4.94810820
Cl      40.42635945      30.25570631      35.19059463       0.02062445      -0.01775424       0.02786824      -4.78876114
Cl      47.00789065      43.50430808      36.90860478       0.11855108       0.00535583      -0.10386831      -4.64776325
Cl      17.80651964      40.25860692       4.77339734      -0.05857517      -0.09003729      -0.03156362      -4.84191561
Cl      17.97373586      39.51593436       8.45046206      -0.09461819       0.07473607       0.05332549      -4.82332373
Cl      58.03955069      13.12240218      56.06113015       0.01935733       0.00837800      -0.01939087      -4.79641438
Cl       7.83037422      14.61690936      51.95155561      -0.02882655       0.03475905       0.05792646      -4.81339359
Cl      17.39382099      37.39653383      56.73668705      -0.04309122       0.02290416      -0.01253860      -4.92758274
Cl      12.59340794      48.49847083      46.03394512       0.06295523       0.01938821      -0.01611011      -4.87657642
Cl      22.35884367       3.98505579      51.06467989      -0.03180554      -0.02030412       0.04601280      -4.82362604
Cl       6.85831182      51.91799291      57.14205562      -0.00792785      -0.03409348      -0.03109739      -5.00510740
Cl      52.31679667       3.27126420      54.84758981       0.13624080       0.03111696       0.09161941      -4.95990753
Cl      26.37489464      45.65934905      25.42937697       0.02033677      -0.02407850      -0.00952101      -4.75997972
Cl      47.07793406      29.14778008      30.89345243       0.01849131       0.09664104      -0.02079377      -4.67535353
Cl      16.97098559      19.35359509       1.77442114       0.00294989       0.13775301      -0.01384374      -4.80300760
Cl      57.45538594       5.72825713      56.49158356      -0.04541164      -0.04145360       0.01244446      -4.81946135
Cl      21.86783143      50.21961561       3.11185915      -0.02402353      -0.00351021       0.01743360      -4.81551170
Cl       4.93712940      48.87266716      54.64879400       0.01308697      -0.02671643      -0.08996150      -4.66216564
Cl      53.00094973      17.56059437      18.11111470       0.02504751       0.03441328      -0.01548777      -4.83569145
Cl      21.81239599      58.64056763      28.77949386      -0.03851003      -0.01181924      -0.04123636      -4.89428616
Cl      48.57207718      30.67499945      25.41358365       0.01700339      -0.05977917       0.05506073      -4.91936111
Cl      31.11793953      20.38072064      23.59382866       0.01148180       0.00870675      -0.00762950      -4.83961773
Cl      11.62413736      12.06493273      52.33156535      -0.01791731      -0.03923467      -0.01068873      -4.79814816
Cl      27.90085948      57.80660003       1.07702810      -0.02823296       0.02329173       0.00666621      -4.68420410
Cl      39.11290835      35.15016352      28.42704823       0.03204914      -0.02405350       0.02910341      -4.96361637
Cl      58.27782497      57.14290029      20.08989434       0.00995607      -0.03825662       0.04537302      -4.88074970
Cl       9.26297065      53.68750991      30.66930943      -0.02380529      -0.00337792      -0.06114464      -4.73894358
Cl      28.39274879      37.62449775      45.36096766      -0.03644308       0.08659385       0.04950021      -4.85334969
Cl      13.73149410      38.88574664      34.32314997      -0.02562159      -0.02212504       0.06002479      -4.72941303
Cl      51.08994310      40.05565420       5.76692314      -0.06068997       0.06242497      -0.05240491      -4.69973040
Cl      39.28495875      42.31920136      11.90868852       0.00358346      -0.02350521      -0.01635056      -4.84757757
Cl      15.97297260       2.09051806      13.06493904      -0.03206691      -0.01596604       0.02384290      -4.74745512
Cl      54.70019029      41.61547592      47.45728707      -0.03397297       0.05366617      -0.05248047      -4.74267101
Cl      36.16273534      29.06547399      18.42072275       0.02410229       0.00081669       0.03615816      -4.90442038
Na       5.22296021      38.48474172      48.59714404       0.04488066      -0.01534597      -0.01146548      -1.18342018
Na      23.62619345      10.17177739      13.34875958      -0.00570348       0.00921977      -0.03679542      -1.27358592
Na      35.96202561      16.98391907      23.77186913      -0.05274475      -0.01803183       0.07178318      -1.25611711
Na      12.88820006       9.79856743       7.54956723      -0.02632219       0.01433719       0.01783869      -1.03911650
Na      38.08522241       0.81013982       1.85023854      -0.01849191       0.02869058      -0.00273008      -1.16594732
Na      28.19502820      40.08356069      58.28827669      -0.00343474      -0.01881482       0.05290078      -1.22163796
Na      44.70336728      50.88036133      55.02411690       0.07712368      -0.00875513      -0.01172772      -1.18864703
Na      14.23812889      19.31906190      36.90978548       0.06369007       0.02127326      -0.00262407      -1.24549651
Na      36.22875293      22.94024613      45.24685536       0.03503720      -0.01228955      -0.04374184      -1.32131708
Na      48.84279908      42.72644959      43.90073946      -0.01631580      -0.01363373      -0.01715245      -1.16918087
Na      18.18087567      57.64178462      39.47486135       0.03780732      -0.02662300      -0.07024102      -1.10307384
Na      48.34117956      19.98483288      22.47825785       0.08457207      -0.01693315      -0.04402421      -1.22851682
Na      48.98774864      10.10813748      13.04616813       0.00651337      -0.01314365      -0.05081955      -1.25594640
Na      35.38753538      27.85093892      35.43614729      -0.08964369       0.07088945       0.08429770      -1.16375935
Na      13.21560671      50.68833973       4.06202714       0.02695284       0.05512678       0.02226610      -1.38379788
Na      26.91217180      40.85711994      54.85512404       0.00822569      -0.04112474       0.01814160      -1.24673581
Na      23.12578235      35.45326727       5.54986844      -0.01099047      -0.09854288      -0.02999351      -1.30422914
Na       0.84297359      15.52927652      50.36125504      -0.00329276      -0.01597329      -0.00310734      -1.23727441
Na      27.50247222      29.36724022       3.65431896      -0.00926274      -0.02737815      -0.00991109      -1.24766672
Na      22.46245224      31.92445986      57.36348284      -0.00901725      -0.01541998       0.03860121      -1.24622679
Na      31.29333755      23.00222163      21.43058665       0.03742116      -0.08309484       0.06305262      -1.21957827
Na      41.51924392      50.41849144      44.18875239       0.04864620       0.05359849       0.00005057      -1.20907676
Na      45.00733217      57.79029341      43.72134075       0.03015848      -0.03767986      -0.01153803      -1.40401769
Na      37.21639997       6.00901212      11.47687473      -0.01780972      -0.02945532       0.02390521      -1.26923585
Na      47.46043539      40.22022495      46.05715068       0.02095320       0.01489659      -0.02420255      -1.20583665
Na      38.67493448      34.31144587      45.77546527       0.03070284       0.06943963      -0.01677597      -1.36267304
Na      18.61054861       2.74800602      56.96728114       0.04308096      -0.10990469       0.09728143      -1.14941084
Na      55.53300788      36.63402392      26.34643389      -0.00234906       0.02336623      -0.05063116      -1.13219190
Na      31.02329833      22.11560590      30.26241763      -0.06298901       0.07220181       0.02160719      -1.28227663
Na      19.34689444      34.83556912      32.60415651      -0.00365515      -0.06044584      -0.05624774      -1.26266944
Na      26.30965625      18.03068100      33.80436889       0.05183149      -0.02498358      -0.00117767      -1.35231185
Na      25.97998367      24.24679461      17.82741436      -0.03938874      -0.00174529       0.00325797      -1.30939078
Na      54.24782190      14.49822691      24.06989820       0.01040256      -0.00722531      -0.01942853      -1.23267555
Na      49.99357099      24.38283020      52.27923129      -0.05200858       0.02367889      -0.00341122      -1.16137564
Na      25.66888484      18.40560828      56.34264506       0.03829367      -0.01932637       0.02267068      -1.26007009
Na      29.41474867      40.79843411      18.00382674       0.05600139      -0.06824600       0.06978419      -1.25874758
Na      10.05214655      48.02403041      23.30978482       0.04609945       0.00819243       0.01244499      -1.28974533
Na      34.10556927      20.86710247      13.16042979      -0.06471616       0.00073978       0.03622033      -1.17976046
Na      44.08048768      17.91415693      15.65908482      -0.07000338      -0.03368387      -0.00028941      -1.20172572
Na      46.49876971      47.14014616      24.54034547       0.03860467       0.01011232       0.10221761      -1.11785471
Na      45.78157245      41.34380280      36.06110751       0.02280523      -0.02500427      -0.00832979      -1.14850044
Na      52.04717154      11.69879343      46.97125887      -0.03202991       0.00309987       0.01785070      -1.27845705
Na      26.21044693      43.82698683      57.43966793       0.04054558       0.01735660      -0.01854360      -1.30761063
Na      16.81783531      54.15112599      54.79270957      -0.09549890       0.01157417       0.08263534      -1.15354216
Na      52.42278169       1.67430951      20.43222273      -0.05022995       0.02754432      -0.02704092      -1.31728125
Na      58.17669958      30.31359195      40.34691571       0.00634125       0.02910281      -0.01019309      -1.21386170
Na      51.29429565      13.48827243      11.68390510      -0.00010028       0.00927238      -0.04414732      -1.13764167
Na      30.98668194      48.09042349      19.02040275      -0.03402087      -0.01453856      -0.08099914      -1.18394935
Na      34.05610161      16.07893969      46.96759102      -0.02771752       0.04031560       0.11050274      -1.05262411
Na      40.34214432      56.90080122      35.32945911       0.06882742      -0.03585093      -0.03662847      -1.16658819
Cl      33.38359843      18.24533119      34.65465743       0.03341901      -0.01742737      -0.19539240      -4.64188910
Cl      -0.18307750       9.32801447      39.00488792      -0.02635686      -0.07384091       0.07198106      -4.74177265
Cl      30.02019369       6.31682556       5.59239886       0.03539984      -0.01320802      -0.02175732      -4.85831881
Cl       6.73899746      25.60172735      54.84218235      -0.02536215       0.02754063      -0.03309692      -4.54522276
Cl      33.37477118       8.13149979      46.21408212       0.01820894       0.06819014       0.01137595      -4.96492958
Cl      44.31012782       2.24180927      38.02168831       0.06327567       0.01053992      -0.02391997      -4.85111570
Cl      30.56004532      25.85247375      15.53528060      -0.01075897       0.00331845       0.00892433      -4.87589073
Cl      58.41490663       2.28905894       4.25808086      -0.01458430      -0.03003906       0.00493070      -4.84151316
Cl      49.30750873       7.46867589       6.66520624      -0.02091836       0.09018535       0.05275626      -4.75690937
Cl      24.68024919       6.54928829      53.76781725      -0.09907585       0.05827462      -0.02589482      -4.55963612
Cl      26.28198899      24.37492334      12.83450206       0.03957139      -0.01115208       0.03180932      -4.97571039
Cl      39.85119299      51.12708613      33.39268169      -0.01692233      -0.03058022      -0.05777862      -4.57716227
Cl      20.40415943      33.28147898      29.21707514      -0.05344387       0.01682331      -0.01334347      -4.72311974
Cl      49.84661140      55.05692676      15.62018075      -0.00932679      -0.01553837      -0.05776849      -5.00194597
Cl      10.32447011       2.12416708      29.19197293      -0.01604559      -0.02558663       0.02068386      -4.85765219
Cl      41.02711201      34.14170658       6.75429092       0.05526014       0.00725071       0.00429950      -4.64363861
Cl      18.10846333      41.57168216      12.45652366      -0.03439632       0.00955852      -0.00942859      -4.94811010
Cl      40.42635951      30.25570607      49.82246169       0.02062437      -0.01775428       0.02786776      -4.78876019
Cl      47.00789045      43.50430810      51.54047132       0.11855374       0.00535599      -0.10386661      -4.64776373
Cl      17.80651961      40.25860686      19.40526453      -0.05857679      -0.09003684      -0.03155981      -4.84191513
Cl      17.97373591      39.51593437      23.08232910      -0.09461895       0.07473549       0.05332640      -4.82332325
Cl      58.03955069      13.12240223      12.16552840       0.01935688       0.00837482      -0.01939236      -4.79641294
Cl       7.83037411      14.61690927       8.05595457      -0.02882675       0.03475777       0.05792487      -4.81339264
Cl      17.39382070      37.39653350      12.84108552      -0.04308777       0.02290372      -0.01253678      -4.92758179
Cl      12.59340786      48.49847079       2.13834388       0.06295453       0.01938557      -0.01610495      -4.87657738
Cl      22.35884364       3.98505569       7.16907849      -0.03180666      -0.02030424       0.04600756      -4.82362604
Cl       6.85831188      51.91799237      13.24645351      -0.00792820      -0.03409282      -0.03109614      -5.00510883
Cl      52.31679684       3.27126425      10.95198830       0.13624130       0.03111587       0.09162580      -4.95990705
Cl      26.37489471      45.65934911      40.06124416       0.02033505      -0.02408157      -0.00952450      -4.75997925
Cl      47.07793406      29.14778003      45.52531945       0.01849245       0.09664021      -0.02079594      -4.67535305
Cl      16.97098548      19.35359526      16.40628816       0.00295135       0.13775462      -0.01384265      -4.80300903
Cl      57.45538595       5.72825698      12.59598248      -0.04541397      -0.04145464       0.01244576      -4.81946278
Cl      21.86783134      50.21961567      17.74372680      -0.02402376      -0.00351083       0.01743297      -4.81551218
Cl       4.93712942      48.87266706      10.75319299       0.01308630      -0.02671660      -0.08996312      -4.66216421
Cl      53.00094966      17.56059426      32.74298194       0.02504725       0.03441197      -0.01548580      -4.83569050
Cl      21.81239604      58.64056765      43.41136094      -0.03850984      -0.01181957      -0.04123912      -4.89428520
Cl      48.57207727      30.67499973      40.04545081       0.01700279      -0.05977856       0.05505806      -4.91935873
Cl      31.11793945      20.38072072      38.22569579       0.01148050       0.00870564      -0.00763125      -4.83961821
Cl      11.62413746      12.06493252       8.43596439      -0.01791871      -0.03923272      -0.01069208      -4.79814863
Cl      27.90085940      57.80659984      15.70889546      -0.02823208       0.02329239       0.00666453      -4.68420410
Cl      39.11290846      35.15016368      43.05891532       0.03205145      -0.02405916       0.02910120      -4.96361542
Cl      58.27782491      57.14290009      34.72176132       0.00995753      -0.03825444       0.04537588      -4.88074827
Cl       9.26297066      53.68750995      45.30117656      -0.02380686      -0.00337725      -0.06114949      -4.73894119
Cl      28.39274881      37.62449763       1.46536602      -0.03644338       0.08659588       0.04950326      -4.85335016
Cl      13.73149408      38.88574675      48.95501652      -0.02562219      -0.02212509       0.06002927      -4.72941446
Cl      51.08994306      40.05565425      20.39879036      -0.06069066       0.06242475      -0.05240481      -4.69973087
Cl      39.28495854      42.31920132      26.54055546       0.00358426      -0.02350613      -0.01635038      -4.84757805
Cl      15.97297263       2.09051803      27.69680592      -0.03206595      -0.01596598       0.02384309      -4.74745464
Cl      54.70019021      41.61547571       3.56168609      -0.03397481       0.05366586      -0.05248249      -4.74267054
Cl      36.16273539      29.06547405      33.05258958       0.02410113       0.00081684       0.03615803      -4.90442085
Na       5.22296015      38.48474185       4.70154303       0.04488118      -0.01534749      -0.01146171      -1.18342018
Na      23.62619348      10.17177738      27.98062659      -0.00570320       0.00921933      -0.03679670      -1.27358556
Na      35.96202564      16.98391912      38.40373576      -0.05274650      -0.01803130       0.07178587      -1.25611722
Na      12.88820005       9.79856745      22.18143455      -0.02632217       0.01433743       0.01783616      -1.03911638
Na      38.08522267       0.81013957      16.48210621      -0.01849280       0.02869056      -0.00273116      -1.16594696
Na      28.19502812      40.08356081      14.39267487      -0.00343411      -0.01881511       0.05290111      -1.22163796
Na      44.70336737      50.88036103      11.12851523       0.07712312      -0.00875429      -0.01173009      -1.18864679
Na      14.23812896      19.31906199      51.54165221       0.06369238       0.02127292      -0.00262191      -1.24549556
Na      36.22875282      22.94024602       1.35125344       0.03503702      -0.01229111      -0.04374008      -1.32131648
Na      48.84279947      42.72644955       0.00513769      -0.01631557      -0.01363156      -0.01715523      -1.16918087
Na      18.18087574      57.64178459      54.10672850       0.03780820      -0.02662208      -0.07024162      -1.10307384
Na      48.34117963      19.98483294      37.11012475       0.08457425      -0.01692748      -0.04402601      -1.22851622
Na      48.98774865      10.10813747      27.67803513       0.00651374      -0.01314301      -0.05082122      -1.25594616
Na      35.38753550      27.85093889      50.06801445      -0.08964311       0.07089140       0.08429305      -1.16375983
Na      13.21560677      50.68833968      18.69389443       0.02695136       0.05512863       0.02226444      -1.38379729
Na      26.91217182      40.85711988      10.95952239       0.00822491      -0.04112699       0.01814526      -1.24673605
Na      23.12578230      35.45326734      20.18173567      -0.01098969      -0.09854323      -0.02999364      -1.30422914
Na       0.84297334      15.52927629       6.46565362      -0.00329302      -0.01597171      -0.00310537      -1.23727322
Na      27.50247234      29.36724032      18.28618628      -0.00926298      -0.02737910      -0.00991171      -1.24766612
Na      22.46245214      31.92445973      13.46788133      -0.00901691      -0.01542043       0.03860087      -1.24622691
Na      31.29333768      23.00222171      36.06245375       0.03741911      -0.08309722       0.06305181      -1.21957898
Na      41.51924426      50.41849129       0.29315059       0.04864519       0.05359859       0.00004356      -1.20907688
Na      45.00733204      57.79029332      58.35320832       0.03016040      -0.03767829      -0.01153624      -1.40401793
Na      37.21640002       6.00901207      26.10874170      -0.01781016      -0.02945505       0.02390494      -1.26923537
Na      47.46043531      40.22022497       2.16154906       0.02095196       0.01489617      -0.02419871      -1.20583630
Na      38.67493441      34.31144553       1.87986368       0.03070226       0.06943717      -0.01677293      -1.36267352
Na      18.61054874       2.74800619      13.07168010       0.04308056      -0.10990508       0.09728006      -1.14941132
Na      55.53300781      36.63402411      40.97830100      -0.00235156       0.02336023      -0.05063459      -1.13219225
Na      31.02329834      22.11560587      44.89428468      -0.06298900       0.07220162       0.02160721      -1.28227758
Na      19.34689437      34.83556909      47.23602365      -0.00365175      -0.06044531      -0.05624650      -1.26266956
Na      26.30965630      18.03068113      48.43623571       0.05183125      -0.02498654      -0.00118517      -1.35231185
Na      25.97998376      24.24679460      32.45928153      -0.03938858      -0.00174479       0.00325716      -1.30939090
Na      54.24782173      14.49822676      38.70176489       0.01040301      -0.00722391      -0.01942366      -1.23267519
Na      49.99357099      24.38283024       8.38363032      -0.05200839       0.02367856      -0.00341137      -1.16137588
Na      25.66888474      18.40560838      12.44704365       0.03829448      -0.01932785       0.02266660      -1.26006997
Na      29.41474866      40.79843437      32.63569388       0.05600031      -0.06824762       0.06978672      -1.25874782
Na      10.05214666      48.02403031      37.94165186       0.04609916       0.00819233       0.01244537      -1.28974509
Na      34.10556932      20.86710243      27.79229677      -0.06471565       0.00073922       0.03621898      -1.17976034
Na      44.08048768      17.91415692      30.29095191      -0.07000292      -0.03368465      -0.00028955      -1.20172572
Na      46.49876940      47.14014619      39.17221217       0.03860721       0.01011180       0.10222109      -1.11785376
Na      45.78157253      41.34380277      50.69297483       0.02280577      -0.02500428      -0.00832970      -1.14850008
Na      52.04717178      11.69879325       3.07565732      -0.03202987       0.00309820       0.01785037      -1.27845705
Na      26.21044728      43.82698686      13.54406634       0.04054509       0.01735470      -0.01854591      -1.30761027
Na      16.81783508      54.15112608      10.89710841      -0.09549972       0.01157501       0.08263619      -1.15354204
Na      52.42278184       1.67430966      35.06408927      -0.05023006       0.02754508      -0.02704463      -1.31728077
Na      58.17669963      30.31359188      54.97878319       0.00634012       0.02910045      -0.01019035      -1.21386170
Na      51.29429563      13.48827243      26.31577202      -0.00009953       0.00927156      -0.04414866      -1.13764155
Na      30.98668192      48.09042344      33.65226963      -0.03401411      -0.01453820      -0.08100081      -1.18394995
Na      34.05610121      16.07893941       3.07199008      -0.02771845       0.04031646       0.11050335      -1.05262387
Na      40.34214447      56.90080115      49.96132647       0.06882793      -0.03585056      -0.03662742      -1.16658843
Cl      33.38359811      18.24533121      49.28652424       0.03341774      -0.01742774      -0.19539368      -4.64188862
Cl      -0.18307736       9.32801425      53.63675518      -0.02635982      -0.07383989       0.07197536      -4.74177217
Cl      30.02019383       6.31682554      20.22426607       0.03539999      -0.01320756      -0.02175817      -4.85831928
Cl       6.73899763      25.60172744      10.94658095      -0.02536210       0.02754083      -0.03309642      -4.54522228
Cl      33.37477118       8.13149979       2.31848125       0.01820758       0.06819017       0.01137452      -4.96492958
Cl      44.31012777       2.24180940      52.65355564       0.06327704       0.01053920      -0.02392837      -4.85111523
Cl      30.56004540      25.85247373      30.16714759      -0.01075850       0.00331804       0.00892529      -4.87589216
Cl      58.41490675       2.28905884      18.88994811      -0.01458331      -0.03003907       0.00493164      -4.84151268
Cl      49.30750869       7.46867586      21.29707344      -0.02091803       0.09018508       0.05275770      -4.75690985
Cl      24.68024900       6.54928843       9.87221589      -0.09907638       0.05827637      -0.02589305      -4.55963469
Cl      26.28198895      24.37492340      27.46636906       0.03957166      -0.01115246       0.03180859      -4.97570992
Cl      39.85119319      51.12708606      48.02454877      -0.01692295      -0.03058026      -0.05777672      -4.57716274
Cl      20.40415933      33.28147914      43.84894216      -0.05344357       0.01682332      -0.01334424      -4.72311878
Cl      49.84661141      55.05692678      30.25204780      -0.00932557      -0.01553873      -0.05776869      -5.00194740
Cl      10.32446992       2.12416709      43.82384035      -0.01604395      -0.02558611       0.02067827      -4.85764980
Cl      41.02711203      34.14170665      21.38615805       0.05525908       0.00725107       0.00430097      -4.64363861
Cl      18.10846333      41.57168214      27.08839074      -0.03439588       0.00955594      -0.00942561      -4.94810963
Cl      40.42635942      30.25570613       5.92686046       0.02062618      -0.01775356       0.02786652      -4.78876019
Cl      47.00789051      43.50430832       7.64487027       0.11855175       0.00535375      -0.10387090      -4.64776325
Cl      17.80651948      40.25860675      34.03713132      -0.05857146      -0.09003945      -0.03156787      -4.84191513
Cl      17.97373577      39.51593438      37.71419639      -0.09461807       0.07473577       0.05332815      -4.82332373
Cl      58.03955071      13.12240229      26.79739546       0.01935724       0.00837502      -0.01939071      -4.79641438
Cl       7.83037419      14.61690922      22.68782163      -0.02882737       0.03475814       0.05792439      -4.81339216
Cl      17.39382066      37.39653356      27.47295251      -0.04308671       0.02290430      -0.01253552      -4.92758179
Cl      12.59340785      48.49847090      16.77021109       0.06295517       0.01938602      -0.01610311      -4.87657833
Cl      22.35884365       3.98505573      21.80094564      -0.03180617      -0.02030317       0.04600885      -4.82362509
Cl       6.85831192      51.91799242      27.87832061      -0.00792962      -0.03409240      -0.03109503      -5.00510883
Cl      52.31679687       3.27126425      25.58385525       0.13624141       0.03111611       0.09162981      -4.95990753
Cl      26.37489451      45.65934924      54.69311134       0.02033566      -0.02407936      -0.00952303      -4.75998068
Cl      47.07793399      29.14778001       1.62971783       0.01848997       0.09663810      -0.02080000      -4.67535257
Cl      16.97098546      19.35359523      31.03815508       0.00295229       0.13775492      -0.01384047      -4.80300808
Cl      57.45538590       5.72825698      27.22784941      -0.04541192      -0.04145397       0.01244437      -4.81946278
Cl      21.86783136      50.21961558      32.37559359      -0.02402465      -0.00351004       0.01743078      -4.81551218
Cl       4.93712936      48.87266713      25.38506013       0.01308620      -0.02671673      -0.08996148      -4.66216469
Cl      53.00094975      17.56059445      47.37484859       0.02504724       0.03441316      -0.01548234      -4.83569050
Cl      21.81239607      58.64056750      58.04322861      -0.03851450      -0.01182227      -0.04123583      -4.89428616
Cl      48.57207711      30.67499960      54.67731748       0.01700322      -0.05977965       0.05505810      -4.91936111
Cl      31.11793945      20.38072061      52.85756260       0.01148042       0.00870464      -0.00763136      -4.83961725
Cl      11.62413741      12.06493257      23.06783134      -0.01791842      -0.03923333      -0.01069139      -4.79814863
Cl      27.90085949      57.80659978      30.34076248      -0.02823203       0.02329208       0.00666351      -4.68420458
Cl      39.11290837      35.15016346      57.69078301       0.03204963      -0.02405387       0.02909966      -4.96361446
Cl      58.27782488      57.14290001      49.35362815       0.00995789      -0.03825289       0.04537916      -4.88074970
Cl       9.26297070      53.68750995       1.40557511      -0.02380556      -0.00337749      -0.06114456      -4.73894310
Cl      28.39274876      37.62449781      16.09723362      -0.03644301       0.08659644       0.04950405      -4.85335016
Cl      13.73149410      38.88574674       5.05941565      -0.02562178      -0.02212434       0.06002730      -4.72941399
Cl      51.08994311      40.05565418      35.03065734      -0.06068859       0.06242564      -0.05240527      -4.69972897
Cl      39.28495886      42.31920137      41.17242262       0.00358376      -0.02350589      -0.01635290      -4.84757662
Cl      15.97297264       2.09051804      42.32867307      -0.03206747      -0.01596663       0.02384215      -4.74745512
Cl      54.70019021      41.61547589      18.19355313      -0.03397472       0.05366625      -0.05248187      -4.74267054
Cl      36.16273545      29.06547408      47.68445653       0.02410091       0.00081534       0.03616117      -4.90441990
Na       5.22296020      53.11660842      19.33341037       0.04488336      -0.01534467      -0.01146179      -1.18341970
Na      23.62619350      24.80364440      42.61249335      -0.00570551       0.00921901      -0.03679065      -1.27358699
Na      35.96202557      31.61578588      53.03560340      -0.05274296      -0.01802704       0.07178897      -1.25611699
Na      12.88820015      24.43043437      36.81330129      -0.02632344       0.01433628       0.01783816      -1.03911626
Na      38.08522281      15.44200689      31.11397332      -0.01849229       0.02869105      -0.00273059      -1.16594720
Na      28.19502800      54.71542786      29.02454197      -0.00343337      -0.01881362       0.05290186      -1.22163820
Na      44.70336729       6.98476016      25.76038235       0.07712170      -0.00875793      -0.01172852      -1.18864632
Na      14.23812881      33.95092873       7.64605153       0.06369157       0.02127513      -0.00262114      -1.24549627
Na      36.22875291      37.57211342      15.98312123       0.03503755      -0.01228800      -0.04373999      -1.32131600
Na      48.84279933      57.35831705      14.63700555      -0.01631385      -0.01364127      -0.01715613      -1.16918063
Na      18.18087600      13.74618273      10.21112700       0.03780703      -0.02662225      -0.07024208      -1.10307431
Na      48.34117963      34.61669998      51.74199187       0.08457102      -0.01692828      -0.04402505      -1.22851753
Na      48.98774871      24.74000451      42.30990217       0.00651378      -0.01314296      -0.05081832      -1.25594664
Na      35.38753545      42.48280591       6.17241328      -0.08964016       0.07088600       0.08429402      -1.16375995
Na      13.21560655       6.79273885      33.32576141       0.02695413       0.05512807       0.02226621      -1.38379765
Na      26.91217188      55.48898764      25.59138934       0.00822549      -0.04112385       0.01814711      -1.24673629
Na      23.12578223      50.08513426      34.81360265      -0.01098802      -0.09854359      -0.02999245      -1.30422807
Na       0.84297360      30.16114343      21.09752062      -0.00329227      -0.01597279      -0.00310501      -1.23727393
Na      27.50247238      43.99910727      32.91805319      -0.00926281      -0.02737875      -0.00991019      -1.24766636
Na      22.46245233      46.55632649      28.09974849      -0.00901679      -0.01542257       0.03859918      -1.24622595
Na      31.29333767      37.63408864      50.69432081       0.03742000      -0.08309910       0.06305085      -1.21957946
Na      41.51924378       6.52289048      14.92501846       0.04864649       0.05359961       0.00004675      -1.20907629
Na      45.00733219      13.89469159      14.45760645       0.03015934      -0.03767618      -0.01153994      -1.40401816
Na      37.21639981      20.64087917      40.74060863      -0.01780945      -0.02945424       0.02390408      -1.26923621
Na      47.46043502      54.85209207      16.79341633       0.02095214       0.01489722      -0.02420387      -1.20583653
Na      38.67493443      48.94331303      16.51173128       0.03070112       0.06943697      -0.01677420      -1.36267209
Na      18.61054889      17.37987343      27.70354714       0.04308022      -0.10990539       0.09728166      -1.14941096
Na      55.53300787      51.26589130      55.61016878      -0.00234904       0.02336392      -0.05062952      -1.13219285
Na      31.02329842      36.74747290       0.99868345      -0.06298895       0.07220069       0.02160711      -1.28227711
Na      19.34689430      49.46743630       3.34042284      -0.00365431      -0.06045230      -0.05624607      -1.26266921
Na      26.30965641      32.66254796       4.54063493       0.05183150      -0.02498225      -0.00118159      -1.35231197
Na      25.97998356      38.87866143      47.09114851      -0.03938767      -0.00174855       0.00325708      -1.30939162
Na      54.24782173      29.13009382      53.33363228       0.01040366      -0.00722445      -0.01942668      -1.23267484
Na      49.99357105      39.01469701      23.01549728      -0.05201070       0.02367648      -0.00341323      -1.16137600
Na      25.66888470      33.03747566      27.07891066       0.03829449      -0.01932401       0.02266651      -1.26007032
Na      29.41474835      55.43030187      47.26756100       0.05600163      -0.06824733       0.06977916      -1.25874758
Na      10.05214646       4.12842929      52.57351916       0.04609907       0.00819029       0.01243913      -1.28974485
Na      34.10556938      35.49896936      42.42416344      -0.06471492       0.00073702       0.03622002      -1.17976093
Na      44.08048767      32.54602381      44.92281885      -0.07000329      -0.03368154      -0.00028672      -1.20172691
Na      46.49876969       3.24454495      53.80407942       0.03860463       0.01011189       0.10221790      -1.11785543
Na      45.78157224      55.97566987       6.79737322       0.02281303      -0.02499625      -0.00832583      -1.14850056
Na      52.04717179      26.33066043      17.70752483      -0.03202954       0.00309885       0.01785000      -1.27845716
Na      26.21044741      -0.06861476      28.17593334       0.04054291       0.01735714      -0.01854615      -1.30761075
Na      16.81783493      10.25552460      25.52897564      -0.09549741       0.01157728       0.08263449      -1.15354204
Na      52.42278188      16.30617726      49.69595672      -0.05022884       0.02754331      -0.02704577      -1.31728089
Na      58.17669948      44.94545883      11.08318189       0.00634084       0.02909999      -0.01019405      -1.21386194
Na      51.29429570      28.12013939      40.94763897      -0.00009931       0.00927065      -0.04414866      -1.13764179
Na      30.98668167       4.19482206      48.28413687      -0.03401338      -0.01453381      -0.08099982      -1.18395007
Na      34.05610166      30.71080700      17.70385704      -0.02771984       0.04031429       0.11050165      -1.05262375
Na      40.34214398      13.00519922       6.06572529       0.06882745      -0.03584148      -0.03662665      -1.16658866
Cl      33.38359821      32.87719840       5.39092335       0.03341811      -0.01742860      -0.19539323      -4.64189100
Cl      -0.18307753      23.95988140       9.74115392      -0.02635804      -0.07383893       0.07197618      -4.74177217
Cl      30.02019387      20.94869250      34.85613313       0.03540011      -0.01320497      -0.02175532      -4.85831738
Cl       6.73899770      40.23359419      25.57844801      -0.02536197       0.02754266      -0.03309180      -4.54522228
Cl      33.37477118      22.76336696      16.95034811       0.01820789       0.06819270       0.01137516      -4.96493053
Cl      44.31012791      16.87367656       8.75795446       0.06327860       0.01054034      -0.02392776      -4.85111523
Cl      30.56004549      40.48434054      44.79901465      -0.01075921       0.00332022       0.00892504      -4.87589025
Cl      58.41490652      16.92092653      33.52181499      -0.01458625      -0.03004101       0.00493013      -4.84151268
Cl      49.30750862      22.10054305      35.92894027      -0.02092093       0.09017856       0.05276252      -4.75690937
Cl      24.68024915      21.18115554      24.50408304      -0.09907862       0.05827352      -0.02589410      -4.55963421
Cl      26.28198911      39.00679060      42.09823599       0.03956799      -0.01114624       0.03180927      -4.97571039
Cl      39.85119287       7.23148523       4.12894803      -0.01692104      -0.03057995      -0.05777927      -4.57716274
Cl      20.40415957      47.91334656      -0.04666048      -0.05344629       0.01682721      -0.01334463      -4.72311878
Cl      49.84661161      11.16132582      44.88391469      -0.00932538      -0.01553978      -0.05776760      -5.00194550
Cl      10.32447007      16.75603474      -0.07176215      -0.01604421      -0.02558606       0.02068200      -4.85765028
Cl      41.02711209      48.77357354      36.01802507       0.05526193       0.00725137       0.00430279      -4.64363956
Cl      18.10846349      56.20354967      41.72025718      -0.03439780       0.00955710      -0.00942616      -4.94810820
Cl      40.42635945      44.88757318      20.55872771       0.02062542      -0.01775132       0.02786690      -4.78875971
Cl      47.00789004      58.13617570      22.27673784       0.11854601       0.00534224      -0.10387168      -4.64776230
Cl      17.80651933      54.89047395      48.66899811      -0.05857206      -0.09003986      -0.03156220      -4.84191608
Cl      17.97373588      54.14780141      52.34606311      -0.09461766       0.07473509       0.05332682      -4.82332468
Cl      58.03955059      27.75426928      41.42926220       0.01935733       0.00837645      -0.01939502      -4.79641342
Cl       7.83037408      29.24877612      37.31968901      -0.02882670       0.03475986       0.05792280      -4.81339359
Cl      17.39382080      52.02840070      42.10481946      -0.04308958       0.02290411      -0.01253819      -4.92758322
Cl      12.59340792       4.60286960      31.40207842       0.06295481       0.01938450      -0.01610661      -4.87657881
Cl      22.35884349      18.61692312      36.43281276      -0.03180715      -0.02030319       0.04601025      -4.82362747
Cl       6.85831174       8.02239117      42.51018750      -0.00792893      -0.03409650      -0.03109673      -5.00510740
Cl      52.31679676      17.90313116      40.21572256       0.13624409       0.03111797       0.09162510      -4.95990753
Cl      26.37489472       1.76374774      10.79751048       0.02033527      -0.02408310      -0.00952326      -4.75997877
Cl      47.07793408      43.77964697      16.26158529       0.01849018       0.09663875      -0.02080020      -4.67535305
Cl      16.97098536      33.98546236      45.67002227       0.00295182       0.13775374      -0.01384177      -4.80300760
Cl      57.45538589      20.36012390      41.85971662      -0.04541171      -0.04145432       0.01244469      -4.81946421
Cl      21.86783136       6.32401441      47.00746099      -0.02402670      -0.00351188       0.01743060      -4.81551170
Cl       4.93712953       4.97706588      40.01692741       0.01308667      -0.02671811      -0.08996148      -4.66216469
Cl      53.00094980      32.19246125       3.47924711       0.02504704       0.03441044      -0.01548874      -4.83569050
Cl      21.81239628      14.74496575      14.14762713      -0.03851386      -0.01182140      -0.04123623      -4.89428568
Cl      48.57207756      45.30686667      10.78171658       0.01700476      -0.05977235       0.05505916      -4.91936016
Cl      31.11793950      35.01258767       8.96196154       0.01148245       0.00870172      -0.00763107      -4.83961535
Cl      11.62413755      26.69679934      37.69969865      -0.01791956      -0.03923227      -0.01069417      -4.79815006
Cl      27.90085961      13.91099823      44.97262964      -0.02823072       0.02328944       0.00666168      -4.68420601
Cl      39.11290835      49.78203051      13.79518127       0.03205071      -0.02405827       0.02910108      -4.96361637
Cl      58.27782498      13.24729852       5.45802716       0.00995526      -0.03825825       0.04537205      -4.88074923
Cl       9.26297076       9.79190861      16.03744260      -0.02380563      -0.00337509      -0.06114562      -4.73894358
Cl      28.39274885      52.25636503      30.72910066      -0.03644985       0.08658569       0.04949969      -4.85335064
Cl      13.73149439      53.51761389      19.69128298      -0.02562167      -0.02212615       0.06002990      -4.72941351
Cl      51.08994309      54.68752141      49.66252434      -0.06069075       0.06241397      -0.05240545      -4.69973183
Cl      39.28495869      56.95106872      55.80428989       0.00358411      -0.02350459      -0.01635205      -4.84757662
Cl      15.97297284      16.72238536      56.96054086      -0.03206582      -0.01596579       0.02384180      -4.74745464
Cl      54.70019091      56.24734280      32.82542083      -0.03397437       0.05366804      -0.05247848      -4.74266958
Cl      36.16273552      43.69734101       3.78885519       0.02410124       0.00081491       0.03615829      -4.90441990
Na       5.22296022      53.11660823      33.96527749       0.04488260      -0.01534300      -0.01146334      -1.18342006
Na      23.62619375      24.80364422      57.24436151      -0.00570326       0.00921894      -0.03679591      -1.27358580
Na      35.96202567      31.61578596       9.14000195      -0.05274424      -0.01802924       0.07178568      -1.25611699
Na      12.88820005      24.43043450      51.44516892      -0.02632237       0.01433763       0.01784149      -1.03911638
Na      38.08522285      15.44200693      45.74584022      -0.01849129       0.02868880      -0.00273093      -1.16594791
Na      28.19502789      54.71542796      43.65640884      -0.00343325      -0.01881408       0.05290211      -1.22163820
Na      44.70336728       6.98476011      40.39224925       0.07712150      -0.00875735      -0.01172868      -1.18864572
Na      14.23812885      33.95092871      22.27791843       0.06369227       0.02127505      -0.00262034      -1.24549627
Na      36.22875301      37.57211344      30.61498835       0.03503730      -0.01228996      -0.04373874      -1.32131624
Na      48.84279930      57.35831716      29.26887254      -0.01631371      -0.01364105      -0.01715774      -1.16918039
Na      18.18087596      13.74618271      24.84299386       0.03780635      -0.02662214      -0.07024416      -1.10307443
Na      48.34117954      34.61669978       7.84639068       0.08457011      -0.01693194      -0.04402222      -1.22851741
Na      48.98774846      24.74000490      56.94176959       0.00651377      -0.01314630      -0.05081821      -1.25594687
Na      35.38753530      42.48280601      20.80428038      -0.08964060       0.07088713       0.08429440      -1.16375995
Na      13.21560668       6.79273875      47.95762849       0.02695050       0.05512816       0.02226267      -1.38379812
Na      26.91217184      55.48898756      40.22325657       0.00822777      -0.04112408       0.01814978      -1.24673653
Na      23.12578221      50.08513420      49.44546952      -0.01098857      -0.09854373      -0.02999257      -1.30422831
Na       0.84297353      30.16114341      35.72938755      -0.00329189      -0.01597608      -0.00311112      -1.23727369
Na      27.50247246      43.99910732      47.54992025      -0.00926317      -0.02737900      -0.00991194      -1.24766684
Na      22.46245248      46.55632650      42.73161493      -0.00901647      -0.01542556       0.03860640      -1.24622655
Na      31.29333764      37.63408868       6.79871968       0.03741898      -0.08309937       0.06305088      -1.21957994
Na      41.51924390       6.52289042      29.55688544       0.04864661       0.05360147       0.00004738      -1.20907605
Na      45.00733214      13.89469163      29.08947337       0.03015913      -0.03767649      -0.01154140      -1.40401804
Na      37.21640001      20.64087906      55.37247604      -0.01781161      -0.02945418       0.02390854      -1.26923561
Na      47.46043514      54.85209207      31.42528346       0.02095149       0.01489633      -0.02419651      -1.20583630
Na      38.67493434      48.94331297      31.14359839       0.03070030       0.06943706      -0.01677326      -1.36267233
Na      18.61054889      17.37987330      42.33541410       0.04307979      -0.10990528       0.09728047      -1.14941180
Na      55.53300799      51.26589154      11.71456689      -0.00235016       0.02336562      -0.05063285      -1.13219261
Na      31.02329833      36.74747304      15.63055067      -0.06298885       0.07219998       0.02160707      -1.28227758
Na      19.34689437      49.46743615      17.97228962      -0.00365438      -0.06045246      -0.05624626      -1.26266909
Na      26.30965638      32.66254800      19.17250210       0.05183174      -0.02498245      -0.00118219      -1.35231161
Na      25.97998368      38.87866141       3.19554699      -0.03938839      -0.00174884       0.00325741      -1.30939150
Na      54.24782177      29.13009369       9.43803104       0.01040328      -0.00722354      -0.01942696      -1.23267508
Na      49.99357099      39.01469705      37.64736416      -0.05201040       0.02367732      -0.00341284      -1.16137600
Na      25.66888476      33.03747564      41.71077747       0.03829356      -0.01932433       0.02266937      -1.26007032
Na      29.41474819      55.43030181       3.37195973       0.05600321      -0.06824555       0.06978071      -1.25874782
Na      10.05214647       4.12842929       8.67791784       0.04609798       0.00818933       0.01244365      -1.28974521
Na      34.10556923      35.49896971      57.05603065      -0.06471604       0.00073589       0.03621897      -1.17976081
Na      44.08048789      32.54602330       1.02721759      -0.07000298      -0.03368277      -0.00028791      -1.20172620
Na      46.49876945       3.24454515       9.90847829       0.03860404       0.01011015       0.10221815      -1.11785579
Na      45.78157212      55.97567008      21.42924054       0.02281510      -0.02499877      -0.00833025      -1.14850044
Na      52.04717188      26.33066038      32.33939163      -0.03202834       0.00309819       0.01785219      -1.27845621
Na      26.21044734      -0.06861482      42.80780025       0.04054217       0.01735728      -0.01854626      -1.30761099
Na      16.81783496      10.25552463      40.16084246      -0.09549755       0.01157756       0.08263423      -1.15354145
Na      52.42278186      16.30617727       5.80035544      -0.05022937       0.02754293      -0.02704220      -1.31728125
Na      58.17669948      44.94545884      25.71504888       0.00634113       0.02910096      -0.01019515      -1.21386194
Na      51.29429568      28.12013931      55.57950661      -0.00009961       0.00926995      -0.04414821      -1.13764119
Na      30.98668178       4.19482203       4.38853600      -0.03401607      -0.01453390      -0.08099669      -1.18394971
Na      34.05610177      30.71080699      32.33572416      -0.02772021       0.04031434       0.11050065      -1.05262327
Na      40.34214389      13.00519915      20.69759243       0.06882910      -0.03583996      -0.03662229      -1.16658890
Cl      33.38359835      32.87719839      20.02279046       0.03341932      -0.01742837      -0.19539316      -4.64189100
Cl      -0.18307761      23.95988144      24.37302101      -0.02635748      -0.07383944       0.07197864      -4.74177265
Cl      30.02019405      20.94869232      49.48800036       0.03540178      -0.01320572      -0.02175377      -4.85831881
Cl       6.73899761      40.23359411      40.21031491      -0.02536021       0.02754223      -0.03309440      -4.54522371
Cl      33.37477122      22.76336701      31.58221513       0.01820803       0.06819336       0.01137574      -4.96493006
Cl      44.31012782      16.87367662      23.38982154       0.06328169       0.01054219      -0.02392439      -4.85111284
Cl      30.56004495      40.48434067       0.90341316      -0.01075940       0.00331978       0.00892399      -4.87589169
Cl      58.41490656      16.92092642      48.15368196      -0.01458386      -0.03003905       0.00493216      -4.84151173
Cl      49.30750861      22.10054289      50.56080727      -0.02091801       0.09018645       0.05275919      -4.75690937
Cl      24.68024918      21.18115563      39.13594983      -0.09907596       0.05827616      -0.02588674      -4.55963326
Cl      26.28198913      39.00679050      56.73010345       0.03956576      -0.01114691       0.03181234      -4.97571039
Cl      39.85119320       7.23148514      18.76081498      -0.01692138      -0.03058040      -0.05777901      -4.57716274
Cl      20.40415942      47.91334610      14.58520828      -0.05344596       0.01682541      -0.01334538      -4.72311831
Cl      49.84661124      11.16132565       0.98831322      -0.00932595      -0.01554060      -0.05777002      -5.00194693
Cl      10.32447024      16.75603455      14.56010584      -0.01604452      -0.02558611       0.02068186      -4.85765171
Cl      41.02711206      48.77357374      50.64989222       0.05525920       0.00725200       0.00430736      -4.64363909
Cl      18.10846378      56.20354981      56.35212509      -0.03439742       0.00955713      -0.00942575      -4.94810820
Cl      40.42635953      44.88757322      35.19059462       0.02062443      -0.01775368       0.02786855      -4.78876114
Cl      47.00789009      58.13617571      36.90860504       0.11854552       0.00534289      -0.10386999      -4.64776134
Cl      17.80651930      54.89047414       4.77339725      -0.05857246      -0.09004040      -0.03156389      -4.84191513
Cl      17.97373581      54.14780147       8.45046188      -0.09461752       0.07473601       0.05332345      -4.82332468
Cl      58.03955061      27.75426923      56.06113016       0.01935797       0.00837788      -0.01939173      -4.79641438
Cl       7.83037417      29.24877623      51.95155557      -0.02882629       0.03476034       0.05792629      -4.81339455
Cl      17.39382105      52.02840098      56.73668696      -0.04308967       0.02290434      -0.01253745      -4.92758179
Cl      12.59340786       4.60286970      46.03394530       0.06295547       0.01938651      -0.01610818      -4.87657595
Cl      22.35884361      18.61692322      51.06468001      -0.03180569      -0.02030285       0.04601245      -4.82362747
Cl       6.85831191       8.02239150      57.14205557      -0.00793000      -0.03409609      -0.03109702      -5.00510693
Cl      52.31679662      17.90313113      54.84758993       0.13624147       0.03111635       0.09161931      -4.95990849
Cl      26.37489477       1.76374776      25.42937739       0.02033604      -0.02408152      -0.00952220      -4.75997925
Cl      47.07793417      43.77964709      30.89345243       0.01849065       0.09663904      -0.02079745      -4.67535400
Cl      16.97098562      33.98546223       1.77442119       0.00295188       0.13775520      -0.01384368      -4.80300808
Cl      57.45538586      20.36012411      56.49158368      -0.04541408      -0.04145395       0.01244619      -4.81946230
Cl      21.86783155       6.32401455       3.11185909      -0.02402418      -0.00351224       0.01743182      -4.81551123
Cl       4.93712953       4.97706606      54.64879403       0.01308679      -0.02671796      -0.08996101      -4.66216469
Cl      53.00094962      32.19246117      18.11111466       0.02504667       0.03441187      -0.01548715      -4.83569050
Cl      21.81239625      14.74496569      28.77949414      -0.03851369      -0.01182089      -0.04123530      -4.89428616
Cl      48.57207762      45.30686656      25.41358364       0.01700432      -0.05977372       0.05505998      -4.91936064
Cl      31.11793955      35.01258770      23.59382848       0.01148232       0.00870096      -0.00763025      -4.83961487
Cl      11.62413741      26.69679965      52.33156542      -0.01791674      -0.03923351      -0.01068738      -4.79814816
Cl      27.90085956      13.91099837       1.07702820      -0.02823216       0.02329090       0.00666575      -4.68420410
Cl      39.11290834      49.78203039      28.42704828       0.03205068      -0.02405818       0.02910242      -4.96361637
Cl      58.27782494      13.24729847      20.08989461       0.00995634      -0.03825783       0.04537133      -4.88074827
Cl       9.26297078       9.79190868      30.66930959      -0.02380546      -0.00337441      -0.06114117      -4.73894310
Cl      28.39274894      52.25636493      45.36096769      -0.03645094       0.08658501       0.04949829      -4.85334921
Cl      13.73149446      53.51761392      34.32315008      -0.02562279      -0.02212641       0.06002774      -4.72941256
Cl      51.08994313      54.68752128       5.76692314      -0.06069121       0.06241408      -0.05240614      -4.69973135
Cl      39.28495880      56.95106866      11.90868853       0.00358379      -0.02350339      -0.01635126      -4.84757710
Cl      15.97297269      16.72238546      13.06493872      -0.03206624      -0.01596609       0.02384182      -4.74745369
Cl      54.70019078      56.24734280      47.45728798      -0.03397311       0.05366871      -0.05247708      -4.74266958
Cl      36.16273549      43.69734100      18.42072268       0.02410128       0.00081483       0.03615817      -4.90441990
Na       5.22296022      53.11660835      48.59714439       0.04488258      -0.01534350      -0.01146375      -1.18341923
Na      23.62619348      24.80364441      13.34875950      -0.00570486       0.00921964      -0.03679468      -1.27358627
Na      35.96202549      31.61578592      23.77186925      -0.05274399      -0.01802883       0.07178424      -1.25611711
Na      12.88820008      24.43043438       7.54956726      -0.02632301       0.01433686       0.01783846      -1.03911638
Na      38.08522268      15.44200732       1.85023853      -0.01849186       0.02869110      -0.00272992      -1.16594744
Na      28.19502807      54.71542778      58.28827685      -0.00343295      -0.01881396       0.05290118      -1.22163785
Na      44.70336723       6.98476027      55.02411685       0.07712783      -0.00875624      -0.01173019      -1.18864632
Na      14.23812879      33.95092867      36.90978547       0.06369166       0.02127689      -0.00262160      -1.24549615
Na      36.22875294      37.57211349      45.24685537       0.03503700      -0.01228749      -0.04374171      -1.32131696
Na      48.84279945      57.35831711      43.90073964      -0.01631472      -0.01364254      -0.01715272      -1.16918051
Na      18.18087595      13.74618261      39.47486086       0.03780815      -0.02662125      -0.07024231      -1.10307431
Na      48.34117958      34.61669999      22.47825770       0.08456986      -0.01693142      -0.04402374      -1.22851729
Na      48.98774854      24.74000466      13.04616800       0.00651462      -0.01314641      -0.05081966      -1.25594664
Na      35.38753529      42.48280601      35.43614731      -0.08964135       0.07088573       0.08429688      -1.16375971
Na      13.21560667       6.79273879       4.06202730       0.02695253       0.05512848       0.02226564      -1.38379717
Na      26.91217204      55.48898747      54.85512406       0.00822699      -0.04112107       0.01814047      -1.24673641
Na      23.12578225      50.08513408       5.54986831      -0.01098918      -0.09854412      -0.02999312      -1.30422807
Na       0.84297360      30.16114350      50.36125493      -0.00329229      -0.01597358      -0.00310775      -1.23727417
Na      27.50247225      43.99910728       3.65431910      -0.00926320      -0.02738051      -0.00991250      -1.24766672
Na      22.46245227      46.55632645      57.36348292      -0.00901707      -0.01542408       0.03860153      -1.24622631
Na      31.29333767      37.63408865      21.43058675       0.03742028      -0.08309859       0.06305172      -1.21957946
Na      41.51924387       6.52289041      44.18875257       0.04864592       0.05359972       0.00005144      -1.20907640
Na      45.00733221      13.89469153      43.72134065       0.03015925      -0.03767696      -0.01153762      -1.40401888
Na      37.21639988      20.64087919      11.47687447      -0.01780972      -0.02945386       0.02390411      -1.26923561
Na      47.46043519      54.85209206      46.05715051       0.02095165       0.01489712      -0.02420402      -1.20583701
Na      38.67493445      48.94331300      45.77546538       0.03070258       0.06943771      -0.01677587      -1.36267257
Na      18.61054894      17.37987324      56.96728133       0.04308198      -0.10990480       0.09728208      -1.14941120
Na      55.53300788      51.26589147      26.34643403      -0.00234802       0.02336664      -0.05063104      -1.13219213
Na      31.02329827      36.74747310      30.26241765      -0.06298772       0.07220103       0.02160721      -1.28227735
Na      19.34689439      49.46743614      32.60415652      -0.00365368      -0.06045073      -0.05624565      -1.26266885
Na      26.30965622      32.66254791      33.80436906       0.05183187      -0.02498258      -0.00118469      -1.35231161
Na      25.97998375      38.87866159      17.82741439      -0.03938764      -0.00174857       0.00325811      -1.30939150
Na      54.24782183      29.13009373      24.06989810       0.01040231      -0.00722402      -0.01942813      -1.23267519
Na      49.99357095      39.01469704      52.27923124      -0.05200987       0.02367655      -0.00341327      -1.16137612
Na      25.66888473      33.03747567      56.34264513       0.03829296      -0.01932242       0.02267155      -1.26007056
Na      29.41474831      55.43030183      18.00382708       0.05600054      -0.06824680       0.06978237      -1.25874794
Na      10.05214636       4.12842931      23.30978493       0.04610059       0.00819024       0.01244074      -1.28974533
Na      34.10556931      35.49896932      13.16042977      -0.06471698       0.00073606       0.03621852      -1.17976046
Na      44.08048771      32.54602370      15.65908485      -0.07000293      -0.03368279      -0.00028835      -1.20172596
Na      46.49876969       3.24454511      24.54034534       0.03860441       0.01010944       0.10221729      -1.11785555
Na      45.78157219      55.97567006      36.06110746       0.02281272      -0.02499659      -0.00832662      -1.14850092
Na      52.04717178      26.33066048      46.97125892      -0.03202955       0.00309909       0.01784996      -1.27845752
Na      26.21044706      -0.06861477      57.43966789       0.04054447       0.01735836      -0.01854326      -1.30761099
Na      16.81783510      10.25552449      54.79270971      -0.09549615       0.01157754       0.08263638      -1.15354145
Na      52.42278187      16.30617724      20.43222263      -0.05022922       0.02754232      -0.02704064      -1.31728125
Na      58.17669951      44.94545882      40.34691581       0.00634176       0.02909904      -0.01018911      -1.21386194
Na      51.29429566      28.12013938      11.68390506      -0.00009994       0.00926962      -0.04414832      -1.13764143
Na      30.98668182       4.19482201      19.02040295      -0.03401503      -0.01453440      -0.08099677      -1.18394971
Na      34.05610172      30.71080688      46.96759117      -0.02771882       0.04031483       0.11050231      -1.05262399
Na      40.34214388      13.00519935      35.32945950       0.06882806      -0.03584212      -0.03662816      -1.16658854
Cl      33.38359837      32.87719837      34.65465754       0.03341869      -0.01742888      -0.19539370      -4.64189243
Cl      -0.18307753      23.95988149      39.00488791      -0.02635536      -0.07383868       0.07198004      -4.74177217
Cl      30.02019378      20.94869239       5.59239893       0.03540044      -0.01320657      -0.02175719      -4.85831785
Cl       6.73899742      40.23359416      54.84218225      -0.02536146       0.02754302      -0.03309412      -4.54522324
Cl      33.37477122      22.76336701      46.21408204       0.01820833       0.06819277       0.01137759      -4.96493006
Cl      44.31012804      16.87367656      38.02168863       0.06327714       0.01053892      -0.02392974      -4.85111666
Cl      30.56004525      40.48434054      15.53528056      -0.01075965       0.00332015       0.00892388      -4.87589169
Cl      58.41490639      16.92092647       4.25808073      -0.01458531      -0.03004153       0.00493093      -4.84151316
Cl      49.30750866      22.10054298       6.66520613      -0.02091858       0.09018800       0.05275566      -4.75690985
Cl      24.68024923      21.18115551      53.76781736      -0.09908013       0.05827078      -0.02589617      -4.55963612
Cl      26.28198905      39.00679042      12.83450211       0.03957065      -0.01114597       0.03180968      -4.97571039
Cl      39.85119292       7.23148506      33.39268206      -0.01692088      -0.03057913      -0.05777817      -4.57716274
Cl      20.40415947      47.91334616      29.21707537      -0.05344625       0.01682486      -0.01334457      -4.72311878
Cl      49.84661145      11.16132574      15.62018082      -0.00932530      -0.01554145      -0.05776831      -5.00194597
Cl      10.32447025      16.75603462      29.19197288      -0.01604450      -0.02558615       0.02068336      -4.85765171
Cl      41.02711196      48.77357343       6.75429098       0.05526064       0.00725067       0.00429944      -4.64363861
Cl      18.10846365      56.20354972      12.45652346      -0.03439767       0.00955647      -0.00942929      -4.94810867
Cl      40.42635951      44.88757308      49.82246163       0.02062410      -0.01775267       0.02786803      -4.78875971
Cl      47.00789004      58.13617569      51.54047183       0.11854661       0.00534393      -0.10386856      -4.64776134
Cl      17.80651922      54.89047421      19.40526452      -0.05857407      -0.09003988      -0.03156042      -4.84191561
Cl      17.97373582      54.14780159      23.08232881      -0.09461805       0.07473586       0.05332384      -4.82332516
Cl      58.03955062      27.75426921      12.16552839       0.01935800       0.00837824      -0.01939231      -4.79641342
Cl       7.83037410      29.24877622       8.05595454      -0.02882702       0.03476048       0.05792608      -4.81339359
Cl      17.39382074      52.02840073      12.84108547      -0.04308774       0.02290386      -0.01253677      -4.92758179
Cl      12.59340773       4.60286954       2.13834397       0.06295463       0.01938517      -0.01610507      -4.87657738
Cl      22.35884353      18.61692300       7.16907855      -0.03180702      -0.02030333       0.04600866      -4.82362747
Cl       6.85831181       8.02239117      13.24645348      -0.00792856      -0.03409594      -0.03109510      -5.00510788
Cl      52.31679662      17.90313120      10.95198826       0.13624179       0.03111668       0.09162519      -4.95990753
Cl      26.37489481       1.76374772      40.06124440       0.02033572      -0.02408315      -0.00952404      -4.75997829
Cl      47.07793414      43.77964707      45.52531936       0.01849172       0.09663793      -0.02080059      -4.67535305
Cl      16.97098545      33.98546245      16.40628813       0.00295230       0.13775474      -0.01384276      -4.80300856
Cl      57.45538586      20.36012396      12.59598253      -0.04541449      -0.04145560       0.01244675      -4.81946325
Cl      21.86783137       6.32401447      17.74372678      -0.02402546      -0.00351147       0.01743164      -4.81551170
Cl       4.93712945       4.97706585      10.75319303       0.01308599      -0.02671860      -0.08996271      -4.66216373
Cl      53.00094961      32.19246133      32.74298195       0.02504648       0.03440954      -0.01548423      -4.83569002
Cl      21.81239611      14.74496568      43.41136114      -0.03851431      -0.01181971      -0.04123823      -4.89428473
Cl      48.57207731      45.30686655      40.04545091       0.01700454      -0.05977404       0.05505710      -4.91936016
Cl      31.11793943      35.01258770      38.22569579       0.01148191       0.00870229      -0.00763261      -4.83961630
Cl      11.62413745      26.69679949       8.43596437      -0.01791777      -0.03923278      -0.01069110      -4.79814911
Cl      27.90085967      13.91099828      15.70889550      -0.02823247       0.02329008       0.00666526      -4.68420458
Cl      39.11290836      49.78203036      43.05891523       0.03205004      -0.02405886       0.02910100      -4.96361589
Cl      58.27782490      13.24729841      34.72176171       0.00995367      -0.03825903       0.04536797      -4.88074827
Cl       9.26297082       9.79190868      45.30117665      -0.02380664      -0.00337495      -0.06114829      -4.73894167
Cl      28.39274886      52.25636458       1.46536601      -0.03644754       0.08659333       0.04950398      -4.85334969
Cl      13.73149446      53.51761406      48.95501674      -0.02562214      -0.02212669       0.06003081      -4.72941399
Cl      51.08994305      54.68752139      20.39879031      -0.06069178       0.06241622      -0.05240561      -4.69972992
Cl      39.28495871      56.95106866      26.54055546       0.00358531      -0.02350496      -0.01635099      -4.84757614
Cl      15.97297273      16.72238538      27.69680572      -0.03206545      -0.01596577       0.02384254      -4.74745464
Cl      54.70019077      56.24734236       3.56168651      -0.03397293       0.05366714      -0.05248093      -4.74266958
Cl      36.16273549      43.69734105      33.05258959       0.02410141       0.00081496       0.03615815      -4.90442085
Na       5.22296017      53.11660851       4.70154329       0.04488244      -0.01534461      -0.01146250      -1.18341970
Na      23.62619346      24.80364436      27.98062651      -0.00570418       0.00921915      -0.03679636      -1.27358615
Na      35.96202566      31.61578598      38.40373589      -0.05274566      -0.01802858       0.07178684      -1.25611722
Na      12.88820005      24.43043436      22.18143449      -0.02632280       0.01433682       0.01783671      -1.03911650
Na      38.08522285      15.44200690      16.48210618      -0.01849294       0.02869115      -0.00272842      -1.16594720
Na      28.19502801      54.71542785      14.39267490      -0.00343184      -0.01881276       0.05290359      -1.22163832
Na      44.70336726       6.98476012      11.12851518       0.07712162      -0.00875716      -0.01172776      -1.18864632
Na      14.23812885      33.95092867      51.54165235       0.06369197       0.02127601      -0.00262216      -1.24549592
Na      36.22875284      37.57211337       1.35125334       0.03503720      -0.01228925      -0.04373985      -1.32131696
Na      48.84279938      57.35831709       0.00513804      -0.01631433      -0.01364085      -0.01715566      -1.16918039
Na      18.18087607      13.74618253      54.10672800       0.03780803      -0.02662354      -0.07023852      -1.10307384
Na      48.34117963      34.61669995      37.11012457       0.08456997      -0.01693294      -0.04401996      -1.22851753
Na      48.98774859      24.74000455      27.67803515       0.00651526      -0.01314678      -0.05082185      -1.25594640
Na      35.38753544      42.48280609      50.06801435      -0.08964050       0.07088666       0.08429148      -1.16375971
Na      13.21560673       6.79273880      18.69389456       0.02695171       0.05512898       0.02226497      -1.38379729
Na      26.91217194      55.48898750      10.95952246       0.00822651      -0.04112273       0.01814615      -1.24673629
Na      23.12578227      50.08513425      20.18173554      -0.01098926      -0.09854353      -0.02999382      -1.30422831
Na       0.84297336      30.16114340       6.46565354      -0.00329193      -0.01597381      -0.00310506      -1.23727345
Na      27.50247239      43.99910732      18.28618629      -0.00926308      -0.02738019      -0.00991176      -1.24766624
Na      22.46245232      46.55632655      13.46788126      -0.00901774      -0.01542449       0.03860079      -1.24622607
Na      31.29333784      37.63408868      36.06245380       0.03741603      -0.08310089       0.06305125      -1.21958005
Na      41.51924425       6.52289007       0.29315067       0.04864558       0.05360058       0.00004457      -1.20907640
Na      45.00733226      13.89469171      58.35320813       0.03015863      -0.03767654      -0.01153692      -1.40401793
Na      37.21639984      20.64087923      26.10874151      -0.01781080      -0.02945412       0.02390361      -1.26923537
Na      47.46043506      54.85209208       2.16154890       0.02095195       0.01489757      -0.02419884      -1.20583665
Na      38.67493448      48.94331282       1.87986374       0.03070181       0.06943768      -0.01677355      -1.36267269
Na      18.61054888      17.37987346      13.07168032       0.04308049      -0.10990550       0.09727956      -1.14941132
Na      55.53300778      51.26589155      40.97830105      -0.00234877       0.02336540      -0.05063036      -1.13219237
Na      31.02329822      36.74747310      44.89428466      -0.06298937       0.07220143       0.02160910      -1.28227782
Na      19.34689434      49.46743603      47.23602358      -0.00365410      -0.06045276      -0.05624549      -1.26266885
Na      26.30965636      32.66254797      48.43623586       0.05183163      -0.02498374      -0.00118482      -1.35231173
Na      25.97998376      38.87866162      32.45928154      -0.03938776      -0.00174717       0.00325936      -1.30939102
Na      54.24782176      29.13009371      38.70176492       0.01040245      -0.00722281      -0.01942259      -1.23267484
Na      49.99357101      39.01469714       8.38363026      -0.05200938       0.02367641      -0.00341046      -1.16137624
Na      25.66888475      33.03747565      12.44704360       0.03829417      -0.01932319       0.02266810      -1.26007068
Na      29.41474830      55.43030190      32.63569392       0.05599979      -0.06824770       0.06978533      -1.25874817
Na      10.05214652       4.12842929      37.94165206       0.04609850       0.00819087       0.01244390      -1.28974521
Na      34.10556930      35.49896928      27.79229669      -0.06471692       0.00073625       0.03621821      -1.17976022
Na      44.08048763      32.54602377      30.29095192      -0.07000334      -0.03368378      -0.00028924      -1.20172596
Na      46.49876958       3.24454517      39.17221226       0.03860598       0.01010844       0.10221823      -1.11785460
Na      45.78157212      55.97567012      50.69297487       0.02281256      -0.02499667      -0.00832583      -1.14850056
Na      52.04717180      26.33066035       3.07565739      -0.03202967       0.00309872       0.01785128      -1.27845716
Na      26.21044736      -0.06861476      13.54406619       0.04054418       0.01735769      -0.01854526      -1.30761087
Na      16.81783491      10.25552461      10.89710852      -0.09549742       0.01157711       0.08263727      -1.15354180
Na      52.42278185      16.30617738      35.06408923      -0.05022879       0.02754297      -0.02704482      -1.31728089
Na      58.17669965      44.94545883      54.97878323       0.00634234       0.02909912      -0.01019000      -1.21386194
Na      51.29429576      28.12013940      26.31577206      -0.00009893       0.00926864      -0.04415169      -1.13764143
Na      30.98668172       4.19482204      33.65226973      -0.03401494      -0.01453532      -0.08099885      -1.18395019
Na      34.05610114      30.71080642       3.07199008      -0.02771932       0.04031665       0.11050272      -1.05262363
Na      40.34214399      13.00519917      49.96132695       0.06882831      -0.03584125      -0.03662749      -1.16658902
Cl      33.38359815      32.87719839      49.28652437       0.03341870      -0.01742911      -0.19539386      -4.64189053
Cl      -0.18307741      23.95988142      53.63675514      -0.02635945      -0.07383940       0.07197460      -4.74177265
Cl      30.02019387      20.94869243      20.22426602       0.03540087      -0.01320679      -0.02175740      -4.85831928
Cl       6.73899767      40.23359420      10.94658098      -0.02536048       0.02754361      -0.03309424      -4.54522228
Cl      33.37477108      22.76336697       2.31848121       0.01820748       0.06819317       0.01137491      -4.96493006
Cl      44.31012780      16.87367652      52.65355553       0.06328143       0.01054147      -0.02392563      -4.85111475
Cl      30.56004535      40.48434057      30.16714769      -0.01076047       0.00332037       0.00892022      -4.87589216
Cl      58.41490664      16.92092647      18.88994803      -0.01458537      -0.03004110       0.00493159      -4.84151363
Cl      49.30750863      22.10054296      21.29707326      -0.02091824       0.09018879       0.05275507      -4.75691032
Cl      24.68024907      21.18115564       9.87221600      -0.09907585       0.05827419      -0.02589344      -4.55963469
Cl      26.28198892      39.00679041      27.46636910       0.03957041      -0.01114670       0.03180922      -4.97570992
Cl      39.85119293       7.23148516      48.02454907      -0.01692269      -0.03058177      -0.05777671      -4.57716274
Cl      20.40415921      47.91334622      43.84894227      -0.05344440       0.01682596      -0.01334511      -4.72311878
Cl      49.84661149      11.16132574      30.25204778      -0.00932437      -0.01554037      -0.05776859      -5.00194740
Cl      10.32447022      16.75603460      43.82384032      -0.01604485      -0.02558556       0.02067876      -4.85765028
Cl      41.02711203      48.77357347      21.38615809       0.05526102       0.00725196       0.00430022      -4.64363956
Cl      18.10846360      56.20354974      27.08839055      -0.03439780       0.00955604      -0.00942658      -4.94810820
Cl      40.42635938      44.88757320       5.92686053       0.02062503      -0.01775209       0.02786588      -4.78875971
Cl      47.00789004      58.13617576       7.64487084       0.11854605       0.00534230      -0.10387157      -4.64776134
Cl      17.80651931      54.89047400      34.03713130      -0.05857114      -0.09004052      -0.03156573      -4.84191513
Cl      17.97373575      54.14780149      37.71419606      -0.09461800       0.07473540       0.05332767      -4.82332468
Cl      58.03955062      27.75426926      26.79739534       0.01935758       0.00837586      -0.01939041      -4.79641485
Cl       7.83037417      29.24877618      22.68782162      -0.02882709       0.03476061       0.05792625      -4.81339359
Cl      17.39382070      52.02840079      27.47295247      -0.04308804       0.02290343      -0.01253636      -4.92758226
Cl      12.59340785       4.60286973      16.77021135       0.06295533       0.01938507      -0.01610685      -4.87657738
Cl      22.35884352      18.61692311      21.80094563      -0.03180665      -0.02030307       0.04600976      -4.82362652
Cl       6.85831180       8.02239121      27.87832055      -0.00792903      -0.03409642      -0.03109476      -5.00510788
Cl      52.31679672      17.90313120      25.58385525       0.13624226       0.03111708       0.09162788      -4.95990801
Cl      26.37489457       1.76374784      54.69311177       0.02033475      -0.02408218      -0.00952372      -4.75998020
Cl      47.07793413      43.77964702       1.62971788       0.01849117       0.09663774      -0.02080192      -4.67535210
Cl      16.97098541      33.98546240      31.03815512       0.00295341       0.13775522      -0.01383937      -4.80300760
Cl      57.45538592      20.36012386      27.22784944      -0.04541387      -0.04145409       0.01244616      -4.81946325
Cl      21.86783128       6.32401448      32.37559363      -0.02402586      -0.00351069       0.01742923      -4.81551123
Cl       4.93712943       4.97706584      25.38506013       0.01308625      -0.02671811      -0.08996131      -4.66216373
Cl      53.00094966      32.19246146      47.37484862       0.02504554       0.03441028      -0.01548298      -4.83569050
Cl      21.81239636      14.74496572      58.04322880      -0.03851423      -0.01182179      -0.04123545      -4.89428520
Cl      48.57207725      45.30686668      54.67731748       0.01700464      -0.05977087       0.05505673      -4.91936111
Cl      31.11793948      35.01258773      52.85756267       0.01148084       0.00870121      -0.00763118      -4.83961535
Cl      11.62413741      26.69679952      23.06783135      -0.01791731      -0.03923288      -0.01068970      -4.79814911
Cl      27.90085957      13.91099828      30.34076252      -0.02823211       0.02329041       0.00666372      -4.68420506
Cl      39.11290833      49.78203042      57.69078306       0.03205165      -0.02405865       0.02909898      -4.96361446
Cl      58.27782476      13.24729830      49.35362829       0.00995472      -0.03825605       0.04537224      -4.88074875
Cl       9.26297079       9.79190873       1.40557510      -0.02380461      -0.00337479      -0.06114267      -4.73894358
Cl      28.39274887      52.25636494      16.09723365      -0.03644853       0.08658586       0.04950150      -4.85334921
Cl      13.73149441      53.51761391       5.05941584      -0.02562189      -0.02212558       0.06002714      -4.72941399
Cl      51.08994306      54.68752135      35.03065739      -0.06069019       0.06241467      -0.05240644      -4.69973040
Cl      39.28495878      56.95106853      41.17242268       0.00358567      -0.02350406      -0.01635375      -4.84757519
Cl      15.97297274      16.72238543      42.32867283      -0.03206777      -0.01596608       0.02384119      -4.74745464
Cl      54.70019070      56.24734264      18.19355352      -0.03397362       0.05366709      -0.05248329      -4.74267006
Cl      36.16273547      43.69734094      47.68445651       0.02410156       0.00081478       0.03616322      -4.90441990
