LAMMPS data file via write_data, version 5 Jun 2019

10080 atoms
11 atom types
6080 bonds
1 bond types
3040 angles
1 angle types

0.4999739999999999 48.764578 xlo xhi
0.49991699999999994 48.7628 ylo yhi
0.5000009999999999 48.7691 zlo zhi

Masses

1 1.008
2 15.999
3 18.998
4 35.453
5 79.904
6 126.904
7 6.941
8 22.99
9 29.098
10 85.465
11 132.905

Atoms # full

1 1 1 0.4238 43.442763 34.477477 34.683234
2 1 2 -0.8476 44.309069 34.367015 35.170382
3 1 1 0.4238 44.363941 33.442421 35.547361
4 2 1 0.4238 26.75201 42.747003 31.43486
5 2 2 -0.8476 26.415577 41.877833 31.797292
6 2 1 0.4238 26.195439 41.263576 31.039514
7 3 1 0.4238 37.81763 10.978554 44.856
8 3 2 -0.8476 38.643828 11.488701 45.095052
9 3 1 0.4238 39.350091 11.320494 44.407376
10 4 1 0.4238 7.384586 1.500181 17.499649
11 4 2 -0.8476 6.531566 1.861077 17.122673
12 4 1 0.4238 5.76146 1.540496 17.674183
13 5 1 0.4238 34.72795 14.260144 43.911281
14 5 2 -0.8476 33.848949 14.732883 43.849031
15 5 1 0.4238 33.108833 14.060478 43.839025
16 6 1 0.4238 47.761402 41.028005 10.157836
17 6 2 -0.8476 47.197496 40.224677 9.966331
18 6 1 0.4238 47.762322 39.512753 9.549035
19 7 1 0.4238 22.182831 10.301538 33.39612
20 7 2 -0.8476 21.916854 11.264836 33.359879
21 7 1 0.4238 22.573159 11.771012 32.800371
22 8 1 0.4238 5.827277 34.496114 35.351042
23 8 2 -0.8476 6.186248 34.590396 34.422467
24 8 1 0.4238 5.946774 35.4921 34.062492
25 9 1 0.4238 34.45191 30.920319 47.761674
26 9 2 -0.8476 33.575892 30.913313 47.279445
27 9 1 0.4238 32.92492 31.499049 47.762299
28 10 1 0.4238 35.650274 40.952554 30.0519
29 10 2 -0.8476 35.448883 41.92605 29.943511
30 10 1 0.4238 36.246857 42.463815 30.215624
31 11 1 0.4238 7.839864 40.24314 37.279362
32 11 2 -0.8476 6.87966 39.974546 37.35594
33 11 1 0.4238 6.316229 40.78837 37.498194
34 12 1 0.4238 6.969317 11.07819 28.317646
35 12 2 -0.8476 7.700058 10.638597 27.795367
36 12 1 0.4238 7.329068 9.854151 27.298364
37 13 1 0.4238 28.378202 46.876754 35.288325
38 13 2 -0.8476 28.402855 45.985545 34.835401
39 13 1 0.4238 29.269441 45.8838 34.346857
40 14 1 0.4238 1.941242 36.421347 1.500882
41 14 2 -0.8476 1.562184 36.986302 2.233781
42 14 1 0.4238 1.501449 37.935616 1.925376
43 15 1 0.4238 34.177993 18.910809 11.411336
44 15 2 -0.8476 34.151926 18.361861 10.575886
45 15 1 0.4238 34.860989 17.657935 10.617329
46 16 1 0.4238 24.08769 14.071866 33.179288
47 16 2 -0.8476 24.442214 14.935863 33.536812
48 16 1 0.4238 23.793263 15.670233 33.337909
49 17 1 0.4238 3.74022 36.113512 15.896049
50 17 2 -0.8476 3.149525 35.906166 16.675849
51 17 1 0.4238 3.469322 36.408627 17.479131
52 18 1 0.4238 8.808 7.67625 26.286048
53 18 2 -0.8476 7.834508 7.547286 26.474944
54 18 1 0.4238 7.723019 6.871394 27.203463
55 19 1 0.4238 36.596058 12.644079 43.44753
56 19 2 -0.8476 36.709311 12.782678 42.463679
57 19 1 0.4238 37.642845 12.541568 42.198389
58 20 1 0.4238 32.655223 21.647675 45.404803
59 20 2 -0.8476 33.468118 21.207086 45.023905
60 20 1 0.4238 33.242157 20.273174 44.746867
61 21 1 0.4238 24.500475 24.665606 34.290636
62 21 2 -0.8476 24.116695 24.29358 33.445468
63 21 1 0.4238 23.691286 23.408413 33.633899
64 22 1 0.4238 21.029523 21.837758 26.327644
65 22 2 -0.8476 20.528963 22.128738 27.142979
66 22 1 0.4238 20.991828 22.913041 27.556045
67 23 1 0.4238 17.766994 42.0401 15.226901
68 23 2 -0.8476 17.510789 41.220164 14.714979
69 23 1 0.4238 16.814431 40.713737 15.223523
70 24 1 0.4238 4.507968 45.218072 47.761516
71 24 2 -0.8476 4.969049 44.330715 47.762791
72 24 1 0.4238 5.959347 44.469657 47.760637
73 25 1 0.4238 13.672421 33.525891 46.663814
74 25 2 -0.8476 13.005233 34.258898 46.531294
75 25 1 0.4238 13.267699 34.809216 45.738664
76 26 1 0.4238 25.417772 8.315891 31.853906
77 26 2 -0.8476 25.892251 7.89252 32.625675
78 26 1 0.4238 26.197658 8.603074 33.259583
79 27 1 0.4238 17.722221 7.848663 28.155748
80 27 2 -0.8476 17.844155 6.889967 28.412719
81 27 1 0.4238 18.810901 6.715328 28.599546
82 28 1 0.4238 31.275716 7.354556 19.789218
83 28 2 -0.8476 31.928169 7.06345 19.089531
84 28 1 0.4238 32.670748 6.549779 19.51932
85 29 1 0.4238 2.164183 1.502337 30.07302
86 29 2 -0.8476 3.060221 1.533278 30.515919
87 29 1 0.4238 3.420243 2.465324 30.475008
88 30 1 0.4238 8.427988 30.254513 17.903281
89 30 2 -0.8476 8.923484 29.390847 17.995834
90 30 1 0.4238 8.273398 28.650108 18.165224
91 31 1 0.4238 36.219527 16.394061 3.293187
92 31 2 -0.8476 36.930636 16.969948 3.696523
93 31 1 0.4238 37.739132 16.414402 3.890695
94 32 1 0.4238 37.090333 38.58422 42.718542
95 32 2 -0.8476 36.836337 37.736141 43.183566
96 32 1 0.4238 37.636331 37.13979 43.249704
97 33 1 0.4238 10.913135 47.264032 31.89059
98 33 2 -0.8476 11.912223 47.231954 31.86241
99 33 1 0.4238 12.212921 46.28211 31.776529
100 34 1 0.4238 3.770773 14.393014 17.509483
101 34 2 -0.8476 4.410148 13.630916 17.407473
102 34 1 0.4238 4.216947 13.145605 16.554744
103 35 1 0.4238 9.79323 22.938588 9.171567
104 35 2 -0.8476 9.659304 22.19138 9.822524
105 35 1 0.4238 9.832486 21.317884 9.367538
106 36 1 0.4238 36.420954 11.882418 13.069375
107 36 2 -0.8476 35.6837 11.225252 13.226188
108 36 1 0.4238 35.250106 10.996511 12.354596
109 37 1 0.4238 46.937605 1.501614 4.607208
110 37 2 -0.8476 47.760209 1.829128 4.142388
111 37 1 0.4238 47.762375 1.500825 3.197819
112 38 1 0.4238 43.256124 9.159477 10.565146
113 38 2 -0.8476 43.822392 9.501333 11.31513
114 38 1 0.4238 43.241007 9.949299 11.994333
115 39 1 0.4238 4.527517 24.104084 24.061259
116 39 2 -0.8476 3.833747 24.529026 23.479789
117 39 1 0.4238 4.230571 25.316937 23.00891
118 40 1 0.4238 41.713238 23.881875 4.677252
119 40 2 -0.8476 41.582897 24.652513 5.301054
120 40 1 0.4238 40.606644 24.852503 5.384329
121 41 1 0.4238 3.548447 43.630389 44.678331
122 41 2 -0.8476 3.320944 43.832778 45.630844
123 41 1 0.4238 3.222218 42.977184 46.138989
124 42 1 0.4238 45.068253 43.237106 36.644333
125 42 2 -0.8476 44.495074 43.254676 37.463575
126 42 1 0.4238 44.906046 43.860309 38.144977
127 43 1 0.4238 47.762305 26.584127 13.10181
128 43 2 -0.8476 47.761104 27.577284 12.985031
129 43 1 0.4238 47.762274 27.798217 12.009743
130 44 1 0.4238 46.424287 21.648828 20.557195
131 44 2 -0.8476 47.359595 21.899434 20.806986
132 44 1 0.4238 47.761658 22.454615 20.078893
133 45 1 0.4238 37.169969 13.133172 10.10553
134 45 2 -0.8476 37.732731 12.336573 9.884785
135 45 1 0.4238 37.709344 11.690272 10.64751
136 46 1 0.4238 8.433761 10.22769 39.784122
137 46 2 -0.8476 9.366131 10.36753 40.117485
138 46 1 0.4238 9.85969 10.965591 39.48604
139 47 1 0.4238 1.502639 10.322341 6.162818
140 47 2 -0.8476 1.500071 9.324374 6.099136
141 47 1 0.4238 2.442009 8.98894 6.083741
142 48 1 0.4238 1.50103 13.0378 9.602776
143 48 2 -0.8476 1.767519 12.959515 8.642122
144 48 1 0.4238 1.501104 12.060521 8.294513
145 49 1 0.4238 47.761626 46.20295 11.256813
146 49 2 -0.8476 47.188828 46.963147 10.950214
147 49 1 0.4238 47.762781 47.762668 10.773176
148 50 1 0.4238 6.69123 47.761753 39.28398
149 50 2 -0.8476 7.11617 47.749689 40.189121
150 50 1 0.4238 6.404565 47.76143 40.891602
151 51 1 0.4238 38.376613 13.737112 12.525651
152 51 2 -0.8476 38.958205 14.23255 11.880444
153 51 1 0.4238 39.665921 13.618806 11.530505
154 52 1 0.4238 1.5 4.652854 42.621674
155 52 2 -0.8476 2.444472 4.7279 42.941583
156 52 1 0.4238 2.706174 5.692086 42.984671
157 53 1 0.4238 6.972558 31.17005 41.324036
158 53 2 -0.8476 7.43853 32.054804 41.333032
159 53 1 0.4238 7.637948 32.336051 40.394346
160 54 1 0.4238 22.487486 7.171632 47.762445
161 54 2 -0.8476 23.061187 6.378022 47.559833
162 54 1 0.4238 23.305075 6.381926 46.590037
163 55 1 0.4238 14.840659 32.066346 12.025092
164 55 2 -0.8476 14.701183 31.095176 11.831765
165 55 1 0.4238 13.727541 30.921146 11.684339
166 56 1 0.4238 15.534004 40.814605 17.654906
167 56 2 -0.8476 15.744656 41.319175 18.492185
168 56 1 0.4238 16.334398 42.096571 18.273419
169 57 1 0.4238 46.970965 42.111229 38.213277
170 57 2 -0.8476 47.762321 42.579509 38.606302
171 57 1 0.4238 47.508112 43.515048 38.851547
172 58 1 0.4238 1.501838 21.355822 11.416791
173 58 2 -0.8476 1.900639 22.263666 11.54632
174 58 1 0.4238 1.500551 22.900588 10.887337
175 59 1 0.4238 4.523242 14.395457 40.150694
176 59 2 -0.8476 5.521212 14.337838 40.123559
177 59 1 0.4238 5.831881 13.633384 40.761704
178 60 1 0.4238 3.559695 40.993284 1.506833
179 60 2 -0.8476 2.879446 40.260303 1.507923
180 60 1 0.4238 1.961665 40.657309 1.500004
181 61 1 0.4238 46.018386 6.50557 33.575014
182 61 2 -0.8476 45.289817 6.720562 34.225373
183 61 1 0.4238 45.19975 5.973462 34.883953
184 62 1 0.4238 42.303556 14.158899 10.972359
185 62 2 -0.8476 41.947845 15.086733 11.084586
186 62 1 0.4238 42.534405 15.730316 10.592909
187 63 1 0.4238 27.153042 5.662037 43.547879
188 63 2 -0.8476 27.62403 5.14768 44.264543
189 63 1 0.4238 28.088517 5.783651 44.880816
190 64 1 0.4238 12.539123 1.504854 43.656092
191 64 2 -0.8476 11.659072 1.962607 43.78247
192 64 1 0.4238 10.961646 1.501354 43.233979
193 65 1 0.4238 44.146493 6.817873 18.803151
194 65 2 -0.8476 43.523218 7.494709 19.194842
195 65 1 0.4238 43.754734 8.402603 18.845373
196 66 1 0.4238 27.196492 4.360243 4.675491
197 66 2 -0.8476 26.295863 4.243559 4.256859
198 66 1 0.4238 26.00914 5.10488 3.837437
199 67 1 0.4238 8.164051 35.816375 20.363381
200 67 2 -0.8476 8.546543 36.716888 20.570202
201 67 1 0.4238 8.216796 37.381155 19.89937
202 68 1 0.4238 45.092874 31.196789 6.493418
203 68 2 -0.8476 44.248794 31.161356 7.028463
204 68 1 0.4238 43.957502 32.091154 7.253463
205 69 1 0.4238 2.365979 36.593539 47.762427
206 69 2 -0.8476 1.500292 37.093502 47.737471
207 69 1 0.4238 1.683036 38.076662 47.738734
208 70 1 0.4238 37.666885 28.328346 14.750095
209 70 2 -0.8476 38.185971 29.153197 14.974083
210 70 1 0.4238 39.143933 28.912173 15.1297
211 71 1 0.4238 6.04242 25.692065 15.178859
212 71 2 -0.8476 5.808215 24.753171 14.926617
213 71 1 0.4238 5.767516 24.187114 15.749977
214 72 1 0.4238 19.073483 33.148257 5.122836
215 72 2 -0.8476 18.427734 33.146789 4.359288
216 72 1 0.4238 18.045253 34.06359 4.244466
217 73 1 0.4238 37.073318 25.047637 36.825486
218 73 2 -0.8476 37.858235 25.66706 36.84034
219 73 1 0.4238 38.147215 25.816297 37.785972
220 74 1 0.4238 27.091877 40.044065 47.761459
221 74 2 -0.8476 27.709101 39.281076 47.569409
222 74 1 0.4238 27.674616 39.061754 46.594366
223 75 1 0.4238 21.711834 25.901238 23.652651
224 75 2 -0.8476 21.208658 26.738187 23.867897
225 75 1 0.4238 20.249754 26.514913 24.042974
226 76 1 0.4238 2.291045 47.504756 9.667583
227 76 2 -0.8476 3.126103 47.762443 10.153666
228 76 1 0.4238 3.619134 46.937403 10.429761
229 77 1 0.4238 28.499496 34.639713 15.378698
230 77 2 -0.8476 28.090982 35.136853 14.613213
231 77 1 0.4238 27.86034 34.493606 13.883119
232 78 1 0.4238 45.854609 34.668779 6.655559
233 78 2 -0.8476 46.154878 33.732846 6.471523
234 78 1 0.4238 47.127478 33.734462 6.239047
235 79 1 0.4238 37.5154 6.89155 7.425151
236 79 2 -0.8476 36.527031 7.027344 7.356693
237 79 1 0.4238 36.198212 7.500605 8.173946
238 80 1 0.4238 6.927906 15.106402 21.922437
239 80 2 -0.8476 7.387354 14.458384 22.529875
240 80 1 0.4238 6.711093 13.840396 22.930825
241 81 1 0.4238 31.1668 8.432789 16.525576
242 81 2 -0.8476 30.920537 9.401969 16.532187
243 81 1 0.4238 29.924691 9.492798 16.538674
244 82 1 0.4238 14.611166 8.145326 32.649571
245 82 2 -0.8476 14.415138 9.029038 32.224569
246 82 1 0.4238 15.021712 9.725319 32.608316
247 83 1 0.4238 22.761141 32.280755 14.683842
248 83 2 -0.8476 22.620612 33.201958 15.046661
249 83 1 0.4238 21.921962 33.175607 15.761638
250 84 1 0.4238 39.967388 42.288579 26.355186
251 84 2 -0.8476 39.174843 41.83668 25.945724
252 84 1 0.4238 39.121529 40.894035 26.275233
253 85 1 0.4238 8.772742 42.371777 24.462889
254 85 2 -0.8476 8.659566 43.072794 25.166996
255 85 1 0.4238 7.944784 43.713781 24.887315
256 86 1 0.4238 1.501487 43.147312 36.209803
257 86 2 -0.8476 1.501386 42.519636 36.988277
258 86 1 0.4238 1.510138 43.044349 37.839511
259 87 1 0.4238 1.500653 40.183321 31.119224
260 87 2 -0.8476 2.044329 40.968689 30.823229
261 87 1 0.4238 1.500744 41.803228 30.913007
262 88 1 0.4238 18.465967 28.447564 46.497473
263 88 2 -0.8476 18.884275 29.161279 45.935664
264 88 1 0.4238 18.167349 29.71204 45.508255
265 89 1 0.4238 9.887839 40.741107 45.238811
266 89 2 -0.8476 9.404567 41.61491 45.18481
267 89 1 0.4238 8.428892 41.447966 45.042722
268 90 1 0.4238 6.443455 22.538374 13.425723
269 90 2 -0.8476 6.323535 21.571355 13.65043
270 90 1 0.4238 6.8812 21.014481 13.034881
271 91 1 0.4238 47.761263 23.0426 33.100758
272 91 2 -0.8476 47.253375 23.159561 33.954204
273 91 1 0.4238 47.761461 23.768119 34.563717
274 92 1 0.4238 24.938721 42.969519 45.210991
275 92 2 -0.8476 24.153065 42.439624 44.891684
276 92 1 0.4238 23.664561 42.957892 44.189714
277 93 1 0.4238 30.490848 23.890849 28.739635
278 93 2 -0.8476 29.819536 24.584821 28.479361
279 93 1 0.4238 30.190441 25.494319 28.667091
280 94 1 0.4238 23.205636 37.56985 33.197863
281 94 2 -0.8476 23.253328 37.524431 34.195692
282 94 1 0.4238 22.355534 37.279141 34.561477
283 95 1 0.4238 1.500925 20.193295 47.762659
284 95 2 -0.8476 1.941834 21.09084 47.759246
285 95 1 0.4238 2.935018 20.974323 47.762387
286 96 1 0.4238 33.489726 47.012812 39.668024
287 96 2 -0.8476 32.846315 47.746023 39.447967
288 96 1 0.4238 32.112081 47.76002 40.126718
289 97 1 0.4238 45.567488 34.445646 19.390079
290 97 2 -0.8476 45.786202 35.419252 19.324833
291 97 1 0.4238 44.939117 35.949317 19.286392
292 98 1 0.4238 3.634722 33.218087 30.069705
293 98 2 -0.8476 3.295727 32.446017 30.607284
294 98 1 0.4238 2.513373 32.03313 30.140972
295 99 1 0.4238 45.515861 18.792367 35.213689
296 99 2 -0.8476 44.773516 18.728712 34.546702
297 99 1 0.4238 44.047756 18.144799 34.910458
298 100 1 0.4238 39.738783 1.500199 30.925255
299 100 2 -0.8476 40.063421 2.337144 30.48465
300 100 1 0.4238 40.081784 3.080357 31.153453
301 101 1 0.4238 11.369437 43.706441 13.48932
302 101 2 -0.8476 10.940565 44.591231 13.307071
303 101 1 0.4238 11.644393 45.300321 13.26444
304 102 1 0.4238 5.154256 35.040789 31.4589
305 102 2 -0.8476 4.299344 35.538052 31.606736
306 102 1 0.4238 4.503092 36.486719 31.848642
307 103 1 0.4238 9.657964 28.628003 45.47382
308 103 2 -0.8476 9.186131 29.029828 46.25862
309 103 1 0.4238 8.917028 28.304905 46.89271
310 104 1 0.4238 36.530331 34.734382 34.812193
311 104 2 -0.8476 35.675106 34.516157 35.282266
312 104 1 0.4238 35.486146 33.538189 35.193542
313 105 1 0.4238 15.71264 9.557172 41.016957
314 105 2 -0.8476 14.854234 9.265032 41.438614
315 105 1 0.4238 15.051747 8.71103 42.247359
316 106 1 0.4238 23.665573 3.45053 20.284613
317 106 2 -0.8476 23.634518 3.934668 21.159053
318 106 1 0.4238 22.786659 4.461557 21.2184
319 107 1 0.4238 42.834688 34.51761 12.607082
320 107 2 -0.8476 43.783446 34.718451 12.851051
321 107 1 0.4238 44.311785 33.869482 12.861523
322 108 1 0.4238 4.675947 32.32701 12.688827
323 108 2 -0.8476 4.769346 33.219745 12.248031
324 108 1 0.4238 4.518002 33.939132 12.895571
325 109 1 0.4238 18.644357 21.271226 1.537218
326 109 2 -0.8476 19.323489 20.53748 1.51731
327 109 1 0.4238 20.241633 20.933435 1.502119
328 110 1 0.4238 21.961506 39.947994 33.795549
329 110 2 -0.8476 21.115729 40.130745 34.296812
330 110 1 0.4238 21.110993 41.081343 34.607198
331 111 1 0.4238 47.762145 17.398209 35.926047
332 111 2 -0.8476 47.383994 17.076011 36.793913
333 111 1 0.4238 47.569857 17.74978 37.509098
334 112 1 0.4238 47.761846 9.789748 28.468621
335 112 2 -0.8476 47.188474 8.973806 28.542658
336 112 1 0.4238 47.761076 8.15678 28.474867
337 113 1 0.4238 17.575504 10.104926 35.837877
338 113 2 -0.8476 16.92228 9.549589 35.323193
339 113 1 0.4238 17.145925 9.588909 34.349316
340 114 1 0.4238 33.79458 5.57866 1.541584
341 114 2 -0.8476 34.212366 4.681607 1.685636
342 114 1 0.4238 35.193468 4.737212 1.500307
343 115 1 0.4238 32.975093 9.250719 8.545917
344 115 2 -0.8476 33.6668 8.533122 8.464703
345 115 1 0.4238 33.217079 7.642026 8.403883
346 116 1 0.4238 5.137818 17.388365 19.933028
347 116 2 -0.8476 5.100531 16.477967 20.345078
348 116 1 0.4238 4.347064 15.959632 19.940585
349 117 1 0.4238 42.011395 14.33369 33.323485
350 117 2 -0.8476 41.018271 14.285813 33.430315
351 117 1 0.4238 40.646363 13.612556 32.791246
352 118 1 0.4238 9.003666 19.233905 26.202648
353 118 2 -0.8476 9.267411 18.294846 26.423121
354 118 1 0.4238 8.457294 17.708778 26.407813
355 119 1 0.4238 32.109902 22.42615 34.775054
356 119 2 -0.8476 31.308816 21.968147 34.389705
357 119 1 0.4238 31.502115 20.992939 34.281974
358 120 1 0.4238 29.01217 10.279151 42.842917
359 120 2 -0.8476 28.787018 11.206285 43.142467
360 120 1 0.4238 28.405759 11.174691 44.066395
361 121 1 0.4238 44.313642 39.132744 12.532806
362 121 2 -0.8476 44.400661 38.544009 11.729178
363 121 1 0.4238 45.215831 38.804512 11.211843
364 122 1 0.4238 41.682043 39.373325 26.345727
365 122 2 -0.8476 41.772266 40.265139 25.902414
366 122 1 0.4238 42.736971 40.44628 25.711283
367 123 1 0.4238 44.754582 47.539598 9.826291
368 123 2 -0.8476 44.004337 47.762748 10.448655
369 123 1 0.4238 44.339864 47.757217 11.390669
370 124 1 0.4238 25.194812 23.637674 10.75777
371 124 2 -0.8476 24.748293 23.215039 9.9691
372 124 1 0.4238 24.623127 23.89928 9.250666
373 125 1 0.4238 43.500142 45.31359 26.731181
374 125 2 -0.8476 42.864705 45.724089 27.385176
375 125 1 0.4238 42.640245 45.056952 28.09549
376 126 1 0.4238 42.92 18.511099 6.216962
377 126 2 -0.8476 43.364127 19.406236 6.25546
378 126 1 0.4238 43.950127 19.453056 7.064417
379 127 1 0.4238 4.05351 38.063795 21.099743
380 127 2 -0.8476 4.152319 37.185967 21.568417
381 127 1 0.4238 3.978024 37.308303 22.545481
382 128 1 0.4238 9.999262 45.863723 38.755764
383 128 2 -0.8476 9.298175 45.222504 39.067719
384 128 1 0.4238 8.396769 45.647155 38.98323
385 129 1 0.4238 19.733853 1.510013 28.961071
386 129 2 -0.8476 20.683498 1.500087 28.647901
387 129 1 0.4238 20.708651 1.623991 27.655926
388 130 1 0.4238 35.308472 7.319773 19.430774
389 130 2 -0.8476 35.53301 6.345317 19.426526
390 130 1 0.4238 36.520201 6.231225 19.315008
391 131 1 0.4238 45.505289 4.674001 23.966635
392 131 2 -0.8476 45.101756 3.762301 23.88941
393 131 1 0.4238 45.801039 3.071591 24.073591
394 132 1 0.4238 17.685835 20.247845 31.493498
395 132 2 -0.8476 16.724977 19.986898 31.400444
396 132 1 0.4238 16.664244 19.016369 31.16724
397 133 1 0.4238 42.195642 9.35005 23.371607
398 133 2 -0.8476 42.924915 10.02703 23.272321
399 133 1 0.4238 42.524362 10.940641 23.202524
400 134 1 0.4238 6.849414 37.65609 38.834288
401 134 2 -0.8476 7.061011 36.678734 38.832874
402 134 1 0.4238 8.053007 36.552467 38.831852
403 135 1 0.4238 20.545058 19.595786 47.762248
404 135 2 -0.8476 19.784117 19.957035 47.223297
405 135 1 0.4238 18.942274 19.908368 47.760821
406 136 1 0.4238 32.902154 13.066201 35.104992
407 136 2 -0.8476 32.894589 13.963848 35.545641
408 136 1 0.4238 33.78072 14.130324 35.978141
409 137 1 0.4238 36.004192 30.434913 43.118888
410 137 2 -0.8476 36.107245 29.903749 43.959867
411 137 1 0.4238 36.421545 28.981408 43.735139
412 138 1 0.4238 11.15931 2.435301 6.411569
413 138 2 -0.8476 10.862793 1.500108 6.605197
414 138 1 0.4238 9.939064 1.515821 6.98792
415 139 1 0.4238 3.122288 31.97277 1.801217
416 139 2 -0.8476 2.171862 32.050672 1.500183
417 139 1 0.4238 1.732255 31.153799 1.548795
418 140 1 0.4238 1.502373 7.164515 27.168653
419 140 2 -0.8476 2.455588 7.456065 27.248531
420 140 1 0.4238 3.018748 6.680173 27.532859
421 141 1 0.4238 4.157238 21.529755 24.953976
422 141 2 -0.8476 4.964837 20.965852 25.126594
423 141 1 0.4238 5.709283 21.543459 25.461514
424 142 1 0.4238 3.65359 13.688579 2.67131
425 142 2 -0.8476 4.0901 14.584949 2.74864
426 142 1 0.4238 4.176412 14.83149 3.71392
427 143 1 0.4238 32.802569 45.340377 8.604179
428 143 2 -0.8476 31.900813 45.550056 8.226197
429 143 1 0.4238 31.822908 46.535798 8.077055
430 144 1 0.4238 45.698246 5.782079 38.091315
431 144 2 -0.8476 45.135295 5.186784 37.517982
432 144 1 0.4238 45.705565 4.464593 37.126534
433 145 1 0.4238 16.594737 30.692803 42.32229
434 145 2 -0.8476 17.200378 30.666821 43.117605
435 145 1 0.4238 17.141214 31.535111 43.61012
436 146 1 0.4238 37.8728 22.006769 7.554232
437 146 2 -0.8476 38.333209 21.148485 7.327579
438 146 1 0.4238 37.698175 20.547724 6.84197
439 147 1 0.4238 2.420632 22.925172 40.729975
440 147 2 -0.8476 1.59166 23.244851 41.188898
441 147 1 0.4238 1.502741 24.233284 41.066046
442 148 1 0.4238 14.347977 3.985012 46.022813
443 148 2 -0.8476 15.332507 4.123348 45.91528
444 148 1 0.4238 15.650067 4.793905 46.585733
445 149 1 0.4238 6.580823 31.436528 29.305727
446 149 2 -0.8476 5.914563 31.675367 30.012165
447 149 1 0.4238 5.543975 30.839479 30.41708
448 150 1 0.4238 30.493646 37.565513 15.309132
449 150 2 -0.8476 30.801061 37.309832 14.392549
450 150 1 0.4238 30.03028 36.940529 13.873404
451 151 1 0.4238 19.391396 44.422575 10.45849
452 151 2 -0.8476 20.279358 44.79594 10.189934
453 151 1 0.4238 20.433284 44.622864 9.217128
454 152 1 0.4238 19.130332 14.26933 15.012021
455 152 2 -0.8476 18.4676 14.995312 14.828346
456 152 1 0.4238 17.6031 14.590033 14.531045
457 153 1 0.4238 36.030434 7.5327 41.504255
458 153 2 -0.8476 36.490659 7.51853 42.391944
459 153 1 0.4238 37.444787 7.245808 42.268405
460 154 1 0.4238 14.520088 21.775749 41.085334
461 154 2 -0.8476 15.189408 22.103748 40.418679
462 154 1 0.4238 15.251086 21.454068 39.660978
463 155 1 0.4238 37.356718 5.765012 47.738131
464 155 2 -0.8476 36.40012 6.056422 47.73707
465 155 1 0.4238 36.352788 7.044304 47.589261
466 156 1 0.4238 20.094508 20.710433 4.178992
467 156 2 -0.8476 20.321146 21.680239 4.088924
468 156 1 0.4238 21.314269 21.794295 4.11533
469 157 1 0.4238 34.880632 39.5438 21.500514
470 157 2 -0.8476 35.132782 40.259685 20.849417
471 157 1 0.4238 34.308384 40.614756 20.40863
472 158 1 0.4238 42.495602 43.17161 1.52629
473 158 2 -0.8476 43.389612 42.724 1.546059
474 158 1 0.4238 44.109967 43.416084 1.500155
475 159 1 0.4238 38.310971 37.947416 19.381058
476 159 2 -0.8476 37.731674 37.825078 20.186941
477 159 1 0.4238 36.850825 38.273578 20.035441
478 160 1 0.4238 7.924266 31.424226 35.298118
479 160 2 -0.8476 7.277611 32.16971 35.136593
480 160 1 0.4238 6.368671 31.790725 34.962813
481 161 1 0.4238 19.2776 15.001811 33.049435
482 161 2 -0.8476 18.878944 14.52294 33.831583
483 161 1 0.4238 18.162021 13.902969 33.512745
484 162 1 0.4238 3.799817 34.641217 5.818902
485 162 2 -0.8476 4.125942 35.586468 5.830835
486 162 1 0.4238 5.003351 35.630337 6.308567
487 163 1 0.4238 21.821416 45.134236 18.258229
488 163 2 -0.8476 20.827651 45.023584 18.271875
489 163 1 0.4238 20.485229 45.200407 19.194632
490 164 1 0.4238 23.425465 28.340028 37.128806
491 164 2 -0.8476 22.708273 28.070728 37.771545
492 164 1 0.4238 22.008032 28.783728 37.807512
493 165 1 0.4238 18.898217 44.419731 40.539169
494 165 2 -0.8476 19.791135 44.849974 40.406545
495 165 1 0.4238 19.901412 45.099231 39.444407
496 166 1 0.4238 32.459619 33.402529 41.162306
497 166 2 -0.8476 31.632087 33.266692 40.617569
498 166 1 0.4238 31.698557 33.797115 39.772446
499 167 1 0.4238 27.254035 22.715401 37.235173
500 167 2 -0.8476 27.437836 23.690996 37.355299
501 167 1 0.4238 27.196622 24.181221 36.517746
502 168 1 0.4238 27.880405 20.889442 16.209267
503 168 2 -0.8476 27.904252 20.780745 17.203056
504 168 1 0.4238 28.458822 19.982411 17.437825
505 169 1 0.4238 36.951314 33.515764 37.520374
506 169 2 -0.8476 37.801344 33.241255 37.969923
507 169 1 0.4238 37.882611 33.714867 38.8469
508 170 1 0.4238 39.017568 38.243545 47.762282
509 170 2 -0.8476 40.000312 38.058579 47.76105
510 170 1 0.4238 40.502259 38.923472 47.757804
511 171 1 0.4238 21.264014 23.796793 45.49866
512 171 2 -0.8476 22.244974 23.873003 45.677293
513 171 1 0.4238 22.45377 24.795048 46.003233
514 172 1 0.4238 23.986329 40.012709 20.763903
515 172 2 -0.8476 23.15763 39.45966 20.849897
516 172 1 0.4238 22.491617 39.943252 21.417844
517 173 1 0.4238 14.104941 27.124487 37.176304
518 173 2 -0.8476 14.408887 27.475816 38.061846
519 173 1 0.4238 13.772426 27.179858 38.774113
520 174 1 0.4238 22.667201 36.369413 28.267424
521 174 2 -0.8476 23.635171 36.555585 28.098977
522 174 1 0.4238 23.995203 35.886112 27.449221
523 175 1 0.4238 3.986608 17.785829 25.214167
524 175 2 -0.8476 3.997551 16.792617 25.098362
525 175 1 0.4238 3.214045 16.5131 24.543396
526 176 1 0.4238 28.227439 20.529144 34.224229
527 176 2 -0.8476 28.097151 19.730436 33.636785
528 176 1 0.4238 28.975164 19.460711 33.241384
529 177 1 0.4238 45.935849 1.502258 42.309601
530 177 2 -0.8476 45.128801 1.798068 42.820648
531 177 1 0.4238 45.015732 2.786748 42.722025
532 178 1 0.4238 31.28086 47.755906 28.754756
533 178 2 -0.8476 32.254416 47.758181 28.52632
534 178 1 0.4238 32.363538 47.761379 27.532297
535 179 1 0.4238 6.000145 45.376555 23.572599
536 179 2 -0.8476 5.609204 45.097085 24.449561
537 179 1 0.4238 4.611457 45.090615 24.38279
538 180 1 0.4238 13.658375 33.929452 19.249129
539 180 2 -0.8476 12.74262 33.745971 19.60652
540 180 1 0.4238 12.225752 34.600741 19.653587
541 181 1 0.4238 30.504367 3.949575 13.058799
542 181 2 -0.8476 31.032465 3.45166 13.746689
543 181 1 0.4238 32.007808 3.620722 13.604827
544 182 1 0.4238 43.76663 21.754098 21.178936
545 182 2 -0.8476 43.799708 21.116995 21.949004
546 182 1 0.4238 43.625492 21.612987 22.799674
547 183 1 0.4238 25.07722 37.680254 25.668781
548 183 2 -0.8476 24.556897 38.335351 26.216605
549 183 1 0.4238 24.915017 39.256428 26.063739
550 184 1 0.4238 40.869794 36.024003 29.881135
551 184 2 -0.8476 41.032601 35.402285 29.115002
552 184 1 0.4238 40.669148 34.497497 29.336944
553 185 1 0.4238 12.652631 22.180064 46.601454
554 185 2 -0.8476 12.464205 21.545552 45.851861
555 185 1 0.4238 11.589205 21.780288 45.428454
556 186 1 0.4238 33.789228 33.731901 26.842196
557 186 2 -0.8476 33.097679 33.661541 27.56109
558 186 1 0.4238 32.186304 33.681831 27.150014
559 187 1 0.4238 47.761353 40.860285 43.557358
560 187 2 -0.8476 47.432932 39.979298 43.216769
561 187 1 0.4238 46.435313 39.948921 43.278687
562 188 1 0.4238 47.758187 20.938981 16.315556
563 188 2 -0.8476 47.762722 20.147561 15.704301
564 188 1 0.4238 46.904883 20.117743 15.191249
565 189 1 0.4238 47.73238 9.676868 46.233207
566 189 2 -0.8476 47.762786 8.991751 46.961005
567 189 1 0.4238 47.273667 9.335225 47.762746
568 190 1 0.4238 47.761971 10.01056 12.220817
569 190 2 -0.8476 47.207228 9.469688 11.588586
570 190 1 0.4238 47.762123 8.730516 11.206858
571 191 1 0.4238 8.440855 22.20535 21.85029
572 191 2 -0.8476 9.229895 22.808753 21.734866
573 191 1 0.4238 10.044528 22.367997 22.111836
574 192 1 0.4238 38.733829 9.570125 8.942028
575 192 2 -0.8476 38.722458 9.176827 9.861369
576 192 1 0.4238 38.225715 8.309056 9.846546
577 193 1 0.4238 39.227691 30.426108 1.500001
578 193 2 -0.8476 39.839361 30.487546 2.288724
579 193 1 0.4238 40.092115 31.443038 2.440878
580 194 1 0.4238 35.865902 12.283284 35.908257
581 194 2 -0.8476 36.534718 13.003005 35.722014
582 194 1 0.4238 36.450903 13.722428 36.411511
583 195 1 0.4238 1.500644 4.48355 28.065616
584 195 2 -0.8476 1.500228 3.805052 28.800218
585 195 1 0.4238 1.500648 4.271494 29.684769
586 196 1 0.4238 37.404069 12.122874 22.274268
587 196 2 -0.8476 37.554289 13.051482 22.613564
588 196 1 0.4238 38.319841 13.051501 23.256938
589 197 1 0.4238 30.535852 6.222138 38.595799
590 197 2 -0.8476 30.013229 5.534423 39.099697
591 197 1 0.4238 29.54262 4.933797 38.453342
592 198 1 0.4238 16.425479 6.040077 35.748076
593 198 2 -0.8476 16.430286 6.841154 35.149535
594 198 1 0.4238 15.502831 7.207763 35.075874
595 199 1 0.4238 24.019308 12.567081 26.975801
596 199 2 -0.8476 23.937005 12.361713 27.951019
597 199 1 0.4238 23.423405 11.512047 28.070529
598 200 1 0.4238 40.560142 4.500073 17.553864
599 200 2 -0.8476 39.850269 3.806239 17.675008
600 200 1 0.4238 39.439362 3.904504 18.581374
601 201 1 0.4238 30.816598 10.231137 23.951933
602 201 2 -0.8476 30.515996 10.606628 24.828657
603 201 1 0.4238 31.009486 11.45638 25.014101
604 202 1 0.4238 1.500532 17.037413 36.14659
605 202 2 -0.8476 2.283477 17.218878 36.741626
606 202 1 0.4238 1.959229 17.434129 37.662782
607 203 1 0.4238 21.030344 46.791523 29.060825
608 203 2 -0.8476 20.710784 47.739089 29.0609
609 203 1 0.4238 19.732306 47.760877 28.855699
610 204 1 0.4238 39.170741 14.485288 5.642692
611 204 2 -0.8476 39.814527 14.075805 4.996269
612 204 1 0.4238 39.650257 14.446562 4.082183
613 205 1 0.4238 30.469969 17.662979 25.939348
614 205 2 -0.8476 30.947979 17.420245 26.783496
615 205 1 0.4238 31.709689 18.051707 26.928595
616 206 1 0.4238 47.761774 12.223447 22.23592
617 206 2 -0.8476 47.316611 12.517222 21.390032
618 206 1 0.4238 47.76178 12.078584 20.609377
619 207 1 0.4238 7.303865 1.509892 38.028037
620 207 2 -0.8476 8.241412 1.80321 37.841034
621 207 1 0.4238 8.252822 2.786189 37.657669
622 208 1 0.4238 38.088143 41.136687 36.114229
623 208 2 -0.8476 38.054917 41.788026 36.872288
624 208 1 0.4238 37.140383 41.782367 37.276757
625 209 1 0.4238 28.747994 16.157093 7.265719
626 209 2 -0.8476 29.539925 15.615141 6.984412
627 209 1 0.4238 29.26878 14.978734 6.262286
628 210 1 0.4238 14.570276 13.989054 25.21833
629 210 2 -0.8476 13.574118 13.901523 25.221288
630 210 1 0.4238 13.213912 14.222551 26.097183
631 211 1 0.4238 10.831316 5.287382 47.751952
632 211 2 -0.8476 10.781549 4.288679 47.762674
633 211 1 0.4238 11.70615 3.908587 47.737309
634 212 1 0.4238 26.802091 32.207896 41.844701
635 212 2 -0.8476 27.241234 31.364194 42.153439
636 212 1 0.4238 26.985027 31.183245 43.102973
637 213 1 0.4238 1.500347 46.823758 13.983139
638 213 2 -0.8476 1.758679 47.76276 13.756112
639 213 1 0.4238 2.405046 47.755428 12.99312
640 214 1 0.4238 3.51663 47.762273 47.528689
641 214 2 -0.8476 3.535315 47.571887 46.547158
642 214 1 0.4238 4.448972 47.762304 46.188031
643 215 1 0.4238 24.915461 42.933936 38.793037
644 215 2 -0.8476 24.652138 43.427688 37.964261
645 215 1 0.4238 25.45005 43.531681 37.370525
646 216 1 0.4238 13.09372 22.107682 37.92348
647 216 2 -0.8476 12.770546 22.317693 38.846223
648 216 1 0.4238 13.061886 23.240166 39.099529
649 217 1 0.4238 24.722205 11.447398 20.881781
650 217 2 -0.8476 25.220041 12.012486 21.539683
651 217 1 0.4238 24.639043 12.189202 22.334171
652 218 1 0.4238 32.906299 40.91858 30.229484
653 218 2 -0.8476 32.56841 41.852773 30.344001
654 218 1 0.4238 31.576095 41.835633 30.466545
655 219 1 0.4238 20.895634 28.652974 47.762754
656 219 2 -0.8476 21.092718 29.627309 47.653986
657 219 1 0.4238 22.075012 29.782435 47.759028
658 220 1 0.4238 45.891182 21.420402 44.304915
659 220 2 -0.8476 46.35423 22.24627 44.626674
660 220 1 0.4238 47.284377 22.016698 44.913243
661 221 1 0.4238 44.866529 14.044366 3.727293
662 221 2 -0.8476 43.943817 13.666215 3.65243
663 221 1 0.4238 43.276048 14.361616 3.917952
664 222 1 0.4238 20.623598 20.21952 19.427691
665 222 2 -0.8476 21.101104 19.376831 19.178968
666 222 1 0.4238 20.512246 18.820735 18.592451
667 223 1 0.4238 3.405763 28.123853 40.918394
668 223 2 -0.8476 3.155318 27.164149 40.790933
669 223 1 0.4238 2.267416 26.991895 41.217496
670 224 1 0.4238 13.933046 18.388161 38.449515
671 224 2 -0.8476 13.260308 18.550242 37.727605
672 224 1 0.4238 12.743044 19.380713 37.934381
673 225 1 0.4238 16.839895 18.097871 42.681853
674 225 2 -0.8476 17.710936 17.63172 42.836738
675 225 1 0.4238 18.438548 18.310114 42.93854
676 226 1 0.4238 39.754818 47.430291 10.677371
677 226 2 -0.8476 40.656172 47.76264 10.955051
678 226 1 0.4238 41.269772 47.761146 10.165436
679 227 1 0.4238 4.917898 11.761283 35.680518
680 227 2 -0.8476 4.090336 11.951253 35.152264
681 227 1 0.4238 4.296139 12.622674 34.440338
682 228 1 0.4238 14.078798 15.58663 31.309998
683 228 2 -0.8476 13.265823 15.013144 31.410917
684 228 1 0.4238 13.339455 14.22095 30.805106
685 229 1 0.4238 21.932706 35.817901 46.930935
686 229 2 -0.8476 21.738468 35.297644 47.762562
687 229 1 0.4238 20.789839 34.981786 47.744195
688 230 1 0.4238 47.761752 46.718135 31.742489
689 230 2 -0.8476 47.752079 47.11648 32.659673
690 230 1 0.4238 47.761765 46.384608 33.341046
691 231 1 0.4238 11.094704 11.447543 19.891071
692 231 2 -0.8476 11.939585 11.75133 20.331399
693 231 1 0.4238 12.710912 11.599027 19.713453
694 232 1 0.4238 10.175401 17.5617 12.751591
695 232 2 -0.8476 10.203046 17.273691 11.794362
696 232 1 0.4238 9.807558 16.359111 11.709911
697 233 1 0.4238 44.937493 25.338382 13.270488
698 233 2 -0.8476 45.623074 24.923184 12.672501
699 233 1 0.4238 45.214443 24.154591 12.180275
700 234 1 0.4238 35.989293 12.511261 19.539886
701 234 2 -0.8476 35.621757 12.374043 18.620054
702 234 1 0.4238 36.131247 12.937836 17.97001
703 235 1 0.4238 15.402485 12.861303 8.57877
704 235 2 -0.8476 14.601737 12.708201 9.157876
705 235 1 0.4238 14.706482 11.843867 9.649765
706 236 1 0.4238 18.46865 3.085278 31.088911
707 236 2 -0.8476 18.358483 2.424747 31.831583
708 236 1 0.4238 18.504784 1.500178 31.479778
709 237 1 0.4238 17.914144 39.306964 40.6778
710 237 2 -0.8476 18.719284 39.107567 41.23636
711 237 1 0.4238 18.97974 39.925342 41.749592
712 238 1 0.4238 15.806525 4.582601 22.578743
713 238 2 -0.8476 15.404797 3.981122 23.269278
714 238 1 0.4238 16.132507 3.578035 23.824218
715 239 1 0.4238 29.052458 38.623218 30.721188
716 239 2 -0.8476 29.895951 38.750786 31.242959
717 239 1 0.4238 30.53762 39.302031 30.709677
718 240 1 0.4238 22.014438 36.617052 1.500526
719 240 2 -0.8476 22.075009 36.003882 2.288152
720 240 1 0.4238 22.751129 35.290485 2.103961
721 241 1 0.4238 35.681699 1.500495 34.539483
722 241 2 -0.8476 35.20764 1.649909 35.407206
723 241 1 0.4238 34.97751 2.618751 35.498778
724 242 1 0.4238 17.424812 31.016398 12.202987
725 242 2 -0.8476 17.508632 31.023364 11.20653
726 242 1 0.4238 17.329829 31.94549 10.863438
727 243 1 0.4238 7.095519 1.501175 45.118091
728 243 2 -0.8476 6.278508 2.077687 45.106839
729 243 1 0.4238 6.541538 3.031438 45.25235
730 244 1 0.4238 5.701948 30.604854 17.955419
731 244 2 -0.8476 5.11581 30.75098 17.158493
732 244 1 0.4238 4.159994 30.788259 17.450082
733 245 1 0.4238 26.418274 26.494212 28.854776
734 245 2 -0.8476 27.29104 26.42605 28.371419
735 245 1 0.4238 27.125694 26.166994 27.419816
736 246 1 0.4238 25.612563 10.361461 3.926271
737 246 2 -0.8476 24.827244 10.515127 4.525988
738 246 1 0.4238 24.675897 11.497932 4.631759
739 247 1 0.4238 27.981201 6.892805 22.589294
740 247 2 -0.8476 28.760495 7.47112 22.347939
741 247 1 0.4238 29.368837 6.970639 21.731954
742 248 1 0.4238 42.101838 5.325389 26.535313
743 248 2 -0.8476 41.20418 5.308995 26.094925
744 248 1 0.4238 40.999326 6.213933 25.721937
745 249 1 0.4238 5.777227 24.084128 26.51051
746 249 2 -0.8476 6.357526 24.896458 26.568598
747 249 1 0.4238 6.159203 25.387805 27.416682
748 250 1 0.4238 15.396544 25.967703 21.717011
749 250 2 -0.8476 16.373266 26.178099 21.675206
750 250 1 0.4238 16.634557 26.361003 20.727433
751 251 1 0.4238 12.177819 6.404634 21.599374
752 251 2 -0.8476 12.4147 6.472922 22.56851
753 251 1 0.4238 13.018821 5.716126 22.818101
754 252 1 0.4238 12.890251 22.008822 21.028372
755 252 2 -0.8476 13.570543 22.403969 21.645674
756 252 1 0.4238 13.449075 23.395801 21.684596
757 253 1 0.4238 1.505854 25.195263 8.352235
758 253 2 -0.8476 1.500053 25.888492 9.072929
759 253 1 0.4238 1.766941 25.469349 9.940736
760 254 1 0.4238 20.915036 4.162702 11.459846
761 254 2 -0.8476 21.335668 4.164641 12.367076
762 254 1 0.4238 22.331005 4.185675 12.272945
763 255 1 0.4238 14.073971 30.580754 17.172865
764 255 2 -0.8476 13.328356 30.671089 17.833091
765 255 1 0.4238 13.038215 31.626947 17.879489
766 256 1 0.4238 32.880146 28.459996 20.431262
767 256 2 -0.8476 33.87382 28.349447 20.451032
768 256 1 0.4238 34.294088 29.178094 20.820787
769 257 1 0.4238 40.588197 4.183442 28.527126
770 257 2 -0.8476 40.386393 3.378722 27.968824
771 257 1 0.4238 41.161708 2.747955 28.000735
772 258 1 0.4238 27.242348 18.449628 7.075265
773 258 2 -0.8476 26.660078 19.114004 7.543843
774 258 1 0.4238 27.223021 19.863733 7.891695
775 259 1 0.4238 20.589446 1.500183 47.76276
776 259 2 -0.8476 20.411512 2.298608 47.187559
777 259 1 0.4238 20.119355 3.064036 47.760938
778 260 1 0.4238 27.856781 44.967695 47.470019
779 260 2 -0.8476 28.214543 45.861124 47.741663
780 260 1 0.4238 27.468395 46.526569 47.762752
781 261 1 0.4238 1.500383 8.446229 18.435532
782 261 2 -0.8476 1.849444 8.525978 19.369232
783 261 1 0.4238 2.371409 9.374248 19.458625
784 262 1 0.4238 38.892654 43.83927 38.51729
785 262 2 -0.8476 38.422307 43.309625 39.223158
786 262 1 0.4238 39.048206 42.626877 39.600126
787 263 1 0.4238 23.416537 46.752868 21.289199
788 263 2 -0.8476 23.207759 47.691311 21.013994
789 263 1 0.4238 22.237882 47.76239 20.781002
790 264 1 0.4238 24.363952 44.265516 1.509076
791 264 2 -0.8476 23.473963 44.721434 1.501434
792 264 1 0.4238 22.747448 44.034284 1.500563
793 265 1 0.4238 41.73563 18.171711 40.757154
794 265 2 -0.8476 41.366157 18.843249 41.399437
795 265 1 0.4238 40.634324 18.423478 41.936292
796 266 1 0.4238 27.640491 1.502606 1.50003
797 266 2 -0.8476 28.619651 1.558272 1.695344
798 266 1 0.4238 28.945807 2.483814 1.503005
799 267 1 0.4238 29.269432 4.627438 42.087491
800 267 2 -0.8476 30.210202 4.673615 42.423377
801 267 1 0.4238 30.205704 4.716247 43.422457
802 268 1 0.4238 19.829769 16.10091 17.087409
803 268 2 -0.8476 20.687106 15.84623 16.640069
804 268 1 0.4238 21.456609 16.09392 17.228724
805 269 1 0.4238 36.017246 45.186561 3.204715
806 269 2 -0.8476 36.412054 45.297579 4.116747
807 269 1 0.4238 36.524345 44.399909 4.542869
808 270 1 0.4238 9.652506 5.324572 30.858657
809 270 2 -0.8476 8.864455 4.75943 31.102767
810 270 1 0.4238 9.126354 4.114609 31.820831
811 271 1 0.4238 20.025457 3.559106 44.797395
812 271 2 -0.8476 19.064386 3.831036 44.748445
813 271 1 0.4238 18.566599 3.436491 45.520806
814 272 1 0.4238 6.09958 2.778923 23.262673
815 272 2 -0.8476 6.142263 2.485961 24.217843
816 272 1 0.4238 5.910102 1.515236 24.279442
817 273 1 0.4238 24.672671 3.256412 41.035619
818 273 2 -0.8476 24.297315 2.718423 41.790388
819 273 1 0.4238 24.23797 1.758078 41.517964
820 274 1 0.4238 37.913753 41.370696 41.767364
821 274 2 -0.8476 37.799624 40.665418 41.067681
822 274 1 0.4238 38.627053 40.105842 41.020387
823 275 1 0.4238 25.812362 12.447334 13.681272
824 275 2 -0.8476 24.830065 12.413317 13.86549
825 275 1 0.4238 24.644919 11.717089 14.559022
826 276 1 0.4238 33.643807 1.502429 19.240949
827 276 2 -0.8476 32.822474 1.500842 18.670504
828 276 1 0.4238 32.169694 2.170742 19.024216
829 277 1 0.4238 8.016477 1.500184 5.020286
830 277 2 -0.8476 7.570791 2.074176 5.707234
831 277 1 0.4238 7.021981 1.500758 6.315509
832 278 1 0.4238 23.812153 19.383531 47.761514
833 278 2 -0.8476 24.732657 18.992806 47.758939
834 278 1 0.4238 25.407839 19.730433 47.753073
835 279 1 0.4238 32.557864 34.774727 43.624548
836 279 2 -0.8476 33.525169 34.674321 43.857441
837 279 1 0.4238 33.869246 33.81134 43.487475
838 280 1 0.4238 47.66252 38.609649 37.313414
839 280 2 -0.8476 47.630998 39.315957 38.020616
840 280 1 0.4238 46.702761 39.379443 38.387149
841 281 1 0.4238 35.142226 32.333148 5.968298
842 281 2 -0.8476 35.484793 32.844907 5.18042
843 281 1 0.4238 35.922569 33.687223 5.494832
844 282 1 0.4238 23.162372 1.50195 7.409459
845 282 2 -0.8476 22.340035 2.070949 7.407807
846 282 1 0.4238 21.539607 1.500466 7.591824
847 283 1 0.4238 15.138622 28.012896 12.222516
848 283 2 -0.8476 15.938071 28.608714 12.14582
849 283 1 0.4238 16.311676 28.547699 11.220241
850 284 1 0.4238 30.675615 37.018358 24.020268
851 284 2 -0.8476 31.299428 37.757603 24.27399
852 284 1 0.4238 31.109847 38.046375 25.21243
853 285 1 0.4238 47.762762 20.032123 1.500182
854 285 2 -0.8476 46.781195 20.22324 1.500529
855 285 1 0.4238 46.273837 19.361505 1.500613
856 286 1 0.4238 24.009583 33.973993 36.116745
857 286 2 -0.8476 24.745711 34.63884 36.243608
858 286 1 0.4238 25.459487 34.240018 36.819337
859 287 1 0.4238 29.103502 26.542657 38.563693
860 287 2 -0.8476 29.099887 25.561739 38.758083
861 287 1 0.4238 28.796328 25.409454 39.698647
862 288 1 0.4238 44.21902 15.42438 34.547538
863 288 2 -0.8476 45.11686 15.5975 34.952399
864 288 1 0.4238 45.705761 16.044043 34.278757
865 289 1 0.4238 7.708919 6.594116 42.176873
866 289 2 -0.8476 8.591912 6.90889 41.828675
867 289 1 0.4238 9.310052 6.680393 42.48599
868 290 1 0.4238 47.064982 28.403209 38.58526
869 290 2 -0.8476 47.762758 28.962568 38.137792
870 290 1 0.4238 47.761764 28.774067 37.15572
871 291 1 0.4238 10.987044 28.662677 13.95433
872 291 2 -0.8476 11.94538 28.447045 14.141668
873 291 1 0.4238 12.532235 28.979527 13.531699
874 292 1 0.4238 39.198724 33.94319 31.791226
875 292 2 -0.8476 38.920207 33.557608 32.67086
876 292 1 0.4238 38.855811 34.288853 33.349929
877 293 1 0.4238 6.29837 1.500734 47.761469
878 293 2 -0.8476 7.114975 2.077928 47.759625
879 293 1 0.4238 7.931345 1.500404 47.757251
880 294 1 0.4238 46.856553 45.389782 23.130511
881 294 2 -0.8476 47.762651 45.750798 23.351088
882 294 1 0.4238 47.680428 46.705303 23.637721
883 295 1 0.4238 12.440921 30.978876 38.207321
884 295 2 -0.8476 13.032627 30.213289 37.954813
885 295 1 0.4238 13.989492 30.497352 38.015778
886 296 1 0.4238 20.691348 33.525933 20.892811
887 296 2 -0.8476 21.043337 34.421536 20.620783
888 296 1 0.4238 21.794704 34.682493 21.226876
889 297 1 0.4238 34.014613 13.178743 14.204988
890 297 2 -0.8476 34.415529 13.824745 14.854563
891 297 1 0.4238 35.345219 13.535018 15.082018
892 298 1 0.4238 29.853874 42.765873 23.097785
893 298 2 -0.8476 29.097764 42.169012 23.366216
894 298 1 0.4238 28.300482 42.363603 22.794836
895 299 1 0.4238 3.883138 1.705881 46.425509
896 299 2 -0.8476 3.898956 2.543755 46.971144
897 299 1 0.4238 3.742896 3.332075 46.376
898 300 1 0.4238 16.455174 1.500831 4.265025
899 300 2 -0.8476 15.568717 1.671173 3.834702
900 300 1 0.4238 15.647715 2.44195 3.202513
901 301 1 0.4238 16.186256 36.85702 15.950243
902 301 2 -0.8476 16.915848 37.385005 16.384899
903 301 1 0.4238 16.51477 38.11556 16.937553
904 302 1 0.4238 47.762424 10.904805 9.182624
905 302 2 -0.8476 47.756631 11.893031 9.029732
906 302 1 0.4238 47.762325 12.078316 8.047063
907 303 1 0.4238 39.855067 24.116367 11.400483
908 303 2 -0.8476 40.320734 24.760447 10.793594
909 303 1 0.4238 40.077672 25.695804 11.050554
910 304 1 0.4238 26.115054 47.762387 18.804666
911 304 2 -0.8476 25.258159 47.3628 18.478996
912 304 1 0.4238 25.235671 47.39136 17.479657
913 305 1 0.4238 47.762486 15.44367 45.369065
914 305 2 -0.8476 46.791628 15.204073 45.374233
915 305 1 0.4238 46.24611 16.01919 45.179316
916 306 1 0.4238 1.522263 5.17684 8.849792
917 306 2 -0.8476 1.521569 5.175701 9.849791
918 306 1 0.4238 1.510978 4.232563 10.182024
919 307 1 0.4238 6.573663 41.013754 34.769906
920 307 2 -0.8476 7.38825 40.466903 34.576509
921 307 1 0.4238 7.126191 39.509273 34.457057
922 308 1 0.4238 39.275138 36.865039 34.540251
923 308 2 -0.8476 38.462738 36.796502 35.119309
924 308 1 0.4238 38.074783 37.707614 35.258471
925 309 1 0.4238 38.758256 41.076198 47.762793
926 309 2 -0.8476 38.707918 41.34708 46.801498
927 309 1 0.4238 38.97567 42.306312 46.711044
928 310 1 0.4238 3.991554 5.534262 1.500568
929 310 2 -0.8476 3.907333 6.530708 1.501194
930 310 1 0.4238 2.939794 6.783432 1.501553
931 311 1 0.4238 24.823738 26.440144 16.186912
932 311 2 -0.8476 25.691695 25.990507 15.976014
933 311 1 0.4238 25.540975 25.007524 15.871007
934 312 1 0.4238 22.094141 12.866346 45.038362
935 312 2 -0.8476 22.896907 12.507368 45.514494
936 312 1 0.4238 22.695858 11.592027 45.86339
937 313 1 0.4238 11.413539 43.460366 47.762645
938 313 2 -0.8476 11.574206 43.334225 46.78373
939 313 1 0.4238 10.805205 43.712339 46.268301
940 314 1 0.4238 40.107358 46.634332 28.749446
941 314 2 -0.8476 40.001834 47.546417 28.353256
942 314 1 0.4238 40.803819 47.762791 27.796478
943 315 1 0.4238 6.766125 31.964841 1.501661
944 315 2 -0.8476 5.842236 32.337793 1.587314
945 315 1 0.4238 5.719996 32.718154 2.504038
946 316 1 0.4238 6.280166 27.87214 47.751939
947 316 2 -0.8476 6.688809 26.959509 47.762672
948 316 1 0.4238 6.264653 26.396028 47.053742
949 317 1 0.4238 42.640922 17.304671 21.431192
950 317 2 -0.8476 43.47714 17.003309 20.973022
951 317 1 0.4238 43.522423 16.00441 20.985209
952 318 1 0.4238 34.097233 37.015603 37.480665
953 318 2 -0.8476 33.656863 37.85222 37.806467
954 318 1 0.4238 32.843879 37.615518 38.338471
955 319 1 0.4238 2.327554 47.751229 20.998516
956 319 2 -0.8476 1.500186 47.762614 21.560062
957 319 1 0.4238 1.525712 47.000237 22.20669
958 320 1 0.4238 43.327769 10.725508 7.312404
959 320 2 -0.8476 43.968847 10.437138 8.023644
960 320 1 0.4238 44.430435 11.239681 8.401616
961 321 1 0.4238 9.544067 11.216954 15.59026
962 321 2 -0.8476 9.589266 10.474689 14.92168
963 321 1 0.4238 9.216673 10.789315 14.048649
964 322 1 0.4238 16.677382 19.77058 12.923238
965 322 2 -0.8476 17.613493 19.436683 12.812743
966 322 1 0.4238 18.255138 20.126103 13.148885
967 323 1 0.4238 31.91114 9.073153 30.901721
968 323 2 -0.8476 32.301815 9.342497 31.781964
969 323 1 0.4238 33.185317 8.890972 31.906665
970 324 1 0.4238 29.068923 40.516212 28.727022
971 324 2 -0.8476 28.277675 40.818979 29.258303
972 324 1 0.4238 28.314434 41.811488 29.374812
973 325 1 0.4238 2.058477 38.475574 10.745175
974 325 2 -0.8476 1.500019 37.707168 11.057708
975 325 1 0.4238 1.517798 36.980954 10.370469
976 326 1 0.4238 27.540385 16.815146 17.819603
977 326 2 -0.8476 27.37202 17.276645 18.690621
978 326 1 0.4238 28.209718 17.730135 18.994939
979 327 1 0.4238 14.240408 29.853863 43.467091
980 327 2 -0.8476 14.364254 30.496884 44.22286
981 327 1 0.4238 14.125082 31.418949 43.918569
982 328 1 0.4238 1.500451 34.220036 10.024273
983 328 2 -0.8476 2.457368 34.401948 9.797957
984 328 1 0.4238 2.984784 34.508489 10.640858
985 329 1 0.4238 11.074717 32.97183 44.85197
986 329 2 -0.8476 11.777719 32.290291 45.055177
987 329 1 0.4238 11.489909 31.399507 44.703513
988 330 1 0.4238 20.24597 2.075626 1.504417
989 330 2 -0.8476 20.936419 2.798993 1.500037
990 330 1 0.4238 20.48457 3.69108 1.503487
991 331 1 0.4238 42.486305 27.43744 37.283115
992 331 2 -0.8476 41.877036 26.985725 37.934839
993 331 1 0.4238 41.459646 27.67133 38.53127
994 332 1 0.4238 14.679523 6.738069 40.368175
995 332 2 -0.8476 15.233203 5.934867 40.148392
996 332 1 0.4238 15.312769 5.353218 40.95793
997 333 1 0.4238 28.523152 47.192157 23.751231
998 333 2 -0.8476 27.805685 47.250254 24.445396
999 333 1 0.4238 27.028397 47.761952 24.079355
1000 334 1 0.4238 42.799647 6.382568 13.028742
1001 334 2 -0.8476 43.025597 7.329873 12.801674
1002 334 1 0.4238 43.828919 7.615395 13.324313
1003 335 1 0.4238 39.049309 9.025492 14.483908
1004 335 2 -0.8476 39.676111 8.492913 13.915156
1005 335 1 0.4238 39.208541 7.675124 13.579597
1006 336 1 0.4238 32.645424 25.289245 9.091602
1007 336 2 -0.8476 31.720679 25.005982 9.345783
1008 336 1 0.4238 31.241715 24.666505 8.536247
1009 337 1 0.4238 30.494478 7.803292 8.752782
1010 337 2 -0.8476 30.374213 8.509223 8.054786
1011 337 1 0.4238 30.809822 8.214603 7.204232
1012 338 1 0.4238 42.31188 35.552558 18.580453
1013 338 2 -0.8476 42.09357 34.820254 19.225489
1014 338 1 0.4238 42.838481 34.15319 19.237025
1015 339 1 0.4238 36.203144 15.723442 8.919348
1016 339 2 -0.8476 35.219573 15.544693 8.894081
1017 339 1 0.4238 35.060333 14.557495 8.885032
1018 340 1 0.4238 39.360547 37.12368 8.407697
1019 340 2 -0.8476 40.285427 37.481919 8.53522
1020 340 1 0.4238 40.324285 38.427264 8.211474
1021 341 1 0.4238 46.860583 16.039056 31.089805
1022 341 2 -0.8476 47.762617 16.244819 31.469273
1023 341 1 0.4238 47.750181 16.095768 32.458025
1024 342 1 0.4238 32.738038 23.996092 43.977237
1025 342 2 -0.8476 31.769503 24.240588 43.930754
1026 342 1 0.4238 31.667158 25.104771 43.438095
1027 343 1 0.4238 42.919966 26.144703 9.533317
1028 343 2 -0.8476 42.750308 26.067009 10.515753
1029 343 1 0.4238 43.040313 25.164351 10.833722
1030 344 1 0.4238 39.553871 45.401353 21.23338
1031 344 2 -0.8476 39.239462 44.45424 21.29759
1032 344 1 0.4238 40.029445 43.841451 21.317995
1033 345 1 0.4238 13.057744 4.637086 34.118583
1034 345 2 -0.8476 12.733312 5.019872 34.983579
1035 345 1 0.4238 13.512039 5.361298 35.509899
1036 346 1 0.4238 35.478435 21.080083 20.218234
1037 346 2 -0.8476 36.313016 21.208035 20.754053
1038 346 1 0.4238 36.540114 22.181243 20.789993
1039 347 1 0.4238 28.576407 13.499431 17.328566
1040 347 2 -0.8476 28.195853 12.574673 17.329395
1041 347 1 0.4238 28.938141 11.908843 17.404745
1042 348 1 0.4238 24.996483 14.162825 29.705014
1043 348 2 -0.8476 24.586874 15.055769 29.89175
1044 348 1 0.4238 24.809357 15.33581 30.825601
1045 349 1 0.4238 3.154947 9.037682 29.281213
1046 349 2 -0.8476 3.515951 9.559591 28.508369
1047 349 1 0.4238 3.650775 10.511643 28.782995
1048 350 1 0.4238 32.969011 42.576013 37.631237
1049 350 2 -0.8476 33.666805 43.192437 37.996072
1050 350 1 0.4238 34.485986 43.144084 37.424579
1051 351 1 0.4238 20.53295 13.691817 47.74782
1052 351 2 -0.8476 21.402237 13.197509 47.748784
1053 351 1 0.4238 22.157968 13.852257 47.762026
1054 352 1 0.4238 34.921615 32.806385 45.820429
1055 352 2 -0.8476 35.32701 33.25527 46.616768
1056 352 1 0.4238 34.600378 33.605764 47.207665
1057 353 1 0.4238 31.036638 13.677746 42.032528
1058 353 2 -0.8476 30.160043 13.528695 42.490092
1059 353 1 0.4238 30.258535 13.71444 43.467741
1060 354 1 0.4238 20.691626 41.372226 18.683931
1061 354 2 -0.8476 21.427298 40.788337 19.027239
1062 354 1 0.4238 22.294473 41.284424 18.983591
1063 355 1 0.4238 44.047965 25.362988 38.397194
1064 355 2 -0.8476 45.007002 25.529732 38.168187
1065 355 1 0.4238 45.153466 26.510646 38.040299
1066 356 1 0.4238 9.792318 30.702354 40.895066
1067 356 2 -0.8476 10.575973 30.97155 40.335228
1068 356 1 0.4238 10.334499 31.772116 39.78679
1069 357 1 0.4238 34.835965 33.88523 14.064965
1070 357 2 -0.8476 35.063521 34.044739 13.104353
1071 357 1 0.4238 34.543205 33.413416 12.529286
1072 358 1 0.4238 28.642983 45.064103 41.840812
1073 358 2 -0.8476 27.905155 45.706184 42.049001
1074 358 1 0.4238 27.063797 45.403708 41.60109
1075 359 1 0.4238 26.144518 11.930421 9.280123
1076 359 2 -0.8476 25.59042 12.409895 8.599622
1077 359 1 0.4238 25.058326 11.745417 8.07489
1078 360 1 0.4238 33.380165 27.73047 41.000682
1079 360 2 -0.8476 33.914132 28.575974 41.002156
1080 360 1 0.4238 34.619665 28.523389 41.708879
1081 361 1 0.4238 43.755187 35.959187 24.135818
1082 361 2 -0.8476 44.298286 35.124146 24.223848
1083 361 1 0.4238 43.689012 34.343252 24.361646
1084 362 1 0.4238 4.219024 10.868494 15.013369
1085 362 2 -0.8476 4.751482 10.555026 15.799642
1086 362 1 0.4238 4.204657 9.914102 16.338342
1087 363 1 0.4238 31.985139 13.959374 26.553047
1088 363 2 -0.8476 31.342114 14.071664 25.79548
1089 363 1 0.4238 31.346029 15.024965 25.493482
1090 364 1 0.4238 35.005178 20.771621 9.563478
1091 364 2 -0.8476 35.862234 21.271881 9.440212
1092 364 1 0.4238 35.664788 22.242442 9.302275
1093 365 1 0.4238 21.477373 40.177466 12.116011
1094 365 2 -0.8476 22.416074 40.254754 11.780056
1095 365 1 0.4238 22.774342 41.16262 11.997825
1096 366 1 0.4238 5.16978 41.585336 29.702008
1097 366 2 -0.8476 5.987029 41.738327 29.146403
1098 366 1 0.4238 6.516599 42.493216 29.533312
1099 367 1 0.4238 47.760617 9.478604 31.199504
1100 367 2 -0.8476 47.761705 8.478629 31.206368
1101 367 1 0.4238 46.821651 8.143839 31.141462
1102 368 1 0.4238 46.944352 9.168953 38.254977
1103 368 2 -0.8476 47.736939 9.614916 38.670817
1104 368 1 0.4238 47.761733 10.57572 38.3947
1105 369 1 0.4238 22.078633 15.052091 4.575864
1106 369 2 -0.8476 22.403692 15.475408 5.421523
1107 369 1 0.4238 23.299351 15.099676 5.659472
1108 370 1 0.4238 37.148508 19.304828 29.35863
1109 370 2 -0.8476 37.853106 20.013619 29.392658
1110 370 1 0.4238 37.419216 20.911801 29.463427
1111 371 1 0.4238 36.605702 16.908082 6.47074
1112 371 2 -0.8476 36.263826 16.012518 6.185984
1113 371 1 0.4238 35.31769 16.100583 5.874423
1114 372 1 0.4238 20.439008 29.214101 30.937715
1115 372 2 -0.8476 20.275442 28.253368 31.161854
1116 372 1 0.4238 21.150436 27.790797 31.304731
1117 373 1 0.4238 1.501326 26.664283 24.877484
1118 373 2 -0.8476 2.028183 26.57308 24.032437
1119 373 1 0.4238 1.500932 26.045693 23.366203
1120 374 1 0.4238 36.508307 13.41706 25.292608
1121 374 2 -0.8476 37.052544 12.88001 25.93711
1122 374 1 0.4238 37.119406 13.370113 26.806206
1123 375 1 0.4238 24.675174 2.432413 45.362865
1124 375 2 -0.8476 24.894101 1.500019 45.075267
1125 375 1 0.4238 25.151212 1.500989 44.108886
1126 376 1 0.4238 47.761412 12.619146 16.552713
1127 376 2 -0.8476 47.187511 13.434514 16.47648
1128 376 1 0.4238 47.761428 14.228516 16.276033
1129 377 1 0.4238 27.211932 32.112513 10.129348
1130 377 2 -0.8476 27.130031 31.255457 9.620676
1131 377 1 0.4238 27.510981 31.374349 8.703757
1132 378 1 0.4238 31.451377 42.894762 3.803543
1133 378 2 -0.8476 30.696606 42.545041 4.358536
1134 378 1 0.4238 29.83249 42.914449 4.016717
1135 379 1 0.4238 26.186254 44.475294 15.075522
1136 379 2 -0.8476 26.41137 45.309517 15.578905
1137 379 1 0.4238 26.567455 46.056742 14.932924
1138 380 1 0.4238 33.547183 36.694297 28.240609
1139 380 2 -0.8476 33.325336 36.401209 27.310618
1140 380 1 0.4238 32.347949 36.531714 27.144238
1141 381 1 0.4238 20.959002 30.127628 27.532284
1142 381 2 -0.8476 21.43986 30.842647 28.039752
1143 381 1 0.4238 22.214718 30.441167 28.528023
1144 382 1 0.4238 24.493151 30.214572 15.225491
1145 382 2 -0.8476 23.937573 29.552438 14.722587
1146 382 1 0.4238 23.693176 28.794626 15.327558
1147 383 1 0.4238 18.353335 22.143739 33.369579
1148 383 2 -0.8476 19.191117 22.340776 33.878792
1149 383 1 0.4238 19.919953 22.585778 33.239439
1150 384 1 0.4238 1.502682 16.035364 22.364232
1151 384 2 -0.8476 1.500919 15.461703 21.545141
1152 384 1 0.4238 1.500201 14.498241 21.812984
1153 385 1 0.4238 17.024426 7.382929 44.547494
1154 385 2 -0.8476 17.850222 7.072296 45.018204
1155 385 1 0.4238 17.708974 6.143673 45.361289
1156 386 1 0.4238 11.674077 16.666022 6.119194
1157 386 2 -0.8476 12.531659 16.157343 6.195349
1158 386 1 0.4238 13.250193 16.764303 6.53492
1159 387 1 0.4238 28.719276 14.965704 10.811072
1160 387 2 -0.8476 29.583857 15.466481 10.769565
1161 387 1 0.4238 30.345115 14.81804 10.772754
1162 388 1 0.4238 47.762452 47.636126 16.953858
1163 388 2 -0.8476 47.436539 47.762756 17.890739
1164 388 1 0.4238 47.762739 47.009443 18.461802
1165 389 1 0.4238 46.184012 32.775158 11.206301
1166 389 2 -0.8476 47.11956 33.089921 11.366534
1167 389 1 0.4238 47.762795 32.370689 11.103944
1168 390 1 0.4238 1.500013 3.219491 16.702695
1169 390 2 -0.8476 2.28172 3.784928 16.965781
1170 390 1 0.4238 2.76292 4.091303 16.144453
1171 391 1 0.4238 41.196859 24.595765 32.154822
1172 391 2 -0.8476 42.081918 24.965487 31.87202
1173 391 1 0.4238 42.714112 24.212855 31.687971
1174 392 1 0.4238 35.848662 5.040372 22.413333
1175 392 2 -0.8476 36.38838 5.814462 22.744223
1176 392 1 0.4238 36.984674 5.511519 23.487633
1177 393 1 0.4238 16.96656 13.918551 17.120509
1178 393 2 -0.8476 15.994055 13.689594 17.163074
1179 393 1 0.4238 15.455888 14.530445 17.220913
1180 394 1 0.4238 37.718428 8.845365 19.507633
1181 394 2 -0.8476 37.015437 9.416517 19.931413
1182 394 1 0.4238 36.438316 9.81759 19.220026
1183 395 1 0.4238 1.502828 8.36308 24.710044
1184 395 2 -0.8476 1.623572 7.465142 24.286808
1185 395 1 0.4238 2.586091 7.335711 24.048469
1186 396 1 0.4238 1.500662 39.870557 28.134471
1187 396 2 -0.8476 1.899969 39.095958 28.624929
1188 396 1 0.4238 1.500114 38.24457 28.285438
1189 397 1 0.4238 21.173827 18.109461 41.51878
1190 397 2 -0.8476 21.14966 18.124864 42.51837
1191 397 1 0.4238 21.833267 17.489843 42.878133
1192 398 1 0.4238 7.914554 15.91127 28.834368
1193 398 2 -0.8476 8.887891 15.733801 28.689039
1194 398 1 0.4238 9.037595 14.749021 28.600741
1195 399 1 0.4238 35.089635 41.564177 11.439563
1196 399 2 -0.8476 35.629276 40.734546 11.582739
1197 399 1 0.4238 36.141175 40.522107 10.750376
1198 400 1 0.4238 6.782757 6.826376 19.894587
1199 400 2 -0.8476 6.890008 7.575114 20.54872
1200 400 1 0.4238 7.686085 7.400111 21.12806
1201 401 1 0.4238 24.095039 47.761388 42.687992
1202 401 2 -0.8476 24.902663 47.762608 43.277688
1203 401 1 0.4238 25.705166 47.495051 42.744395
1204 402 1 0.4238 42.620775 36.464192 9.605527
1205 402 2 -0.8476 42.392904 36.658245 10.559685
1206 402 1 0.4238 42.054486 37.59602 10.637471
1207 403 1 0.4238 9.364834 46.319455 15.3011
1208 403 2 -0.8476 9.713937 47.196857 15.630178
1209 403 1 0.4238 8.951267 47.762672 15.943527
1210 404 1 0.4238 33.670701 30.439051 23.183226
1211 404 2 -0.8476 32.679072 30.40768 23.308474
1212 404 1 0.4238 32.348697 31.311511 23.580396
1213 405 1 0.4238 26.274995 33.696684 27.261591
1214 405 2 -0.8476 26.758811 34.136932 26.505215
1215 405 1 0.4238 26.208873 34.894598 26.153775
1216 406 1 0.4238 44.472069 23.699698 29.57443
1217 406 2 -0.8476 44.393899 22.891261 28.99106
1218 406 1 0.4238 43.428198 22.667958 28.858558
1219 407 1 0.4238 16.285978 1.500736 16.649454
1220 407 2 -0.8476 15.62506 1.619029 17.39053
1221 407 1 0.4238 14.698677 1.500787 17.032992
1222 408 1 0.4238 10.838234 35.560735 10.306281
1223 408 2 -0.8476 11.738685 35.867373 10.614762
1224 408 1 0.4238 11.761829 35.880752 11.614404
1225 409 1 0.4238 12.099996 4.485506 37.8299
1226 409 2 -0.8476 12.066688 5.484825 37.845739
1227 409 1 0.4238 12.253797 5.809908 38.77273
1228 410 1 0.4238 35.857679 1.500168 11.47814
1229 410 2 -0.8476 35.343747 2.315673 11.21201
1230 410 1 0.4238 35.973203 3.002473 10.84857
1231 411 1 0.4238 1.500485 43.965125 13.668063
1232 411 2 -0.8476 2.064133 43.446265 13.025346
1233 411 1 0.4238 1.500602 42.758442 12.567817
1234 412 1 0.4238 24.110965 17.817529 31.576172
1235 412 2 -0.8476 24.279856 18.798225 31.674718
1236 412 1 0.4238 24.511096 19.187855 30.783249
1237 413 1 0.4238 27.8763 24.089718 44.130049
1238 413 2 -0.8476 27.35455 24.397211 44.925804
1239 413 1 0.4238 27.632798 23.872053 45.730035
1240 414 1 0.4238 18.165265 2.715914 35.01404
1241 414 2 -0.8476 17.667774 1.936476 34.633279
1242 414 1 0.4238 17.128532 1.500924 35.354051
1243 415 1 0.4238 23.705707 9.634773 47.762572
1244 415 2 -0.8476 24.532556 9.319588 47.296762
1245 415 1 0.4238 24.88946 8.509893 47.762609
1246 416 1 0.4238 39.375979 11.038069 19.431039
1247 416 2 -0.8476 39.233915 11.677143 18.675127
1248 416 1 0.4238 38.412736 11.415981 18.167721
1249 417 1 0.4238 27.776522 2.431451 39.830165
1250 417 2 -0.8476 27.423154 1.501102 39.73228
1251 417 1 0.4238 26.436102 1.500865 39.892675
1252 418 1 0.4238 7.036222 43.689721 34.337
1253 418 2 -0.8476 7.881947 44.118679 34.019599
1254 418 1 0.4238 7.715779 45.087556 33.836118
1255 419 1 0.4238 13.417655 34.181331 13.851341
1256 419 2 -0.8476 12.674955 33.511709 13.849902
1257 419 1 0.4238 11.80194 33.982508 13.722649
1258 420 1 0.4238 36.974621 38.937222 37.581182
1259 420 2 -0.8476 37.931932 38.747687 37.799429
1260 420 1 0.4238 38.298876 39.489232 38.36109
1261 421 1 0.4238 10.389999 31.351395 34.084442
1262 421 2 -0.8476 10.800553 30.458735 34.270462
1263 421 1 0.4238 10.115844 29.74242 34.136053
1264 422 1 0.4238 41.575984 2.296963 47.751284
1265 422 2 -0.8476 42.332196 2.951277 47.75535
1266 422 1 0.4238 41.967343 3.882312 47.7628
1267 423 1 0.4238 34.674905 39.493922 24.964789
1268 423 2 -0.8476 33.805493 39.099508 25.26238
1269 423 1 0.4238 33.859194 38.101973 25.217213
1270 424 1 0.4238 45.014032 26.118823 17.309069
1271 424 2 -0.8476 44.476039 26.77913 17.833052
1272 424 1 0.4238 43.957304 26.299604 18.540844
1273 425 1 0.4238 23.315758 5.267825 5.844204
1274 425 2 -0.8476 22.632118 4.710105 6.314932
1275 425 1 0.4238 21.728379 5.122085 6.198624
1276 426 1 0.4238 40.187092 26.099843 27.760822
1277 426 2 -0.8476 39.724885 26.743288 27.150623
1278 426 1 0.4238 38.755477 26.50587 27.088329
1279 427 1 0.4238 46.28887 24.904139 4.744368
1280 427 2 -0.8476 47.00486 25.597872 4.666314
1281 427 1 0.4238 47.762624 25.235224 4.123839
1282 428 1 0.4238 43.116297 28.575407 42.628731
1283 428 2 -0.8476 42.294746 28.189293 43.048218
1284 428 1 0.4238 41.750518 28.924007 43.4532
1285 429 1 0.4238 23.187223 40.674324 30.612502
1286 429 2 -0.8476 23.192785 39.9757 31.327969
1287 429 1 0.4238 23.919739 39.314517 31.142567
1288 430 1 0.4238 22.897647 4.44205 44.21217
1289 430 2 -0.8476 23.60842 5.117215 44.014801
1290 430 1 0.4238 24.452291 4.646981 43.756419
1291 431 1 0.4238 36.584318 1.500016 22.957615
1292 431 2 -0.8476 36.423729 2.463722 23.170879
1293 431 1 0.4238 37.01209 2.739412 23.931028
1294 432 1 0.4238 4.17792 30.040672 8.16747
1295 432 2 -0.8476 4.66479 29.342258 8.692042
1296 432 1 0.4238 4.279231 29.288061 9.613132
1297 433 1 0.4238 8.226649 47.760974 3.131562
1298 433 2 -0.8476 8.767656 47.762796 2.290546
1299 433 1 0.4238 8.155107 47.753709 1.500165
1300 434 1 0.4238 7.963606 17.387738 9.412979
1301 434 2 -0.8476 8.099763 18.340469 9.141382
1302 434 1 0.4238 8.993249 18.654225 9.462693
1303 435 1 0.4238 46.546985 27.812298 6.222849
1304 435 2 -0.8476 46.240001 28.725009 5.953183
1305 435 1 0.4238 46.630683 28.958525 5.062769
1306 436 1 0.4238 41.82668 47.762277 46.84623
1307 436 2 -0.8476 42.338041 47.264389 47.546671
1308 436 1 0.4238 43.178176 47.761847 47.762792
1309 437 1 0.4238 6.329771 11.173004 22.76563
1310 437 2 -0.8476 6.07911 11.267919 23.729041
1311 437 1 0.4238 6.780496 10.840681 24.29959
1312 438 1 0.4238 32.123716 40.327242 3.091322
1313 438 2 -0.8476 31.666597 39.791753 2.381185
1314 438 1 0.4238 32.108241 39.960794 1.500064
1315 439 1 0.4238 26.748024 14.826654 40.886503
1316 439 2 -0.8476 25.880385 14.385322 40.657528
1317 439 1 0.4238 25.268822 15.052793 40.232708
1318 440 1 0.4238 12.306894 47.685437 47.6074
1319 440 2 -0.8476 12.017958 47.762447 46.653154
1320 440 1 0.4238 12.054898 46.861887 46.219997
1321 441 1 0.4238 29.053582 47.761385 45.919366
1322 441 2 -0.8476 29.949534 47.418356 46.201502
1323 441 1 0.4238 30.650136 47.762418 45.57638
1324 442 1 0.4238 28.334438 44.70513 39.132164
1325 442 2 -0.8476 27.43567 44.266759 39.125157
1326 442 1 0.4238 27.457701 43.451985 39.704516
1327 443 1 0.4238 47.758374 20.423742 36.945617
1328 443 2 -0.8476 47.730074 20.147347 35.98499
1329 443 1 0.4238 47.282859 20.861018 35.44585
1330 444 1 0.4238 1.507879 28.414991 1.500692
1331 444 2 -0.8476 1.500098 27.596547 2.075224
1332 444 1 0.4238 1.60383 26.784832 1.500455
1333 445 1 0.4238 14.363434 7.409858 18.70241
1334 445 2 -0.8476 13.605361 6.842342 18.381083
1335 445 1 0.4238 12.740803 7.317891 18.543542
1336 446 1 0.4238 45.390811 16.584646 38.710552
1337 446 2 -0.8476 44.856103 16.34007 39.519421
1338 446 1 0.4238 44.021581 16.890391 39.546227
1339 447 1 0.4238 24.238769 31.316866 45.499024
1340 447 2 -0.8476 25.213368 31.192825 45.312555
1341 447 1 0.4238 25.398161 30.226453 45.133736
1342 448 1 0.4238 11.230264 27.947963 28.230228
1343 448 2 -0.8476 10.903485 28.103402 29.162459
1344 448 1 0.4238 9.921184 27.921235 29.206045
1345 449 1 0.4238 19.106398 26.094974 47.761915
1346 449 2 -0.8476 20.103554 26.019608 47.762065
1347 449 1 0.4238 20.364863 25.054353 47.762536
1348 450 1 0.4238 20.295282 19.914847 6.80279
1349 450 2 -0.8476 20.976723 20.64644 6.782528
1350 450 1 0.4238 21.821022 20.304198 6.370183
1351 451 1 0.4238 29.530213 21.359952 36.498758
1352 451 2 -0.8476 30.24395 21.488068 37.187355
1353 451 1 0.4238 31.014044 20.882815 36.985801
1354 452 1 0.4238 30.567832 35.593817 3.911262
1355 452 2 -0.8476 29.925207 34.831666 3.989736
1356 452 1 0.4238 30.036052 34.392677 4.881364
1357 453 1 0.4238 23.860718 7.990394 29.902249
1358 453 2 -0.8476 23.940184 8.966779 29.701357
1359 453 1 0.4238 23.116144 9.277791 29.227827
1360 454 1 0.4238 47.761201 17.202062 40.1948
1361 454 2 -0.8476 47.542277 18.09528 40.587527
1362 454 1 0.4238 46.54939 18.20105 40.642195
1363 455 1 0.4238 2.993775 18.049386 2.246884
1364 455 2 -0.8476 3.124336 17.396903 1.500413
1365 455 1 0.4238 4.053438 17.028993 1.537986
1366 456 1 0.4238 6.744246 13.878305 34.376067
1367 456 2 -0.8476 6.900222 13.662598 35.339987
1368 456 1 0.4238 6.24147 14.16071 35.903839
1369 457 1 0.4238 16.679468 47.7613 47.59776
1370 457 2 -0.8476 15.874124 47.189471 47.754073
1371 457 1 0.4238 15.054844 47.762797 47.762746
1372 458 1 0.4238 44.092472 1.502656 7.649544
1373 458 2 -0.8476 44.993017 1.93688 7.671164
1374 458 1 0.4238 45.58936 1.501293 6.996896
1375 459 1 0.4238 27.161719 43.647992 43.714269
1376 459 2 -0.8476 26.637229 43.109716 43.054596
1377 459 1 0.4238 27.253185 42.747925 42.354807
1378 460 1 0.4238 12.549822 34.674298 16.845218
1379 460 2 -0.8476 11.878662 33.940466 16.950265
1380 460 1 0.4238 11.077688 34.137917 16.385063
1381 461 1 0.4238 9.321736 19.85784 39.774178
1382 461 2 -0.8476 9.062056 19.012519 39.307274
1383 461 1 0.4238 9.870943 18.437502 39.18457
1384 462 1 0.4238 4.276614 37.847517 1.770772
1385 462 2 -0.8476 4.99224 38.499428 1.519991
1386 462 1 0.4238 5.876336 38.032549 1.500073
1387 463 1 0.4238 30.286819 14.192222 13.899996
1388 463 2 -0.8476 29.464881 14.15752 13.331478
1389 463 1 0.4238 28.978068 13.300682 13.501308
1390 464 1 0.4238 6.475835 24.977988 33.213084
1391 464 2 -0.8476 6.506248 24.254504 33.902756
1392 464 1 0.4238 5.682841 24.298489 34.4685
1393 465 1 0.4238 25.091945 6.276106 1.52493
1394 465 2 -0.8476 24.093391 6.228406 1.500143
1395 465 1 0.4238 23.804736 5.271258 1.523535
1396 466 1 0.4238 34.476709 6.613595 33.930907
1397 466 2 -0.8476 33.659183 7.170351 33.783683
1398 466 1 0.4238 32.876518 6.573271 33.607812
1399 467 1 0.4238 47.762672 10.942076 35.642441
1400 467 2 -0.8476 46.906782 11.382077 35.914196
1401 467 1 0.4238 46.208474 10.683866 36.071886
1402 468 1 0.4238 47.762617 25.71352 7.513974
1403 468 2 -0.8476 47.192275 24.909673 7.345036
1404 468 1 0.4238 47.762573 24.088296 7.355001
1405 469 1 0.4238 7.964263 37.669333 36.320916
1406 469 2 -0.8476 7.48248 36.956695 35.810982
1407 469 1 0.4238 7.99921 36.102151 35.863374
1408 470 1 0.4238 47.762344 35.414919 9.846126
1409 470 2 -0.8476 47.737367 35.092968 8.899699
1410 470 1 0.4238 47.762307 34.093361 8.886902
1411 471 1 0.4238 19.15299 46.993907 11.383233
1412 471 2 -0.8476 19.531976 47.742997 11.926587
1413 471 1 0.4238 19.088926 47.761975 12.822883
1414 472 1 0.4238 38.257224 34.407953 1.500541
1415 472 2 -0.8476 39.060275 33.81207 1.506393
1416 472 1 0.4238 39.889764 34.370591 1.507094
1417 473 1 0.4238 24.035901 33.877301 7.681068
1418 473 2 -0.8476 24.349427 33.056104 8.157867
1419 473 1 0.4238 25.20609 33.253913 8.634311
1420 474 1 0.4238 35.484588 33.551681 40.226858
1421 474 2 -0.8476 35.928675 32.896852 40.838401
1422 474 1 0.4238 35.331888 32.105166 40.969087
1423 475 1 0.4238 45.457731 3.804854 9.606682
1424 475 2 -0.8476 44.751185 4.474563 9.835336
1425 475 1 0.4238 44.11916 4.078129 10.501206
1426 476 1 0.4238 29.988669 4.471231 29.429508
1427 476 2 -0.8476 29.261225 4.996927 29.870495
1428 476 1 0.4238 29.538577 5.955055 29.941669
1429 477 1 0.4238 6.230898 22.709777 28.84812
1430 477 2 -0.8476 6.750949 23.449428 29.275279
1431 477 1 0.4238 6.643231 23.402291 30.268342
1432 478 1 0.4238 33.128 9.565408 41.090518
1433 478 2 -0.8476 32.972594 9.305779 42.04364
1434 478 1 0.4238 33.777679 8.827367 42.394296
1435 479 1 0.4238 36.807566 24.088442 6.027144
1436 479 2 -0.8476 36.963073 24.534119 5.14556
1437 479 1 0.4238 37.765995 25.126843 5.208753
1438 480 1 0.4238 42.282109 14.65919 44.203975
1439 480 2 -0.8476 43.201547 14.266063 44.194749
1440 480 1 0.4238 43.877788 14.99779 44.28003
1441 481 1 0.4238 21.521546 6.341051 28.181109
1442 481 2 -0.8476 21.902182 7.184927 28.55925
1443 481 1 0.4238 21.204536 7.650615 29.103699
1444 482 1 0.4238 32.919906 10.218304 11.119376
1445 482 2 -0.8476 32.254273 9.480421 11.230996
1446 482 1 0.4238 32.726142 8.599131 11.205153
1447 483 1 0.4238 8.876801 42.396154 47.758224
1448 483 2 -0.8476 8.197708 41.662116 47.762767
1449 483 1 0.4238 7.279281 42.057696 47.759839
1450 484 1 0.4238 31.972168 8.003209 2.102463
1451 484 2 -0.8476 32.137238 8.961014 2.337754
1452 484 1 0.4238 32.209238 9.502387 1.50006
1453 485 1 0.4238 13.366768 36.093193 25.367333
1454 485 2 -0.8476 13.087257 35.450254 24.654239
1455 485 1 0.4238 12.262205 35.790704 24.20326
1456 486 1 0.4238 12.388829 28.825318 45.219526
1457 486 2 -0.8476 13.069169 28.09243 45.222999
1458 486 1 0.4238 12.605236 27.207115 45.254346
1459 487 1 0.4238 9.824998 26.588644 19.115806
1460 487 2 -0.8476 9.909809 27.002991 20.021965
1461 487 1 0.4238 9.740639 26.309807 20.722591
1462 488 1 0.4238 4.571339 18.649517 36.246
1463 488 2 -0.8476 4.129914 19.321066 36.841119
1464 488 1 0.4238 4.198853 19.019886 37.792191
1465 489 1 0.4238 28.68223 5.60624 8.761981
1466 489 2 -0.8476 29.529453 5.262052 9.166637
1467 489 1 0.4238 29.311735 4.669838 9.942447
1468 490 1 0.4238 35.269853 37.93144 35.168192
1469 490 2 -0.8476 35.566879 38.232932 34.262169
1470 490 1 0.4238 34.77783 38.5675 33.746936
1471 491 1 0.4238 4.574345 25.055518 1.507186
1472 491 2 -0.8476 4.901127 24.110445 1.500039
1473 491 1 0.4238 5.901093 24.10349 1.504455
1474 492 1 0.4238 46.21256 43.938166 18.068577
1475 492 2 -0.8476 46.806047 44.585397 17.590179
1476 492 1 0.4238 47.762669 44.354688 17.768081
1477 493 1 0.4238 18.111 24.931216 7.705084
1478 493 2 -0.8476 17.262865 25.23164 7.268722
1479 493 1 0.4238 16.889791 26.013472 7.768275
1480 494 1 0.4238 36.552128 7.940323 17.058364
1481 494 2 -0.8476 36.62476 8.851251 16.652241
1482 494 1 0.4238 37.552176 9.201602 16.783213
1483 495 1 0.4238 37.525389 47.762243 39.712713
1484 495 2 -0.8476 36.547787 47.690984 39.51468
1485 495 1 0.4238 36.029061 47.762234 40.366646
1486 496 1 0.4238 34.044692 7.702237 21.842164
1487 496 2 -0.8476 33.530245 8.535466 21.639497
1488 496 1 0.4238 32.793622 8.643092 22.307182
1489 497 1 0.4238 47.762111 18.022624 3.370289
1490 497 2 -0.8476 47.61794 18.804468 3.976864
1491 497 1 0.4238 47.760306 18.521226 4.925286
1492 498 1 0.4238 33.827653 32.931732 8.32373
1493 498 2 -0.8476 33.676044 33.823828 7.898078
1494 498 1 0.4238 34.550552 34.298461 7.798282
1495 499 1 0.4238 43.574496 34.920726 41.445269
1496 499 2 -0.8476 43.712074 35.893217 41.257297
1497 499 1 0.4238 44.66439 36.13676 41.441092
1498 500 1 0.4238 4.853115 20.458722 40.042176
1499 500 2 -0.8476 5.758931 20.043182 39.959575
1500 500 1 0.4238 5.687349 19.056283 40.104162
1501 501 1 0.4238 1.500121 8.348985 42.865034
1502 501 2 -0.8476 1.675526 8.1002 43.817577
1503 501 1 0.4238 2.640863 8.252527 44.029521
1504 502 1 0.4238 29.94016 16.861085 13.175404
1505 502 2 -0.8476 30.350922 17.483987 12.509621
1506 502 1 0.4238 30.22308 18.428105 12.813424
1507 503 1 0.4238 24.350703 25.975649 1.501164
1508 503 2 -0.8476 23.573745 26.605194 1.504449
1509 503 1 0.4238 23.908324 27.54756 1.505753
1510 504 1 0.4238 39.090558 5.339913 40.31864
1511 504 2 -0.8476 39.020324 6.276226 39.974568
1512 504 1 0.4238 38.075378 6.462454 39.705503
1513 505 1 0.4238 46.190782 20.987958 28.149348
1514 505 2 -0.8476 45.70676 20.112903 28.148244
1515 505 1 0.4238 44.721881 20.276697 28.204677
1516 506 1 0.4238 6.133866 47.667436 4.900585
1517 506 2 -0.8476 5.141647 47.762701 4.980757
1518 506 1 0.4238 4.724655 46.856747 5.053995
1519 507 1 0.4238 18.922571 2.61664 3.841595
1520 507 2 -0.8476 18.568496 3.531298 4.036614
1521 507 1 0.4238 19.324632 4.185576 4.049949
1522 508 1 0.4238 44.215473 47.76243 31.712029
1523 508 2 -0.8476 45.06138 47.292935 31.459015
1524 508 1 0.4238 45.482831 47.760938 30.682258
1525 509 1 0.4238 21.631885 40.304838 6.858402
1526 509 2 -0.8476 21.43873 39.325264 6.802495
1527 509 1 0.4238 22.123609 38.883004 6.223405
1528 510 1 0.4238 8.220175 3.442637 8.974718
1529 510 2 -0.8476 7.623977 3.425211 8.17207
1530 510 1 0.4238 6.668888 3.46783 8.465307
1531 511 1 0.4238 2.505806 28.946446 36.352474
1532 511 2 -0.8476 1.601259 29.283429 36.091254
1533 511 1 0.4238 1.501101 30.233291 36.387448
1534 512 1 0.4238 1.501473 35.24094 35.425499
1535 512 2 -0.8476 1.533938 34.306433 35.779963
1536 512 1 0.4238 1.586836 34.330265 36.778278
1537 513 1 0.4238 11.694259 23.615843 12.552006
1538 513 2 -0.8476 11.400312 24.169181 11.772639
1539 513 1 0.4238 10.409418 24.090887 11.663108
1540 514 1 0.4238 17.849519 6.007713 23.743841
1541 514 2 -0.8476 18.839532 6.113491 23.650643
1542 514 1 0.4238 19.061475 7.081065 23.530054
1543 515 1 0.4238 16.6161 14.526534 31.325836
1544 515 2 -0.8476 17.248806 15.248763 31.04643
1545 515 1 0.4238 16.729591 16.047087 30.741317
1546 516 1 0.4238 33.143249 28.44009 10.501437
1547 516 2 -0.8476 32.537258 27.914055 9.904728
1548 516 1 0.4238 31.792008 27.524824 10.446115
1549 517 1 0.4238 44.473966 19.826558 24.710049
1550 517 2 -0.8476 45.060593 19.693315 25.50887
1551 517 1 0.4238 45.166249 18.714689 25.685302
1552 518 1 0.4238 6.992933 29.313253 15.754606
1553 518 2 -0.8476 7.685378 28.646688 15.478543
1554 518 1 0.4238 8.545094 29.119631 15.285637
1555 519 1 0.4238 39.514434 19.21683 31.433469
1556 519 2 -0.8476 40.510694 19.223622 31.519608
1557 519 1 0.4238 40.84492 18.28436 31.59758
1558 520 1 0.4238 22.813517 32.061351 19.371467
1559 520 2 -0.8476 23.140804 32.471869 20.222559
1560 520 1 0.4238 23.803831 33.190426 20.012631
1561 521 1 0.4238 11.120942 9.011897 13.167886
1562 521 2 -0.8476 10.392771 8.787107 12.520402
1563 521 1 0.4238 10.796247 8.493623 11.653756
1564 522 1 0.4238 26.417553 41.010883 11.307987
1565 522 2 -0.8476 25.48901 40.886128 11.657621
1566 522 1 0.4238 25.506202 40.888576 12.65747
1567 523 1 0.4238 39.400995 7.186964 16.497973
1568 523 2 -0.8476 39.255516 6.341774 15.983689
1569 523 1 0.4238 38.287357 6.257482 15.747974
1570 524 1 0.4238 47.760193 43.847749 47.762553
1571 524 2 -0.8476 47.762779 43.572205 46.801267
1572 524 1 0.4238 47.761155 44.386677 46.221066
1573 525 1 0.4238 23.769525 42.533188 3.54978
1574 525 2 -0.8476 24.40929 41.794432 3.761774
1575 525 1 0.4238 25.316519 42.178281 3.933805
1576 526 1 0.4238 33.357532 35.137927 32.546953
1577 526 2 -0.8476 34.158244 35.68146 32.295093
1578 526 1 0.4238 34.689244 35.8927 33.115713
1579 527 1 0.4238 22.454077 13.539591 30.653072
1580 527 2 -0.8476 22.046205 14.452438 30.63436
1581 527 1 0.4238 21.896655 14.769948 31.570748
1582 528 1 0.4238 26.860339 15.043221 13.696638
1583 528 2 -0.8476 26.087819 15.642267 13.907248
1584 528 1 0.4238 25.233445 15.132677 13.805448
1585 529 1 0.4238 26.272696 36.218891 8.373775
1586 529 2 -0.8476 27.089326 36.612188 8.796188
1587 529 1 0.4238 27.169911 36.282187 9.736722
1588 530 1 0.4238 35.326255 47.761151 37.003476
1589 530 2 -0.8476 34.326421 47.748365 36.990543
1590 530 1 0.4238 34.005167 46.801372 36.990263
1591 531 1 0.4238 33.787425 25.099097 41.687338
1592 531 2 -0.8476 34.714637 24.974202 42.040438
1593 531 1 0.4238 35.131445 25.867985 42.206035
1594 532 1 0.4238 4.374547 17.732604 9.805745
1595 532 2 -0.8476 5.33178 17.993334 9.931142
1596 532 1 0.4238 5.386243 18.769875 10.55885
1597 533 1 0.4238 38.684411 29.192321 26.456555
1598 533 2 -0.8476 37.687989 29.259597 26.507732
1599 533 1 0.4238 37.435536 30.01439 27.113168
1600 534 1 0.4238 38.522052 16.207598 13.743523
1601 534 2 -0.8476 39.20736 16.64952 13.164681
1602 534 1 0.4238 39.289838 17.612418 13.421636
1603 535 1 0.4238 18.292604 31.927907 28.149138
1604 535 2 -0.8476 17.808619 31.460931 27.409076
1605 535 1 0.4238 18.270923 30.599183 27.200113
1606 536 1 0.4238 32.074306 1.501057 8.547424
1607 536 2 -0.8476 33.00711 1.721874 8.262614
1608 536 1 0.4238 33.642596 1.501133 9.002499
1609 537 1 0.4238 5.306121 38.902254 30.808901
1610 537 2 -0.8476 4.428318 39.016195 30.343627
1611 537 1 0.4238 4.449922 38.533278 29.468227
1612 538 1 0.4238 14.62964 1.500888 13.288141
1613 538 2 -0.8476 14.732187 1.591171 14.278764
1614 538 1 0.4238 14.928232 2.544583 14.508047
1615 539 1 0.4238 35.317763 2.126553 6.134612
1616 539 2 -0.8476 35.067689 1.500039 5.396409
1617 539 1 0.4238 34.074543 1.502128 5.279555
1618 540 1 0.4238 10.152223 35.964515 18.469453
1619 540 2 -0.8476 9.618587 36.104997 17.635488
1620 540 1 0.4238 8.926765 35.387145 17.557574
1621 541 1 0.4238 39.048428 17.738781 28.133869
1622 541 2 -0.8476 39.217759 18.518824 27.53149
1623 541 1 0.4238 38.400249 18.701922 26.985458
1624 542 1 0.4238 43.17526 10.488869 44.664007
1625 542 2 -0.8476 42.335932 10.343735 44.140114
1626 542 1 0.4238 42.435132 9.527408 43.571107
1627 543 1 0.4238 45.335466 21.284704 5.552135
1628 543 2 -0.8476 45.662837 20.430728 5.147718
1629 543 1 0.4238 45.384019 20.387872 4.188331
1630 544 1 0.4238 21.980193 6.016905 14.294246
1631 544 2 -0.8476 22.671381 5.658619 14.921854
1632 544 1 0.4238 23.507142 6.201976 14.842699
1633 545 1 0.4238 28.32166 1.741702 17.475952
1634 545 2 -0.8476 27.751128 1.501357 16.690631
1635 545 1 0.4238 28.308673 1.503516 15.860487
1636 546 1 0.4238 16.624392 5.812693 26.197846
1637 546 2 -0.8476 16.426564 5.107814 26.879029
1638 546 1 0.4238 16.623954 4.206634 26.49314
1639 547 1 0.4238 8.481173 47.762133 33.066924
1640 547 2 -0.8476 8.20227 47.74969 32.106685
1641 547 1 0.4238 7.44727 47.10494 31.987216
1642 548 1 0.4238 5.198584 16.428798 34.75079
1643 548 2 -0.8476 4.2071 16.304308 34.789023
1644 548 1 0.4238 3.995099 15.327896 34.82994
1645 549 1 0.4238 7.956344 24.540608 10.444576
1646 549 2 -0.8476 7.568466 23.719147 10.86261
1647 549 1 0.4238 6.589412 23.853521 11.015568
1648 550 1 0.4238 21.547737 46.934217 42.087373
1649 550 2 -0.8476 20.688465 47.210457 42.517888
1650 550 1 0.4238 20.108869 46.40652 42.651129
1651 551 1 0.4238 11.403262 42.978254 4.077649
1652 551 2 -0.8476 11.954304 43.81149 4.032147
1653 551 1 0.4238 11.360208 44.609797 4.130913
1654 552 1 0.4238 29.56105 36.615533 6.427289
1655 552 2 -0.8476 28.576893 36.789618 6.393702
1656 552 1 0.4238 28.086682 35.920435 6.328781
1657 553 1 0.4238 6.341309 18.884501 14.825923
1658 553 2 -0.8476 5.846721 19.520279 15.418518
1659 553 1 0.4238 5.344552 19.005929 16.113695
1660 554 1 0.4238 35.592068 9.814921 44.866866
1661 554 2 -0.8476 35.158516 9.136638 45.460134
1662 554 1 0.4238 34.808925 8.38247 44.904242
1663 555 1 0.4238 16.681681 1.514183 45.032097
1664 555 2 -0.8476 15.711248 1.500092 45.273055
1665 555 1 0.4238 15.160736 1.611915 44.445751
1666 556 1 0.4238 14.69082 20.674843 19.434405
1667 556 2 -0.8476 15.071106 21.574686 19.22071
1668 556 1 0.4238 15.79122 21.477612 18.533678
1669 557 1 0.4238 41.002108 21.326778 47.762019
1670 557 2 -0.8476 40.128538 21.385817 47.278914
1671 557 1 0.4238 39.523826 22.020538 47.760007
1672 558 1 0.4238 47.506459 12.069099 32.700004
1673 558 2 -0.8476 47.7626 12.893755 32.195688
1674 558 1 0.4238 46.957697 13.475073 32.076527
1675 559 1 0.4238 4.981933 36.265756 11.198975
1676 559 2 -0.8476 4.331675 37.022568 11.265307
1677 559 1 0.4238 4.824738 37.869004 11.466394
1678 560 1 0.4238 16.562863 43.729261 6.488373
1679 560 2 -0.8476 17.22651 43.049492 6.176147
1680 560 1 0.4238 18.152609 43.403999 6.305242
1681 561 1 0.4238 30.822022 36.247734 8.843006
1682 561 2 -0.8476 31.260364 35.349326 8.816163
1683 561 1 0.4238 30.786426 34.728427 9.440556
1684 562 1 0.4238 15.959262 44.691638 27.147111
1685 562 2 -0.8476 15.460638 44.228653 27.879927
1686 562 1 0.4238 15.598837 43.241097 27.804872
1687 563 1 0.4238 9.490061 20.372919 18.643786
1688 563 2 -0.8476 9.339958 21.222625 19.149225
1689 563 1 0.4238 10.215296 21.568626 19.486961
1690 564 1 0.4238 42.028411 45.623036 11.974458
1691 564 2 -0.8476 41.189431 45.079501 12.000581
1692 564 1 0.4238 41.003532 44.709468 11.090352
1693 565 1 0.4238 40.154753 13.504274 42.488895
1694 565 2 -0.8476 40.90685 12.845543 42.468312
1695 565 1 0.4238 40.543348 11.929887 42.296734
1696 566 1 0.4238 45.215546 10.588505 19.651056
1697 566 2 -0.8476 45.316391 11.569973 19.488111
1698 566 1 0.4238 44.735437 12.075217 20.126249
1699 567 1 0.4238 32.402977 29.120943 35.929619
1700 567 2 -0.8476 33.180794 28.590308 35.592829
1701 567 1 0.4238 33.285724 28.739977 34.609676
1702 568 1 0.4238 30.980016 42.576082 15.273414
1703 568 2 -0.8476 31.770105 43.160665 15.457863
1704 568 1 0.4238 31.603554 43.694329 16.286997
1705 569 1 0.4238 10.088152 47.761853 5.128639
1706 569 2 -0.8476 10.845561 47.215757 4.770713
1707 569 1 0.4238 11.464458 46.973961 5.518042
1708 570 1 0.4238 34.528108 13.778574 41.177874
1709 570 2 -0.8476 33.680533 13.369452 40.839886
1710 570 1 0.4238 33.890321 12.519734 40.356183
1711 571 1 0.4238 7.144529 4.096405 33.553309
1712 571 2 -0.8476 6.783631 3.505447 32.831837
1713 571 1 0.4238 6.415187 4.069045 32.092509
1714 572 1 0.4238 1.501389 27.928622 21.36537
1715 572 2 -0.8476 2.247163 28.309378 21.912039
1716 572 1 0.4238 1.984061 29.212356 22.251756
1717 573 1 0.4238 19.554364 16.261656 47.762712
1718 573 2 -0.8476 19.129681 17.166998 47.762713
1719 573 1 0.4238 18.134558 17.068363 47.761882
1720 574 1 0.4238 42.00008 38.624358 29.505479
1721 574 2 -0.8476 42.758218 37.974649 29.449761
1722 574 1 0.4238 42.750283 37.529147 28.554515
1723 575 1 0.4238 30.113153 40.807718 41.687264
1724 575 2 -0.8476 30.379763 41.551399 41.074192
1725 575 1 0.4238 29.564238 42.050596 40.78141
1726 576 1 0.4238 41.75524 21.809817 37.722132
1727 576 2 -0.8476 41.491777 22.559174 38.329629
1728 576 1 0.4238 41.515269 23.42183 37.824384
1729 577 1 0.4238 19.063163 12.899382 26.635232
1730 577 2 -0.8476 18.676663 12.313471 25.922964
1731 577 1 0.4238 17.678744 12.373129 25.947431
1732 578 1 0.4238 15.448272 16.366387 41.06198
1733 578 2 -0.8476 14.651049 15.831246 40.78259
1734 578 1 0.4238 13.96166 16.440219 40.390295
1735 579 1 0.4238 1.500429 36.063266 14.339791
1736 579 2 -0.8476 1.836071 36.419447 13.467737
1737 579 1 0.4238 2.774889 36.108414 13.319822
1738 580 1 0.4238 35.542633 39.42025 39.928174
1739 580 2 -0.8476 34.824256 38.753602 40.126955
1740 580 1 0.4238 34.879142 38.480884 41.087482
1741 581 1 0.4238 24.535673 23.589755 36.878202
1742 581 2 -0.8476 24.554443 22.992381 37.679945
1743 581 1 0.4238 24.920662 23.496043 38.462382
1744 582 1 0.4238 23.198495 38.978285 23.91377
1745 582 2 -0.8476 23.965335 38.663163 23.354615
1746 582 1 0.4238 23.739034 37.778664 22.946633
1747 583 1 0.4238 14.515799 9.416338 23.85273
1748 583 2 -0.8476 13.826881 9.642035 23.163925
1749 583 1 0.4238 13.026776 9.055137 23.287954
1750 584 1 0.4238 32.102004 32.769611 4.070255
1751 584 2 -0.8476 32.538522 32.234254 4.793336
1752 584 1 0.4238 31.92838 31.493381 5.074106
1753 585 1 0.4238 4.285868 42.544148 41.053976
1754 585 2 -0.8476 4.048397 41.899109 41.780291
1755 585 1 0.4238 3.280474 42.260544 42.309116
1756 586 1 0.4238 23.608524 1.500002 27.830248
1757 586 2 -0.8476 23.805618 2.16173 27.106874
1758 586 1 0.4238 23.090236 2.860264 27.090186
1759 587 1 0.4238 24.626122 32.299446 17.239905
1760 587 2 -0.8476 24.204939 33.204855 17.293201
1761 587 1 0.4238 24.919472 33.904137 17.314329
1762 588 1 0.4238 15.414317 3.846372 12.133672
1763 588 2 -0.8476 15.413138 4.844714 12.191212
1764 588 1 0.4238 14.48809 5.186984 12.026478
1765 589 1 0.4238 26.181527 27.513231 4.841685
1766 589 2 -0.8476 25.398099 27.681212 4.243335
1767 589 1 0.4238 24.959016 26.811722 4.017078
1768 590 1 0.4238 27.155864 36.9123 12.627387
1769 590 2 -0.8476 26.463262 37.633604 12.632196
1770 590 1 0.4238 26.912482 38.527004 12.638401
1771 591 1 0.4238 12.228921 21.69006 10.663547
1772 591 2 -0.8476 12.713671 21.506766 9.808315
1773 591 1 0.4238 12.43349 22.172813 9.117026
1774 592 1 0.4238 21.663482 43.365244 30.426882
1775 592 2 -0.8476 21.936554 44.325901 30.376197
1776 592 1 0.4238 22.376251 44.59312 31.233671
1777 593 1 0.4238 6.117712 47.721653 28.116124
1778 593 2 -0.8476 5.631018 47.762685 27.243515
1779 593 1 0.4238 4.907735 47.072222 27.232484
1780 594 1 0.4238 19.133488 23.384872 36.421774
1781 594 2 -0.8476 18.488058 23.751962 37.091598
1782 594 1 0.4238 18.912852 23.754975 37.996883
1783 595 1 0.4238 39.039954 29.412155 44.453672
1784 595 2 -0.8476 39.415414 30.247184 44.051483
1785 595 1 0.4238 38.716749 30.689733 43.489329
1786 596 1 0.4238 28.419801 2.615183 34.10548
1787 596 2 -0.8476 29.24368 2.073966 33.937233
1788 596 1 0.4238 30.027357 2.6853 33.827141
1789 597 1 0.4238 15.6049 30.806944 22.632097
1790 597 2 -0.8476 16.157678 30.610472 23.441933
1791 597 1 0.4238 16.728046 29.807415 23.269365
1792 598 1 0.4238 10.456692 34.999258 47.762323
1793 598 2 -0.8476 11.080432 35.780889 47.762324
1794 598 1 0.4238 10.551398 36.62949 47.762324
1795 599 1 0.4238 8.848134 18.668592 29.114618
1796 599 2 -0.8476 9.387344 18.213522 29.823253
1797 599 1 0.4238 8.778659 17.883138 30.544605
1798 600 1 0.4238 37.217523 42.116788 6.126506
1799 600 2 -0.8476 36.268381 41.989085 5.838721
1800 600 1 0.4238 36.078564 41.012239 5.740025
1801 601 1 0.4238 28.388948 37.6907 25.391902
1802 601 2 -0.8476 27.697509 36.996762 25.191003
1803 601 1 0.4238 28.111725 36.257386 24.660204
1804 602 1 0.4238 13.557928 17.254438 3.847353
1805 602 2 -0.8476 12.647946 16.95183 3.563876
1806 602 1 0.4238 12.012832 17.723238 3.603369
1807 603 1 0.4238 28.612622 29.318797 1.507841
1808 603 2 -0.8476 29.402086 29.932592 1.506262
1809 603 1 0.4238 29.086529 30.881484 1.500973
1810 604 1 0.4238 23.226358 13.776175 8.925971
1811 604 2 -0.8476 23.307098 14.598981 8.363412
1812 604 1 0.4238 22.406464 15.020698 8.258465
1813 605 1 0.4238 32.158709 39.06458 28.342485
1814 605 2 -0.8476 31.316096 39.213251 27.824895
1815 605 1 0.4238 31.450344 39.963913 27.177993
1816 606 1 0.4238 24.84574 35.560352 13.436643
1817 606 2 -0.8476 24.784646 34.919304 14.201709
1818 606 1 0.4238 25.363923 35.239021 14.951523
1819 607 1 0.4238 7.367487 33.974226 10.166606
1820 607 2 -0.8476 7.212335 34.957252 10.264528
1821 607 1 0.4238 8.09202 35.430567 10.310652
1822 608 1 0.4238 14.61204 42.060361 7.473172
1823 608 2 -0.8476 15.360577 41.408212 7.353205
1824 608 1 0.4238 15.008504 40.569387 6.937973
1825 609 1 0.4238 43.874396 1.503553 46.203905
1826 609 2 -0.8476 44.575524 1.713721 45.522548
1827 609 1 0.4238 44.651917 2.705284 45.417821
1828 610 1 0.4238 33.731802 24.652483 26.788652
1829 610 2 -0.8476 33.476145 24.413055 27.725302
1830 610 1 0.4238 32.867036 25.115046 28.094347
1831 611 1 0.4238 21.598438 8.182018 42.663036
1832 611 2 -0.8476 22.102334 7.318258 42.665909
1833 611 1 0.4238 23.084654 7.505443 42.668777
1834 612 1 0.4238 29.07612 44.056411 30.767701
1835 612 2 -0.8476 28.695334 44.965089 30.93889
1836 612 1 0.4238 28.387295 45.023924 31.888443
1837 613 1 0.4238 5.948597 27.426352 40.139474
1838 613 2 -0.8476 6.500754 26.631305 39.888431
1839 613 1 0.4238 5.901342 25.894644 39.575326
1840 614 1 0.4238 45.895466 12.794495 1.501803
1841 614 2 -0.8476 46.004162 11.800421 1.500076
1842 614 1 0.4238 46.97762 11.571561 1.500752
1843 615 1 0.4238 38.595042 12.158832 14.766414
1844 615 2 -0.8476 38.256096 11.485277 15.423254
1845 615 1 0.4238 37.310312 11.702144 15.66504
1846 616 1 0.4238 1.501227 22.434692 7.501
1847 616 2 -0.8476 1.500405 21.45045 7.677827
1848 616 1 0.4238 1.50354 21.289101 8.664719
1849 617 1 0.4238 40.868384 4.052773 4.096439
1850 617 2 -0.8476 40.683834 4.068243 5.07914
1851 617 1 0.4238 39.825179 3.590415 5.264589
1852 618 1 0.4238 20.433625 33.654623 33.731793
1853 618 2 -0.8476 20.527461 34.443348 34.339335
1854 618 1 0.4238 21.470996 34.502639 34.665257
1855 619 1 0.4238 9.98086 26.836581 26.04753
1856 619 2 -0.8476 9.948295 25.966208 26.538844
1857 619 1 0.4238 9.009644 25.621379 26.544169
1858 620 1 0.4238 47.737946 13.350148 3.433312
1859 620 2 -0.8476 47.762522 12.493436 3.94852
1860 620 1 0.4238 46.863575 12.320672 4.351069
1861 621 1 0.4238 40.418382 10.773697 24.961533
1862 621 2 -0.8476 41.164978 10.587644 25.600265
1863 621 1 0.4238 41.126137 9.630974 25.888836
1864 622 1 0.4238 39.665484 35.690864 20.176666
1865 622 2 -0.8476 39.367714 35.136595 19.399414
1866 622 1 0.4238 39.55384 35.628187 18.548712
1867 623 1 0.4238 34.477891 38.113126 31.051636
1868 623 2 -0.8476 33.650797 38.287081 30.517168
1869 623 1 0.4238 32.949437 37.61723 30.760875
1870 624 1 0.4238 15.146557 12.046796 23.359067
1871 624 2 -0.8476 14.549587 12.229477 22.577879
1872 624 1 0.4238 14.237526 13.178937 22.611708
1873 625 1 0.4238 21.732438 36.48737 18.28012
1874 625 2 -0.8476 21.998572 35.625668 17.848098
1875 625 1 0.4238 22.600397 35.116332 18.463227
1876 626 1 0.4238 22.922803 47.657474 10.303147
1877 626 2 -0.8476 21.943873 47.762534 10.128052
1878 626 1 0.4238 21.639851 47.049452 9.49632
1879 627 1 0.4238 32.303447 39.324309 32.817336
1880 627 2 -0.8476 31.52773 39.805925 33.225145
1881 627 1 0.4238 31.587249 40.779721 33.005646
1882 628 1 0.4238 29.699868 29.892426 5.927839
1883 628 2 -0.8476 29.282655 29.767293 6.827992
1884 628 1 0.4238 28.296796 29.636551 6.723166
1885 629 1 0.4238 30.700358 32.598996 43.116933
1886 629 2 -0.8476 30.71406 31.631009 43.367561
1887 629 1 0.4238 29.776997 31.307279 43.498377
1888 630 1 0.4238 8.248077 18.300545 47.762549
1889 630 2 -0.8476 7.25705 18.195224 47.680255
1890 630 1 0.4238 7.019595 17.225154 47.731036
1891 631 1 0.4238 3.794547 42.662599 11.044105
1892 631 2 -0.8476 3.397133 43.479021 10.625158
1893 631 1 0.4238 3.803929 44.295526 11.034835
1894 632 1 0.4238 10.578277 26.589816 1.50737
1895 632 2 -0.8476 10.323325 27.556742 1.50006
1896 632 1 0.4238 9.326724 27.638739 1.507983
1897 633 1 0.4238 7.53464 38.105314 10.622251
1898 633 2 -0.8476 7.388865 38.132606 9.63331
1899 633 1 0.4238 6.606898 37.556379 9.395633
1900 634 1 0.4238 13.053726 8.366066 6.955631
1901 634 2 -0.8476 13.518612 8.214037 7.827852
1902 634 1 0.4238 13.358858 7.274715 8.131418
1903 635 1 0.4238 30.793215 36.884812 44.570152
1904 635 2 -0.8476 30.016472 36.262993 44.67021
1905 635 1 0.4238 30.323636 35.411731 45.095654
1906 636 1 0.4238 43.047522 16.675275 1.507244
1907 636 2 -0.8476 43.071051 15.676052 1.538854
1908 636 1 0.4238 44.020201 15.363607 1.50022
1909 637 1 0.4238 2.976757 34.357066 19.242152
1910 637 2 -0.8476 2.171893 34.267198 18.655536
1911 637 1 0.4238 2.158537 33.355286 18.245368
1912 638 1 0.4238 18.823768 36.134946 13.931343
1913 638 2 -0.8476 18.766041 35.929729 12.954331
1914 638 1 0.4238 19.444468 35.233672 12.719294
1915 639 1 0.4238 30.043818 34.828211 47.755445
1916 639 2 -0.8476 29.67199 33.899938 47.762693
1917 639 1 0.4238 28.960356 33.820471 47.064652
1918 640 1 0.4238 37.052168 1.501721 28.728712
1919 640 2 -0.8476 38.051766 1.510994 28.75551
1920 640 1 0.4238 38.410327 1.501325 27.822054
1921 641 1 0.4238 42.442323 13.288349 40.237648
1922 641 2 -0.8476 42.46187 12.558223 39.554615
1923 641 1 0.4238 42.075007 12.894578 38.69601
1924 642 1 0.4238 27.555716 29.351666 19.694384
1925 642 2 -0.8476 28.056097 29.800612 20.434699
1926 642 1 0.4238 27.938773 30.791153 20.36354
1927 643 1 0.4238 11.627359 40.899326 23.623591
1928 643 2 -0.8476 12.024788 41.703499 24.065582
1929 643 1 0.4238 12.166688 42.422054 23.384742
1930 644 1 0.4238 15.299037 9.512648 16.354871
1931 644 2 -0.8476 15.807844 8.654744 16.426396
1932 644 1 0.4238 15.224337 7.896014 16.136832
1933 645 1 0.4238 18.046883 18.789037 7.91566
1934 645 2 -0.8476 18.364432 17.841651 7.875361
1935 645 1 0.4238 17.660257 17.237904 8.249028
1936 646 1 0.4238 42.204322 40.499814 20.608851
1937 646 2 -0.8476 41.679926 41.147257 21.161866
1938 646 1 0.4238 42.105592 42.05068 21.110539
1939 647 1 0.4238 30.494808 8.102097 29.084841
1940 647 2 -0.8476 30.271251 8.49367 28.192265
1941 647 1 0.4238 29.364203 8.181942 27.909264
1942 648 1 0.4238 29.249099 38.366255 42.609191
1943 648 2 -0.8476 28.627631 38.974984 43.10237
1944 648 1 0.4238 28.493234 38.632097 44.032083
1945 649 1 0.4238 47.760827 38.409682 12.066422
1946 649 2 -0.8476 47.649705 37.539895 11.585671
1947 649 1 0.4238 47.76108 36.785132 12.232145
1948 650 1 0.4238 7.699613 38.01682 17.161532
1949 650 2 -0.8476 7.21996 38.221311 16.308235
1950 650 1 0.4238 7.651003 37.723087 15.555922
1951 651 1 0.4238 43.637475 12.135852 42.511328
1952 651 2 -0.8476 44.025821 11.27933 42.171393
1953 651 1 0.4238 44.904439 11.111168 42.618329
1954 652 1 0.4238 31.669056 27.127018 7.296488
1955 652 2 -0.8476 31.428731 28.060495 7.030283
1956 652 1 0.4238 31.971853 28.330674 6.235285
1957 653 1 0.4238 43.598735 38.099979 43.075184
1958 653 2 -0.8476 42.842936 38.644684 42.711778
1959 653 1 0.4238 42.6775 38.391189 41.758693
1960 654 1 0.4238 26.272565 27.26932 43.037166
1961 654 2 -0.8476 25.837283 28.1185 43.336204
1962 654 1 0.4238 24.936605 27.914283 43.719705
1963 655 1 0.4238 26.902912 9.789277 26.255138
1964 655 2 -0.8476 26.874933 10.143349 27.189937
1965 655 1 0.4238 26.263777 10.933906 27.228768
1966 656 1 0.4238 45.443376 6.841901 46.058393
1967 656 2 -0.8476 44.861003 6.273988 45.476743
1968 656 1 0.4238 45.254374 5.357432 45.404746
1969 657 1 0.4238 36.37866 20.56791 34.662886
1970 657 2 -0.8476 36.805943 20.82669 35.529178
1971 657 1 0.4238 36.82333 20.036257 36.14148
1972 658 1 0.4238 40.160337 24.209332 8.09643
1973 658 2 -0.8476 40.932912 24.843995 8.114642
1974 658 1 0.4238 40.59205 25.784108 8.11458
1975 659 1 0.4238 30.473719 47.146261 10.389369
1976 659 2 -0.8476 30.279407 47.762567 11.152527
1977 659 1 0.4238 30.340154 47.256899 12.013113
1978 660 1 0.4238 36.522652 41.704507 26.660052
1979 660 2 -0.8476 36.803031 42.054881 27.55371
1980 660 1 0.4238 36.982384 43.036308 27.48563
1981 661 1 0.4238 15.494958 26.56253 5.463403
1982 661 2 -0.8476 15.967198 25.925362 4.8543
1983 661 1 0.4238 15.308118 25.518294 4.221917
1984 662 1 0.4238 43.597769 46.867398 44.951829
1985 662 2 -0.8476 44.553731 46.852119 45.244922
1986 662 1 0.4238 44.819835 47.762534 45.561675
1987 663 1 0.4238 24.350761 43.041903 41.528814
1988 663 2 -0.8476 24.675532 43.966446 41.329453
1989 663 1 0.4238 24.498004 44.558786 42.115339
1990 664 1 0.4238 34.635739 8.221553 1.500703
1991 664 2 -0.8476 35.046089 7.870586 2.342389
1992 664 1 0.4238 35.856468 7.329484 2.11768
1993 665 1 0.4238 43.024026 32.406152 42.99075
1994 665 2 -0.8476 42.743547 31.47957 43.241304
1995 665 1 0.4238 43.062189 31.273578 44.166525
1996 666 1 0.4238 8.769098 36.328212 44.776667
1997 666 2 -0.8476 9.040445 35.730106 45.530749
1998 666 1 0.4238 8.960478 34.775362 45.244273
1999 667 1 0.4238 45.15764 28.575458 40.550846
2000 667 2 -0.8476 45.523583 27.882684 41.172256
2001 667 1 0.4238 45.818 27.084986 40.645951
2002 668 1 0.4238 25.595458 1.865336 25.040214
2003 668 2 -0.8476 26.157717 2.585219 25.447196
2004 668 1 0.4238 26.264715 3.334281 24.793394
2005 669 1 0.4238 26.255606 22.650497 28.485842
2006 669 2 -0.8476 26.538587 23.530115 28.103491
2007 669 1 0.4238 27.387331 23.411948 27.588059
2008 670 1 0.4238 12.951665 5.35978 30.503586
2009 670 2 -0.8476 13.452273 6.079228 30.985027
2010 670 1 0.4238 13.195067 6.074827 31.951374
2011 671 1 0.4238 39.247625 14.088219 39.183847
2012 671 2 -0.8476 39.407164 13.756361 40.113588
2013 671 1 0.4238 39.908882 12.892083 40.077504
2014 672 1 0.4238 47.762148 21.258678 25.913571
2015 672 2 -0.8476 47.751432 20.263368 26.009712
2016 672 1 0.4238 47.762109 19.840828 25.103431
2017 673 1 0.4238 37.621681 44.370365 32.53697
2018 673 2 -0.8476 38.280311 45.039398 32.881357
2019 673 1 0.4238 38.767152 45.454064 32.112568
2020 674 1 0.4238 37.045837 25.265319 45.245743
2021 674 2 -0.8476 36.53838 25.943355 44.713996
2022 674 1 0.4238 37.140117 26.342953 44.022452
2023 675 1 0.4238 40.595548 11.029958 7.246293
2024 675 2 -0.8476 40.183092 11.940737 7.265311
2025 675 1 0.4238 39.214801 11.863242 7.502811
2026 676 1 0.4238 21.16241 34.248475 39.27945
2027 676 2 -0.8476 22.094065 33.894368 39.198048
2028 676 1 0.4238 22.28322 33.670544 38.241951
2029 677 1 0.4238 37.243544 15.248054 43.818395
2030 677 2 -0.8476 38.020952 15.059511 43.218322
2031 677 1 0.4238 37.837791 15.432004 42.308541
2032 678 1 0.4238 7.309937 8.996078 37.013907
2033 678 2 -0.8476 7.046864 8.086264 36.692922
2034 678 1 0.4238 7.865914 7.574748 36.433099
2035 679 1 0.4238 26.915512 5.863982 29.911437
2036 679 2 -0.8476 26.321387 5.059762 29.895815
2037 679 1 0.4238 26.880409 4.233718 29.824087
2038 680 1 0.4238 1.500188 1.502077 7.936464
2039 680 2 -0.8476 1.50004 2.498655 7.853808
2040 680 1 0.4238 2.431673 2.819024 7.682271
2041 681 1 0.4238 31.150333 15.993504 36.238
2042 681 2 -0.8476 30.631041 15.867927 37.08332
2043 681 1 0.4238 30.509222 16.752184 37.534151
2044 682 1 0.4238 20.200196 40.2587 31.707295
2045 682 2 -0.8476 19.963443 39.310374 31.918541
2046 682 1 0.4238 19.341857 38.958213 31.218818
2047 683 1 0.4238 10.185387 33.830033 24.518213
2048 683 2 -0.8476 10.666505 32.953883 24.488425
2049 683 1 0.4238 11.651533 33.116323 24.430691
2050 684 1 0.4238 24.647649 8.045959 44.865539
2051 684 2 -0.8476 25.397154 7.388509 44.788067
2052 684 1 0.4238 26.158028 7.680665 45.367475
2053 685 1 0.4238 1.501064 31.762168 32.66699
2054 685 2 -0.8476 1.502826 32.452657 33.39033
2055 685 1 0.4238 1.500997 32.000833 34.282435
2056 686 1 0.4238 4.334559 32.616895 23.183321
2057 686 2 -0.8476 4.381081 31.798631 23.756279
2058 686 1 0.4238 4.144143 30.995273 23.20995
2059 687 1 0.4238 32.636492 28.379434 47.761572
2060 687 2 -0.8476 32.421202 27.402885 47.760265
2061 687 1 0.4238 31.428737 27.280368 47.758982
2062 688 1 0.4238 44.808462 5.418859 40.667553
2063 688 2 -0.8476 44.322887 4.547709 40.740451
2064 688 1 0.4238 43.973651 4.284504 39.841141
2065 689 1 0.4238 45.116521 47.758836 24.012249
2066 689 2 -0.8476 45.129878 47.487103 23.049969
2067 689 1 0.4238 44.272483 47.761108 22.614315
2068 690 1 0.4238 31.434976 47.113622 1.500429
2069 690 2 -0.8476 30.673209 47.761472 1.501769
2070 690 1 0.4238 29.8085 47.259202 1.503339
2071 691 1 0.4238 34.546349 22.323966 42.754023
2072 691 2 -0.8476 35.445444 22.52285 43.14399
2073 691 1 0.4238 35.337386 23.099755 43.953622
2074 692 1 0.4238 46.635353 44.663887 43.748267
2075 692 2 -0.8476 46.875862 43.988184 43.051431
2076 692 1 0.4238 47.762707 43.582484 43.272593
2077 693 1 0.4238 1.500243 38.81074 25.597859
2078 693 2 -0.8476 2.427194 39.143396 25.424361
2079 693 1 0.4238 3.053672 38.36655 25.360836
2080 694 1 0.4238 45.065153 29.647479 33.701428
2081 694 2 -0.8476 45.046764 30.314268 34.446448
2082 694 1 0.4238 45.09502 29.835819 35.323236
2083 695 1 0.4238 45.177693 11.526095 22.783729
2084 695 2 -0.8476 45.641874 11.133127 23.577524
2085 695 1 0.4238 45.663587 10.137061 23.491623
2086 696 1 0.4238 15.509139 32.150448 20.235144
2087 696 2 -0.8476 15.36922 31.740663 19.333756
2088 696 1 0.4238 15.800125 30.838659 19.307156
2089 697 1 0.4238 6.879399 4.672907 28.045397
2090 697 2 -0.8476 7.081161 4.933154 28.989624
2091 697 1 0.4238 6.866995 4.169612 29.598834
2092 698 1 0.4238 7.420882 14.876285 11.978645
2093 698 2 -0.8476 6.485601 14.598705 11.759101
2094 698 1 0.4238 6.342123 13.652355 12.048643
2095 699 1 0.4238 38.839459 8.266996 37.777141
2096 699 2 -0.8476 37.885791 8.282264 37.476666
2097 699 1 0.4238 37.624341 7.37364 37.151018
2098 700 1 0.4238 27.402647 18.514696 24.311788
2099 700 2 -0.8476 28.39122 18.622698 24.41695
2100 700 1 0.4238 28.59305 19.547529 24.739366
2101 701 1 0.4238 44.257218 17.799655 29.356295
2102 701 2 -0.8476 44.202818 17.531407 28.394482
2103 701 1 0.4238 43.367821 17.00251 28.242671
2104 702 1 0.4238 21.045742 38.647509 25.803574
2105 702 2 -0.8476 20.403031 39.344974 26.120537
2106 702 1 0.4238 19.481512 39.116338 25.806645
2107 703 1 0.4238 28.597401 26.391626 4.159205
2108 703 2 -0.8476 29.258346 27.09775 4.413253
2109 703 1 0.4238 30.117889 26.666543 4.687563
2110 704 1 0.4238 7.122782 45.497077 26.870144
2111 704 2 -0.8476 7.394096 44.774252 27.505685
2112 704 1 0.4238 8.381489 44.628814 27.443207
2113 705 1 0.4238 29.004399 11.599155 30.938662
2114 705 2 -0.8476 28.215581 11.806558 31.517238
2115 705 1 0.4238 27.778321 10.953788 31.802873
2116 706 1 0.4238 36.284719 35.468153 44.964183
2117 706 2 -0.8476 35.474037 35.899168 45.360441
2118 706 1 0.4238 35.653002 36.871587 45.510013
2119 707 1 0.4238 14.855104 46.624977 39.444299
2120 707 2 -0.8476 14.640524 47.590444 39.592046
2121 707 1 0.4238 14.536677 47.762695 40.571609
2122 708 1 0.4238 34.205051 26.645853 6.271637
2123 708 2 -0.8476 35.203327 26.684925 6.315424
2124 708 1 0.4238 35.520775 27.547198 5.920821
2125 709 1 0.4238 47.762327 26.940791 47.762758
2126 709 2 -0.8476 47.76031 27.242758 46.809441
2127 709 1 0.4238 47.761034 26.444606 46.206986
2128 710 1 0.4238 43.995937 44.779577 31.36114
2129 710 2 -0.8476 44.752412 44.125744 31.345402
2130 710 1 0.4238 45.620722 44.621168 31.321045
2131 711 1 0.4238 17.181165 19.93418 20.335515
2132 711 2 -0.8476 17.296567 19.379167 19.511717
2133 711 1 0.4238 17.954563 19.820765 18.901772
2134 712 1 0.4238 15.417287 36.656512 23.496205
2135 712 2 -0.8476 15.827557 35.745061 23.465634
2136 712 1 0.4238 15.821629 35.345945 24.382515
2137 713 1 0.4238 21.397808 22.000889 22.116381
2138 713 2 -0.8476 21.796289 22.798763 21.664044
2139 713 1 0.4238 21.225667 23.601001 21.839555
2140 714 1 0.4238 34.18225 26.444231 31.359557
2141 714 2 -0.8476 33.880827 26.879129 32.20809
2142 714 1 0.4238 33.486246 26.18882 32.814538
2143 715 1 0.4238 13.044439 42.646871 31.830154
2144 715 2 -0.8476 12.508123 43.405058 32.200988
2145 715 1 0.4238 12.245941 43.198192 33.143573
2146 716 1 0.4238 46.31929 23.531648 18.025596
2147 716 2 -0.8476 47.222511 23.483062 17.599181
2148 716 1 0.4238 47.761982 24.280548 17.869345
2149 717 1 0.4238 40.964279 1.523942 22.893568
2150 717 2 -0.8476 40.112827 1.500121 22.369677
2151 717 1 0.4238 39.334657 1.512479 22.997608
2152 718 1 0.4238 30.803029 19.16805 23.147555
2153 718 2 -0.8476 31.168992 20.019152 23.52398
2154 718 1 0.4238 31.308523 19.915245 24.508731
2155 719 1 0.4238 7.128689 21.853859 16.264299
2156 719 2 -0.8476 7.465347 21.655101 17.18471
2157 719 1 0.4238 7.016565 20.832255 17.533306
2158 720 1 0.4238 30.198561 44.217907 6.483555
2159 720 2 -0.8476 30.188868 45.115632 6.043106
2160 720 1 0.4238 30.851026 45.126447 5.293821
2161 721 1 0.4238 26.815853 1.501858 47.762543
2162 721 2 -0.8476 25.873153 1.833111 47.722698
2163 721 1 0.4238 25.869706 2.832746 47.749495
2164 722 1 0.4238 36.174445 45.286412 37.767592
2165 722 2 -0.8476 36.882528 45.524975 37.102982
2166 722 1 0.4238 37.589646 46.071896 37.551157
2167 723 1 0.4238 17.082486 40.229575 34.205892
2168 723 2 -0.8476 18.002494 40.049881 33.857617
2169 723 1 0.4238 18.49865 40.913243 33.765775
2170 724 1 0.4238 11.372132 28.7293 22.992947
2171 724 2 -0.8476 10.847772 28.31844 22.247132
2172 724 1 0.4238 9.873346 28.492234 22.389568
2173 725 1 0.4238 40.696479 33.244917 40.732591
2174 725 2 -0.8476 40.192295 32.441775 41.050021
2175 725 1 0.4238 40.414855 32.26606 42.008974
2176 726 1 0.4238 39.332761 6.704809 5.369826
2177 726 2 -0.8476 38.635404 6.060715 5.055444
2178 726 1 0.4238 38.787519 5.849839 4.08984
2179 727 1 0.4238 44.685504 17.392283 32.041914
2180 727 2 -0.8476 43.747721 17.693335 32.214915
2181 727 1 0.4238 43.171524 16.89784 32.402491
2182 728 1 0.4238 6.433233 42.617334 15.856215
2183 728 2 -0.8476 5.760855 42.218073 15.232918
2184 728 1 0.4238 6.075159 41.316087 14.936887
2185 729 1 0.4238 11.966567 32.32865 8.569329
2186 729 2 -0.8476 11.719736 32.334416 7.600287
2187 729 1 0.4238 12.54486 32.447781 7.046827
2188 730 1 0.4238 20.088762 45.740677 45.35956
2189 730 2 -0.8476 19.251471 46.27843 45.260741
2190 730 1 0.4238 18.482658 45.666864 45.073893
2191 731 1 0.4238 5.125428 24.281953 4.224613
2192 731 2 -0.8476 5.030083 23.384866 4.656057
2193 731 1 0.4238 4.871433 23.50169 5.636456
2194 732 1 0.4238 13.096183 17.530378 33.054149
2195 732 2 -0.8476 12.806752 17.947734 32.19273
2196 732 1 0.4238 13.610196 18.269199 31.691592
2197 733 1 0.4238 45.713748 8.805393 9.385619
2198 733 2 -0.8476 45.311297 7.901631 9.239856
2199 733 1 0.4238 45.31141 7.393831 10.10133
2200 734 1 0.4238 16.203459 33.413282 1.500008
2201 734 2 -0.8476 17.095715 33.823555 1.688571
2202 734 1 0.4238 17.057293 34.805255 1.502055
2203 735 1 0.4238 46.893362 28.010031 17.861648
2204 735 2 -0.8476 47.762361 28.43383 18.117062
2205 735 1 0.4238 47.604694 29.109727 18.836994
2206 736 1 0.4238 11.718157 12.503194 47.248396
2207 736 2 -0.8476 11.126512 11.875301 47.75407
2208 736 1 0.4238 10.192256 12.231798 47.762786
2209 737 1 0.4238 18.427638 27.555389 34.646701
2210 737 2 -0.8476 19.112216 27.671406 33.927053
2211 737 1 0.4238 19.401127 28.628155 33.892965
2212 738 1 0.4238 40.746753 32.034553 30.557504
2213 738 2 -0.8476 41.202896 31.403564 29.92998
2214 738 1 0.4238 41.315111 31.842859 29.038673
2215 739 1 0.4238 29.927308 41.515508 20.64974
2216 739 2 -0.8476 30.632223 41.509644 19.940473
2217 739 1 0.4238 31.009032 42.430184 19.837419
2218 740 1 0.4238 5.306719 16.152293 45.905595
2219 740 2 -0.8476 4.417617 15.952046 45.494015
2220 740 1 0.4238 4.117544 16.736232 44.950869
2221 741 1 0.4238 25.704403 22.443012 16.849852
2222 741 2 -0.8476 25.874449 22.526168 17.831773
2223 741 1 0.4238 26.221499 23.44205 18.033558
2224 742 1 0.4238 12.911936 38.721682 24.702814
2225 742 2 -0.8476 13.432729 38.521606 23.872909
2226 742 1 0.4238 13.898841 39.35062 23.563919
2227 743 1 0.4238 47.016282 41.984808 41.171585
2228 743 2 -0.8476 46.875869 41.083089 40.762699
2229 743 1 0.4238 47.762542 40.661381 40.573034
2230 744 1 0.4238 5.668816 16.327623 15.58225
2231 744 2 -0.8476 5.226162 15.444548 15.426572
2232 744 1 0.4238 5.704793 14.955767 14.697185
2233 745 1 0.4238 26.61988 39.978119 21.55478
2234 745 2 -0.8476 26.959396 39.415075 20.801314
2235 745 1 0.4238 27.738683 39.8699 20.370215
2236 746 1 0.4238 18.043632 42.993345 26.570896
2237 746 2 -0.8476 18.768538 43.471197 26.074741
2238 746 1 0.4238 18.576495 44.452557 26.067523
2239 747 1 0.4238 13.182892 14.335194 4.218336
2240 747 2 -0.8476 14.172521 14.302938 4.078358
2241 747 1 0.4238 14.62377 14.887328 4.752792
2242 748 1 0.4238 26.002045 15.188114 6.297833
2243 748 2 -0.8476 26.33893 14.247147 6.264828
2244 748 1 0.4238 25.569727 13.62221 6.131484
2245 749 1 0.4238 8.51687 20.24704 7.203991
2246 749 2 -0.8476 7.839599 20.662673 6.596904
2247 749 1 0.4238 8.305969 21.109157 5.833261
2248 750 1 0.4238 15.186233 32.976338 41.721044
2249 750 2 -0.8476 15.671008 33.182727 40.871105
2250 750 1 0.4238 15.63797 32.386663 40.266795
2251 751 1 0.4238 12.140698 16.097941 24.396148
2252 751 2 -0.8476 11.530864 16.874526 24.237977
2253 751 1 0.4238 11.751936 17.298444 23.359672
2254 752 1 0.4238 8.598674 19.351241 42.378542
2255 752 2 -0.8476 7.719356 19.637182 41.997703
2256 752 1 0.4238 7.7179 20.629068 41.870582
2257 753 1 0.4238 43.826115 21.711191 31.409129
2258 753 2 -0.8476 43.525584 20.771507 31.245806
2259 753 1 0.4238 44.32409 20.173644 31.175478
2260 754 1 0.4238 21.503553 35.816695 7.52033
2261 754 2 -0.8476 21.779552 36.710767 7.873118
2262 754 1 0.4238 22.291615 36.589938 8.723525
2263 755 1 0.4238 3.785266 14.341145 11.307952
2264 755 2 -0.8476 2.951252 14.838714 11.069526
2265 755 1 0.4238 3.092323 15.334417 10.212568
2266 756 1 0.4238 1.500231 39.123157 44.166405
2267 756 2 -0.8476 2.061359 38.875581 43.376568
2268 756 1 0.4238 2.291254 39.700049 42.85946
2269 757 1 0.4238 5.335883 25.148289 42.160096
2270 757 2 -0.8476 4.461805 24.922924 41.729747
2271 757 1 0.4238 3.82763 24.580147 42.422801
2272 758 1 0.4238 14.098025 13.185171 45.832762
2273 758 2 -0.8476 13.62421 12.500925 45.27841
2274 758 1 0.4238 13.41601 12.886287 44.379439
2275 759 1 0.4238 16.953556 33.214761 23.065462
2276 759 2 -0.8476 17.720751 33.833213 22.895378
2277 759 1 0.4238 18.492819 33.313719 22.529268
2278 760 1 0.4238 45.28052 27.125032 34.861515
2279 760 2 -0.8476 45.098496 26.208054 35.216505
2280 760 1 0.4238 44.144053 26.147105 35.508606
2281 761 1 0.4238 29.103918 15.717277 21.036186
2282 761 2 -0.8476 29.471543 15.517699 20.127879
2283 761 1 0.4238 28.766369 15.077168 19.572305
2284 762 1 0.4238 32.832134 44.62494 35.802095
2285 762 2 -0.8476 32.136368 44.774733 35.099619
2286 762 1 0.4238 31.371364 44.148335 35.249263
2287 763 1 0.4238 46.799209 13.127797 43.570321
2288 763 2 -0.8476 46.530288 12.646576 44.404651
2289 763 1 0.4238 45.579751 12.866107 44.624392
2290 764 1 0.4238 7.604663 13.502456 4.297561
2291 764 2 -0.8476 6.744874 14.011277 4.254375
2292 764 1 0.4238 6.918183 14.928828 3.896516
2293 765 1 0.4238 23.310671 27.698739 6.032744
2294 765 2 -0.8476 22.878208 28.094513 6.842892
2295 765 1 0.4238 23.271863 27.683593 7.665193
2296 766 1 0.4238 47.126569 37.250796 43.019506
2297 766 2 -0.8476 47.761769 36.50544 42.817105
2298 766 1 0.4238 47.245883 35.669687 42.629014
2299 767 1 0.4238 20.452006 27.268182 39.494001
2300 767 2 -0.8476 19.463328 27.118604 39.482101
2301 767 1 0.4238 19.274108 26.156622 39.285161
2302 768 1 0.4238 47.762285 36.538262 39.572165
2303 768 2 -0.8476 47.223546 37.116403 40.184957
2304 768 1 0.4238 47.759958 37.920233 40.442094
2305 769 1 0.4238 47.760979 1.541546 44.33162
2306 769 2 -0.8476 47.185371 2.319005 44.585063
2307 769 1 0.4238 47.761006 3.064086 44.921958
2308 770 1 0.4238 32.553387 43.955088 23.668013
2309 770 2 -0.8476 31.961485 44.421272 24.325527
2310 770 1 0.4238 32.428092 44.48441 25.207735
2311 771 1 0.4238 6.316166 1.501937 40.803507
2312 771 2 -0.8476 5.635848 1.517725 41.536254
2313 771 1 0.4238 6.099619 1.501823 42.422066
2314 772 1 0.4238 13.592109 41.426311 27.313805
2315 772 2 -0.8476 13.655879 40.676206 26.655569
2316 772 1 0.4238 13.589723 39.802815 27.138075
2317 773 1 0.4238 26.292301 35.859859 28.958753
2318 773 2 -0.8476 26.953719 35.694331 29.690276
2319 773 1 0.4238 26.47611 35.356565 30.501327
2320 774 1 0.4238 23.379391 37.28073 39.416554
2321 774 2 -0.8476 22.518415 37.538097 39.855283
2322 774 1 0.4238 21.796589 36.908574 39.567763
2323 775 1 0.4238 32.047464 5.072115 4.02362
2324 775 2 -0.8476 32.972634 4.698758 4.091915
2325 775 1 0.4238 32.932699 3.700249 4.054694
2326 776 1 0.4238 36.24333 11.387303 38.722444
2327 776 2 -0.8476 36.60831 12.317132 38.769421
2328 776 1 0.4238 36.560843 12.64659 39.712397
2329 777 1 0.4238 39.325145 16.937492 6.877486
2330 777 2 -0.8476 40.26969 17.265218 6.898216
2331 777 1 0.4238 40.275133 18.264815 6.92608
2332 778 1 0.4238 24.072506 47.760534 31.435921
2333 778 2 -0.8476 23.257196 47.186199 31.362382
2334 778 1 0.4238 22.457856 47.762398 31.191942
2335 779 1 0.4238 41.324372 22.341775 35.020741
2336 779 2 -0.8476 41.45555 22.322047 34.029578
2337 779 1 0.4238 42.416695 22.498135 33.816994
2338 780 1 0.4238 45.938437 7.123318 26.724082
2339 780 2 -0.8476 45.768711 6.32175 26.150774
2340 780 1 0.4238 44.978676 5.820623 26.503923
2341 781 1 0.4238 36.505 7.346774 13.959458
2342 781 2 -0.8476 35.554652 7.641718 14.058693
2343 781 1 0.4238 35.521762 8.637664 14.142414
2344 782 1 0.4238 39.430059 41.457771 14.994609
2345 782 2 -0.8476 40.29479 41.086942 14.655894
2346 782 1 0.4238 40.635094 40.397556 15.295378
2347 783 1 0.4238 1.500512 30.113163 42.960301
2348 783 2 -0.8476 2.07771 29.323369 43.167831
2349 783 1 0.4238 1.500265 28.530484 43.362487
2350 784 1 0.4238 31.463283 45.998793 37.750976
2351 784 2 -0.8476 30.759348 45.289562 37.712679
2352 784 1 0.4238 30.002563 45.601743 37.138379
2353 785 1 0.4238 21.626626 22.889942 35.37412
2354 785 2 -0.8476 21.875516 23.239969 36.27719
2355 785 1 0.4238 21.700986 22.537133 36.966798
2356 786 1 0.4238 43.228572 30.529329 40.696956
2357 786 2 -0.8476 42.63693 31.310757 40.498642
2358 786 1 0.4238 43.197598 32.092556 40.225802
2359 787 1 0.4238 25.596964 31.606935 1.534613
2360 787 2 -0.8476 26.337737 30.935729 1.507445
2361 787 1 0.4238 25.95163 30.013301 1.500422
2362 788 1 0.4238 16.590131 47.762631 26.445219
2363 788 2 -0.8476 17.359404 47.762482 27.084139
2364 788 1 0.4238 18.194433 47.500391 26.600367
2365 789 1 0.4238 21.740101 32.356392 9.540587
2366 789 2 -0.8476 22.255676 33.115045 9.93887
2367 789 1 0.4238 21.978895 33.971379 9.502885
2368 790 1 0.4238 13.922203 14.063284 19.855649
2369 790 2 -0.8476 14.548254 14.840895 19.797501
2370 790 1 0.4238 15.073279 14.910268 20.645755
2371 791 1 0.4238 1.500865 10.771712 15.224212
2372 791 2 -0.8476 1.501603 10.214683 16.054705
2373 791 1 0.4238 1.504323 9.24602 15.806344
2374 792 1 0.4238 39.280155 4.016493 46.899624
2375 792 2 -0.8476 38.728855 4.123338 46.072187
2376 792 1 0.4238 38.467726 3.221885 45.726942
2377 793 1 0.4238 1.596445 17.301308 5.831926
2378 793 2 -0.8476 1.507284 17.985479 5.108076
2379 793 1 0.4238 1.500638 18.899921 5.512738
2380 794 1 0.4238 9.459153 30.400622 37.570112
2381 794 2 -0.8476 10.09679 29.639328 37.687802
2382 794 1 0.4238 10.589557 29.481929 36.831994
2383 795 1 0.4238 18.501178 10.302567 28.969057
2384 795 2 -0.8476 18.180945 10.770883 28.14557
2385 795 1 0.4238 17.193416 10.915744 28.207219
2386 796 1 0.4238 31.124344 17.242445 17.34069
2387 796 2 -0.8476 30.335219 16.68525 17.599178
2388 796 1 0.4238 30.602962 15.72226 17.630213
2389 797 1 0.4238 1.501735 46.946318 30.777909
2390 797 2 -0.8476 1.500415 46.902362 31.776942
2391 797 1 0.4238 1.848982 47.762684 32.14889
2392 798 1 0.4238 47.762709 47.170688 4.491147
2393 798 2 -0.8476 47.69447 46.250966 4.877741
2394 798 1 0.4238 47.283486 45.636124 4.204642
2395 799 1 0.4238 28.027044 36.359533 46.528428
2396 799 2 -0.8476 27.788927 36.467821 47.493609
2397 799 1 0.4238 27.148859 35.747836 47.761815
2398 800 1 0.4238 1.764044 28.605266 8.749881
2399 800 2 -0.8476 1.500026 29.45316 8.290131
2400 800 1 0.4238 1.507467 30.205664 8.948676
2401 801 1 0.4238 4.330505 38.405857 41.549443
2402 801 2 -0.8476 5.070133 37.751194 41.393345
2403 801 1 0.4238 4.751958 37.029042 40.779129
2404 802 1 0.4238 47.761124 22.360157 13.862024
2405 802 2 -0.8476 47.745961 22.312927 12.863255
2406 802 1 0.4238 47.761122 23.238717 12.485522
2407 803 1 0.4238 31.304086 11.590362 40.262642
2408 803 2 -0.8476 30.496714 11.23863 40.736388
2409 803 1 0.4238 29.672308 11.52889 40.250484
2410 804 1 0.4238 29.294076 7.257175 42.889438
2411 804 2 -0.8476 30.282484 7.406606 42.862628
2412 804 1 0.4238 30.49958 8.073245 42.149563
2413 805 1 0.4238 38.836117 32.054032 16.69283
2414 805 2 -0.8476 38.142352 32.3175 17.36311
2415 805 1 0.4238 38.328806 33.244315 17.689066
2416 806 1 0.4238 3.649674 47.7576 23.76621
2417 806 2 -0.8476 4.088901 47.755412 24.664583
2418 806 1 0.4238 5.08229 47.761308 24.549935
2419 807 1 0.4238 42.46382 43.016365 23.659796
2420 807 2 -0.8476 42.830654 42.95423 24.588005
2421 807 1 0.4238 42.208251 43.410927 25.223647
2422 808 1 0.4238 1.517866 45.174177 20.164194
2423 808 2 -0.8476 1.500114 44.566615 20.958268
2424 808 1 0.4238 1.793314 43.650791 20.683857
2425 809 1 0.4238 40.717468 42.465488 36.986254
2426 809 2 -0.8476 41.654241 42.80867 36.917821
2427 809 1 0.4238 41.688869 43.552231 36.250051
2428 810 1 0.4238 35.920765 24.879041 1.501434
2429 810 2 -0.8476 36.866468 25.203341 1.523242
2430 810 1 0.4238 37.169476 25.283663 2.472839
2431 811 1 0.4238 15.77219 30.693438 1.503838
2432 811 2 -0.8476 14.951438 30.473379 2.031037
2433 811 1 0.4238 14.370561 29.855553 1.501063
2434 812 1 0.4238 9.174561 7.548938 45.090749
2435 812 2 -0.8476 8.318941 8.025173 44.887984
2436 812 1 0.4238 7.565886 7.577332 45.370007
2437 813 1 0.4238 47.76029 16.52368 28.257513
2438 813 2 -0.8476 47.762746 17.501616 28.048627
2439 813 1 0.4238 46.936142 17.735154 27.536587
2440 814 1 0.4238 36.670056 35.433115 24.742282
2441 814 2 -0.8476 36.516679 35.858886 25.634019
2442 814 1 0.4238 36.315084 36.830378 25.509274
2443 815 1 0.4238 11.00916 16.359081 1.503069
2444 815 2 -0.8476 10.36445 17.123311 1.520452
2445 815 1 0.4238 9.428963 16.770065 1.52944
2446 816 1 0.4238 14.978426 33.440232 6.238399
2447 816 2 -0.8476 14.585583 34.252093 6.670321
2448 816 1 0.4238 15.125146 34.494821 7.476518
2449 817 1 0.4238 6.742885 2.347918 19.827057
2450 817 2 -0.8476 6.211474 1.793132 20.467225
2451 817 1 0.4238 6.797026 1.506363 21.225442
2452 818 1 0.4238 9.162795 12.394369 26.781627
2453 818 2 -0.8476 8.290708 12.573507 26.326242
2454 818 1 0.4238 7.680647 13.058016 26.9532
2455 819 1 0.4238 33.323933 41.557344 40.185565
2456 819 2 -0.8476 32.863706 40.675097 40.284715
2457 819 1 0.4238 32.62472 40.320379 39.380801
2458 820 1 0.4238 45.261874 4.303622 19.720256
2459 820 2 -0.8476 44.93046 3.388483 19.949793
2460 820 1 0.4238 45.621734 2.909657 20.490964
2461 821 1 0.4238 43.596699 36.852369 36.106913
2462 821 2 -0.8476 44.452485 37.36072 36.202877
2463 821 1 0.4238 45.215956 36.718404 36.270268
2464 822 1 0.4238 45.420481 17.806475 23.102197
2465 822 2 -0.8476 45.518814 16.855396 22.809318
2466 822 1 0.4238 46.041339 16.821313 21.957376
2467 823 1 0.4238 13.342368 21.916372 24.342349
2468 823 2 -0.8476 13.817364 22.767265 24.566758
2469 823 1 0.4238 14.784836 22.57542 24.731666
2470 824 1 0.4238 32.62266 41.459451 47.762083
2471 824 2 -0.8476 33.597789 41.681085 47.760497
2472 824 1 0.4238 33.713847 42.674322 47.757043
2473 825 1 0.4238 18.291387 34.168165 39.34076
2474 825 2 -0.8476 18.461467 33.50593 38.611022
2475 825 1 0.4238 17.93953 32.671839 38.789552
2476 826 1 0.4238 5.094431 30.262781 43.114941
2477 826 2 -0.8476 4.499489 30.291253 42.311676
2478 826 1 0.4238 3.964081 31.135767 42.323215
2479 827 1 0.4238 29.38122 22.608606 42.231896
2480 827 2 -0.8476 29.753469 23.536139 42.198537
2481 827 1 0.4238 30.458114 23.587244 41.49082
2482 828 1 0.4238 34.905159 13.443428 21.90839
2483 828 2 -0.8476 35.23595 14.386443 21.944452
2484 828 1 0.4238 35.347222 14.664379 22.898584
2485 829 1 0.4238 3.829478 32.756668 44.540271
2486 829 2 -0.8476 3.330461 33.440789 44.00833
2487 829 1 0.4238 2.487714 33.036721 43.652654
2488 830 1 0.4238 2.193105 19.695478 24.48753
2489 830 2 -0.8476 1.500215 19.468452 23.803159
2490 830 1 0.4238 1.528324 18.487058 23.613222
2491 831 1 0.4238 20.475007 1.507631 39.744387
2492 831 2 -0.8476 20.448855 1.500076 40.744016
2493 831 1 0.4238 21.352252 1.734818 41.102861
2494 832 1 0.4238 31.866905 42.756009 8.532642
2495 832 2 -0.8476 31.345777 41.909465 8.424071
2496 832 1 0.4238 30.383808 42.128795 8.261255
2497 833 1 0.4238 40.582646 25.357412 36.04234
2498 833 2 -0.8476 41.550207 25.283333 35.800811
2499 833 1 0.4238 41.635346 25.067102 34.828188
2500 834 1 0.4238 44.026205 34.843851 21.628712
2501 834 2 -0.8476 44.186081 33.866836 21.769714
2502 834 1 0.4238 43.335956 33.428732 22.061864
2503 835 1 0.4238 30.041502 18.883366 10.107872
2504 835 2 -0.8476 29.183467 18.973827 9.60231
2505 835 1 0.4238 28.929016 18.087156 9.216216
2506 836 1 0.4238 30.670513 11.611142 11.945477
2507 836 2 -0.8476 31.175543 12.474244 11.946419
2508 836 1 0.4238 31.984144 12.386649 12.52822
2509 837 1 0.4238 33.139291 26.287907 1.50077
2510 837 2 -0.8476 33.211386 25.297355 1.61743
2511 837 1 0.4238 32.300522 24.911954 1.765055
2512 838 1 0.4238 17.662863 26.543138 42.841907
2513 838 2 -0.8476 17.855251 27.489588 42.58264
2514 838 1 0.4238 16.994372 27.974788 42.429449
2515 839 1 0.4238 27.92763 44.993862 25.995364
2516 839 2 -0.8476 28.661326 44.7743 25.352338
2517 839 1 0.4238 28.267393 44.551192 24.460688
2518 840 1 0.4238 7.119851 33.764681 18.847733
2519 840 2 -0.8476 7.223215 32.822913 18.52775
2520 840 1 0.4238 7.416322 32.823557 17.546573
2521 841 1 0.4238 47.762141 26.234325 19.788486
2522 841 2 -0.8476 47.186809 26.842343 20.335576
2523 841 1 0.4238 47.760831 27.371205 20.960719
2524 842 1 0.4238 6.713792 26.782836 1.500034
2525 842 2 -0.8476 6.789565 27.098897 2.445742
2526 842 1 0.4238 6.661904 26.325636 3.066846
2527 843 1 0.4238 10.838667 45.505096 24.556084
2528 843 2 -0.8476 10.684319 44.615023 24.127193
2529 843 1 0.4238 10.020307 44.71289 23.385904
2530 844 1 0.4238 41.708521 38.752046 1.500775
2531 844 2 -0.8476 41.854295 39.558118 2.074359
2532 844 1 0.4238 41.868809 40.377141 1.500783
2533 845 1 0.4238 23.188964 33.512307 26.319677
2534 845 2 -0.8476 23.883096 32.796149 26.246878
2535 845 1 0.4238 23.51754 31.939429 26.610745
2536 846 1 0.4238 22.029331 16.864585 10.577057
2537 846 2 -0.8476 21.279689 16.202796 10.585569
2538 846 1 0.4238 21.62541 15.31129 10.878302
2539 847 1 0.4238 38.075566 27.614054 46.250711
2540 847 2 -0.8476 37.842119 27.922195 47.172965
2541 847 1 0.4238 37.695842 27.127967 47.762715
2542 848 1 0.4238 9.44921 18.777982 36.489392
2543 848 2 -0.8476 10.447032 18.834662 36.523137
2544 848 1 0.4238 10.830384 17.915114 36.609584
2545 849 1 0.4238 20.787561 33.592471 3.047867
2546 849 2 -0.8476 20.178834 33.390086 2.280735
2547 849 1 0.4238 20.423674 33.965273 1.500214
2548 850 1 0.4238 41.280375 39.545448 18.040967
2549 850 2 -0.8476 40.880004 38.965571 18.750507
2550 850 1 0.4238 40.926033 38.008564 18.464119
2551 851 1 0.4238 7.018752 6.357728 16.548454
2552 851 2 -0.8476 6.772549 5.754401 15.789915
2553 851 1 0.4238 5.777316 5.724964 15.696942
2554 852 1 0.4238 31.962135 14.781529 33.045054
2555 852 2 -0.8476 32.507606 14.881578 32.212916
2556 852 1 0.4238 32.031738 15.484919 31.572972
2557 853 1 0.4238 7.145749 20.830654 44.552714
2558 853 2 -0.8476 7.940367 20.580541 45.105909
2559 853 1 0.4238 7.826401 19.648883 45.45091
2560 854 1 0.4238 46.391878 41.858371 24.62116
2561 854 2 -0.8476 47.151615 42.355597 24.202154
2562 854 1 0.4238 47.762778 41.708284 23.74667
2563 855 1 0.4238 31.412098 35.401368 37.558186
2564 855 2 -0.8476 30.482989 35.041306 37.642515
2565 855 1 0.4238 29.996441 35.539224 38.360393
2566 856 1 0.4238 33.041077 22.248511 19.682705
2567 856 2 -0.8476 32.545205 22.308778 18.816403
2568 856 1 0.4238 32.536616 23.258232 18.502617
2569 857 1 0.4238 28.557253 17.696762 44.431481
2570 857 2 -0.8476 27.734425 17.129919 44.472
2571 857 1 0.4238 27.939958 16.218137 44.116458
2572 858 1 0.4238 29.473204 9.773741 1.501933
2573 858 2 -0.8476 29.366013 8.963885 2.078686
2574 858 1 0.4238 29.299396 8.150036 1.501441
2575 859 1 0.4238 46.894193 45.859594 37.485036
2576 859 2 -0.8476 47.76274 46.094152 37.921624
2577 859 1 0.4238 47.687225 46.993604 38.352069
2578 860 1 0.4238 40.708627 1.501024 18.868879
2579 860 2 -0.8476 40.894084 1.895831 19.768731
2580 860 1 0.4238 41.734711 1.500762 20.139224
2581 861 1 0.4238 10.92659 37.850283 22.963727
2582 861 2 -0.8476 10.166602 38.058831 22.348158
2583 861 1 0.4238 9.712523 38.896688 22.651154
2584 862 1 0.4238 8.932072 23.100197 27.637695
2585 862 2 -0.8476 8.22368 22.912472 26.957298
2586 862 1 0.4238 8.346157 21.988566 26.594811
2587 863 1 0.4238 5.637966 20.525658 47.761865
2588 863 2 -0.8476 6.338996 21.044554 47.272677
2589 863 1 0.4238 7.208744 20.972067 47.760819
2590 864 1 0.4238 19.270138 14.793057 12.198858
2591 864 2 -0.8476 18.421226 15.282316 11.998922
2592 864 1 0.4238 18.47886 16.212125 12.362424
2593 865 1 0.4238 32.402107 47.762072 34.986824
2594 865 2 -0.8476 31.462312 47.424559 34.933241
2595 865 1 0.4238 30.941744 47.761991 35.717554
2596 866 1 0.4238 19.533257 44.149529 4.048072
2597 866 2 -0.8476 20.438189 44.573535 4.011771
2598 866 1 0.4238 20.338954 45.560764 3.887155
2599 867 1 0.4238 11.314018 35.64893 43.986848
2600 867 2 -0.8476 10.991465 35.749655 43.045671
2601 867 1 0.4238 10.740623 36.703324 42.879555
2602 868 1 0.4238 24.684486 28.870878 12.040709
2603 868 2 -0.8476 25.661558 28.658925 12.020563
2604 868 1 0.4238 26.084822 29.112097 11.236037
2605 869 1 0.4238 14.125978 44.785881 5.40922
2606 869 2 -0.8476 14.702054 45.568881 5.643841
2607 869 1 0.4238 14.126401 46.371933 5.79789
2608 870 1 0.4238 1.503788 18.511487 44.329233
2609 870 2 -0.8476 1.583101 18.281241 45.299128
2610 870 1 0.4238 1.501894 17.291233 45.414407
2611 871 1 0.4238 2.389014 8.808908 47.762473
2612 871 2 -0.8476 1.526161 8.372948 47.506693
2613 871 1 0.4238 1.500279 8.241001 46.515775
2614 872 1 0.4238 14.259281 45.31179 21.830744
2615 872 2 -0.8476 13.835896 45.009781 22.684872
2616 872 1 0.4238 12.93644 45.436298 22.780066
2617 873 1 0.4238 43.800747 18.210004 3.629824
2618 873 2 -0.8476 44.695295 17.770167 3.709379
2619 873 1 0.4238 44.57589 16.778592 3.759585
2620 874 1 0.4238 47.746018 30.370201 12.979898
2621 874 2 -0.8476 47.762722 30.792033 13.886418
2622 874 1 0.4238 47.754592 31.787443 13.791057
2623 875 1 0.4238 40.395314 17.80679 25.052912
2624 875 2 -0.8476 40.551779 17.020495 25.650624
2625 875 1 0.4238 39.706104 16.493797 25.736772
2626 876 1 0.4238 20.075904 37.657485 47.762658
2627 876 2 -0.8476 19.856729 37.609991 46.788129
2628 876 1 0.4238 19.785478 38.535838 46.417008
2629 877 1 0.4238 15.984965 47.753932 19.318286
2630 877 2 -0.8476 16.121099 47.183126 20.128007
2631 877 1 0.4238 16.155112 47.762505 20.942355
2632 878 1 0.4238 11.574012 47.76171 23.207857
2633 878 2 -0.8476 10.826651 47.760402 22.54344
2634 878 1 0.4238 11.073612 47.183142 21.765122
2635 879 1 0.4238 40.399487 16.209958 38.124247
2636 879 2 -0.8476 41.189025 16.438589 38.693771
2637 879 1 0.4238 41.655467 15.598194 38.969756
2638 880 1 0.4238 4.004169 47.365575 33.988476
2639 880 2 -0.8476 4.717078 47.762735 33.410528
2640 880 1 0.4238 5.587496 47.755904 33.902793
2641 881 1 0.4238 17.413432 7.91804 37.496203
2642 881 2 -0.8476 17.140493 7.408877 38.312449
2643 881 1 0.4238 16.646894 8.016433 38.934732
2644 882 1 0.4238 19.747768 2.365874 37.238965
2645 882 2 -0.8476 20.192177 1.500088 37.008935
2646 882 1 0.4238 21.184687 1.610894 37.060377
2647 883 1 0.4238 8.743539 7.887895 14.528398
2648 883 2 -0.8476 7.776578 8.086015 14.367976
2649 883 1 0.4238 7.672958 8.550511 13.488483
2650 884 1 0.4238 25.145041 1.50062 15.619766
2651 884 2 -0.8476 25.673056 2.072294 14.991763
2652 884 1 0.4238 26.067173 1.500711 14.272065
2653 885 1 0.4238 4.455077 47.01028 19.429136
2654 885 2 -0.8476 3.764226 46.347627 19.139971
2655 885 1 0.4238 4.191736 45.649607 18.565513
2656 886 1 0.4238 13.046384 23.209083 18.33121
2657 886 2 -0.8476 12.585043 22.322036 18.313589
2658 886 1 0.4238 12.439104 22.041024 17.365046
2659 887 1 0.4238 13.963328 47.747276 9.157297
2660 887 2 -0.8476 14.097483 47.759473 8.166412
2661 887 1 0.4238 15.076492 47.762124 7.962613
2662 888 1 0.4238 22.097263 1.502144 45.179639
2663 888 2 -0.8476 21.745166 1.500039 44.243678
2664 888 1 0.4238 22.463061 1.802805 43.616815
2665 889 1 0.4238 30.199715 10.160389 5.35992
2666 889 2 -0.8476 29.861218 10.267444 4.425062
2667 889 1 0.4238 30.584251 10.651247 3.850676
2668 890 1 0.4238 13.076648 32.415675 1.500629
2669 890 2 -0.8476 13.388372 33.36557 1.523585
2670 890 1 0.4238 12.596442 33.976081 1.534703
2671 891 1 0.4238 19.24541 17.133403 30.4773
2672 891 2 -0.8476 20.095177 16.664395 30.717981
2673 891 1 0.4238 20.872716 17.261889 30.521938
2674 892 1 0.4238 17.176181 18.548595 45.373544
2675 892 2 -0.8476 16.430768 17.882263 45.392542
2676 892 1 0.4238 15.610692 18.310275 45.772386
2677 893 1 0.4238 7.352831 38.526542 6.912056
2678 893 2 -0.8476 6.551779 38.147488 6.44877
2679 893 1 0.4238 6.035034 38.887143 6.017626
2680 894 1 0.4238 18.704509 18.283351 10.567979
2681 894 2 -0.8476 19.247612 19.121394 10.515798
2682 894 1 0.4238 20.163334 18.904612 10.177481
2683 895 1 0.4238 44.847552 24.268996 2.502355
2684 895 2 -0.8476 44.473976 23.611705 3.156885
2685 895 1 0.4238 44.676495 22.682291 2.848379
2686 896 1 0.4238 10.062807 24.975874 46.679033
2687 896 2 -0.8476 9.813273 24.949245 47.647033
2688 896 1 0.4238 8.887903 25.310215 47.762749
2689 897 1 0.4238 14.836381 46.334606 29.51849
2690 897 2 -0.8476 15.448447 46.782674 28.866869
2691 897 1 0.4238 15.250647 47.762635 28.843404
2692 898 1 0.4238 35.376286 44.91626 15.504288
2693 898 2 -0.8476 34.600143 44.350589 15.225687
2694 898 1 0.4238 33.819897 44.937886 15.010516
2695 899 1 0.4238 21.62357 1.575565 16.941426
2696 899 2 -0.8476 20.723265 1.50018 16.512744
2697 899 1 0.4238 20.094792 2.149556 16.940917
2698 900 1 0.4238 26.93868 47.762326 31.310466
2699 900 2 -0.8476 26.682081 47.519638 32.246019
2700 900 1 0.4238 27.425598 47.762275 32.869163
2701 901 1 0.4238 47.761429 1.501854 23.049678
2702 901 2 -0.8476 47.521386 2.026918 22.233169
2703 901 1 0.4238 47.761461 1.501811 21.416697
2704 902 1 0.4238 44.17146 18.743732 11.496477
2705 902 2 -0.8476 44.244662 17.810875 11.143748
2706 902 1 0.4238 45.040298 17.362136 11.550685
2707 903 1 0.4238 34.238411 43.634852 20.695576
2708 903 2 -0.8476 34.396776 43.510539 21.6751
2709 903 1 0.4238 35.12097 42.834777 21.812533
2710 904 1 0.4238 10.176585 7.736533 1.508438
2711 904 2 -0.8476 9.478656 8.452665 1.501302
2712 904 1 0.4238 9.921214 9.349404 1.500873
2713 905 1 0.4238 19.238989 11.545948 21.396371
2714 905 2 -0.8476 19.746149 11.38543 20.549599
2715 905 1 0.4238 20.707147 11.626049 20.685932
2716 906 1 0.4238 9.614763 19.735037 21.445624
2717 906 2 -0.8476 10.471328 19.354326 21.097262
2718 906 1 0.4238 10.28509 18.494014 20.622732
2719 907 1 0.4238 12.095792 39.397559 1.538645
2720 907 2 -0.8476 12.766822 38.657111 1.5005
2721 907 1 0.4238 12.474697 37.911376 2.099285
2722 908 1 0.4238 8.843379 43.553275 19.806852
2723 908 2 -0.8476 8.444381 42.850225 19.218191
2724 908 1 0.4238 7.537376 42.604516 19.560198
2725 909 1 0.4238 16.686873 34.062175 47.762617
2726 909 2 -0.8476 15.906977 34.688083 47.761969
2727 909 1 0.4238 15.865556 35.168093 46.885684
2728 910 1 0.4238 41.134679 11.586817 12.65798
2729 910 2 -0.8476 40.622181 10.728736 12.6257
2730 910 1 0.4238 39.645375 10.926767 12.544256
2731 911 1 0.4238 9.725304 40.731198 6.233078
2732 911 2 -0.8476 9.233705 40.525341 7.079218
2733 911 1 0.4238 9.134136 41.361429 7.618702
2734 912 1 0.4238 15.850835 12.055189 34.954814
2735 912 2 -0.8476 15.110201 11.676155 35.509607
2736 912 1 0.4238 14.390408 11.32595 34.91023
2737 913 1 0.4238 38.50444 8.287709 26.017024
2738 913 2 -0.8476 39.003243 8.028979 25.189827
2739 913 1 0.4238 38.363479 7.656246 24.517687
2740 914 1 0.4238 19.050204 1.500009 9.933816
2741 914 2 -0.8476 19.290749 1.993107 9.097758
2742 914 1 0.4238 19.846715 2.791268 9.329791
2743 915 1 0.4238 16.918341 17.523224 21.97726
2744 915 2 -0.8476 16.919446 16.527509 21.884791
2745 915 1 0.4238 17.85304 16.184248 21.987619
2746 916 1 0.4238 20.252242 31.462277 45.118752
2747 916 2 -0.8476 21.15982 31.362749 45.52667
2748 916 1 0.4238 21.618743 30.568298 45.128882
2749 917 1 0.4238 1.520481 20.182028 3.133202
2750 917 2 -0.8476 1.500159 20.776918 2.329651
2751 917 1 0.4238 1.530167 20.218467 1.500657
2752 918 1 0.4238 16.992905 25.972215 36.462267
2753 918 2 -0.8476 17.307528 26.261264 37.366404
2754 918 1 0.4238 17.461746 27.2493 37.365521
2755 919 1 0.4238 15.650542 37.173867 26.450665
2756 919 2 -0.8476 15.798969 38.162085 26.487996
2757 919 1 0.4238 15.569008 38.567337 25.603187
2758 920 1 0.4238 7.766654 40.838071 9.945407
2759 920 2 -0.8476 8.450509 40.697805 10.661415
2760 920 1 0.4238 9.349826 40.570498 10.243059
2761 921 1 0.4238 40.659148 40.578315 6.531979
2762 921 2 -0.8476 39.798777 41.012071 6.264364
2763 921 1 0.4238 39.962698 41.97585 6.053986
2764 922 1 0.4238 5.073571 44.837569 21.040422
2765 922 2 -0.8476 4.172412 44.745011 21.463914
2766 922 1 0.4238 3.866012 45.63781 21.794108
2767 923 1 0.4238 38.796225 23.168446 38.145368
2768 923 2 -0.8476 37.859238 22.94509 38.414006
2769 923 1 0.4238 37.420796 22.417209 37.686607
2770 924 1 0.4238 32.800636 40.420876 23.070134
2771 924 2 -0.8476 32.991734 41.335682 22.714308
2772 924 1 0.4238 32.203661 41.661513 22.19203
2773 925 1 0.4238 12.76196 13.469878 39.159804
2774 925 2 -0.8476 13.577123 13.230069 38.632546
2775 925 1 0.4238 14.202005 14.010504 38.611515
2776 926 1 0.4238 8.779414 26.305787 38.384037
2777 926 2 -0.8476 8.36492 25.401226 38.284214
2778 926 1 0.4238 8.985847 24.804286 37.776167
2779 927 1 0.4238 45.289705 14.278028 23.739489
2780 927 2 -0.8476 44.695636 14.234571 22.936249
2781 927 1 0.4238 45.25604 14.190341 22.109212
2782 928 1 0.4238 44.726517 34.240061 9.126434
2783 928 2 -0.8476 44.024863 34.040188 9.810344
2784 928 1 0.4238 43.844721 33.056663 9.825457
2785 929 1 0.4238 42.181725 38.45808 45.404095
2786 929 2 -0.8476 41.72589 37.613056 45.683647
2787 929 1 0.4238 42.236599 37.190895 46.432617
2788 930 1 0.4238 38.661969 23.237557 35.373996
2789 930 2 -0.8476 38.558127 24.015379 34.75415
2790 930 1 0.4238 39.2474 23.960239 34.03175
2791 931 1 0.4238 20.72578 16.905849 38.592691
2792 931 2 -0.8476 21.700788 16.872063 38.812277
2793 931 1 0.4238 21.932756 15.96379 39.160459
2794 932 1 0.4238 5.23107 9.725541 4.746335
2795 932 2 -0.8476 4.858214 8.904597 4.313867
2796 932 1 0.4238 4.009259 9.134764 3.838158
2797 933 1 0.4238 36.83185 43.340741 34.961212
2798 933 2 -0.8476 36.180665 44.093233 34.86265
2799 933 1 0.4238 35.249735 43.728412 34.846105
2800 934 1 0.4238 33.411617 30.656728 27.319435
2801 934 2 -0.8476 32.9622 31.108512 26.548777
2802 934 1 0.4238 31.992577 30.864126 26.538451
2803 935 1 0.4238 14.924429 21.385756 44.569716
2804 935 2 -0.8476 15.584 20.665802 44.353768
2805 935 1 0.4238 15.423952 20.335194 43.42367
2806 936 1 0.4238 16.483777 20.132169 4.360197
2807 936 2 -0.8476 16.122943 19.587607 3.603063
2808 936 1 0.4238 15.917249 18.663613 3.925437
2809 937 1 0.4238 10.840022 2.624605 26.049192
2810 937 2 -0.8476 10.330795 1.876035 26.473844
2811 937 1 0.4238 10.861602 1.500739 27.23371
2812 938 1 0.4238 10.841955 8.793727 21.335965
2813 938 2 -0.8476 11.348182 8.772517 20.473825
2814 938 1 0.4238 12.297001 9.042496 20.637695
2815 939 1 0.4238 19.054604 17.678965 14.946152
2816 939 2 -0.8476 19.093437 18.616154 15.292804
2817 939 1 0.4238 19.023746 18.605728 16.290318
2818 940 1 0.4238 3.848245 45.477092 13.517392
2819 940 2 -0.8476 4.096567 44.831784 14.239828
2820 940 1 0.4238 3.680193 45.120296 15.102031
2821 941 1 0.4238 31.61613 45.120789 40.442881
2822 941 2 -0.8476 31.059564 44.304543 40.28804
2823 941 1 0.4238 31.582693 43.640935 39.753288
2824 942 1 0.4238 24.163318 32.318612 32.630689
2825 942 2 -0.8476 23.197734 32.189722 32.856595
2826 942 1 0.4238 23.058766 32.355872 33.832854
2827 943 1 0.4238 7.820066 22.130464 1.500315
2828 943 2 -0.8476 8.655148 21.580339 1.50018
2829 943 1 0.4238 9.452159 22.184304 1.500043
2830 944 1 0.4238 2.419141 5.877058 18.744716
2831 944 2 -0.8476 1.500037 5.643318 19.061913
2832 944 1 0.4238 1.501451 4.714462 19.432351
2833 945 1 0.4238 28.091045 10.639883 47.762758
2834 945 2 -0.8476 27.927741 10.721282 46.779546
2835 945 1 0.4238 27.188958 10.102705 46.512036
2836 946 1 0.4238 18.805196 47.762623 20.042686
2837 946 2 -0.8476 19.304119 47.179851 20.684131
2838 946 1 0.4238 18.653733 46.64749 21.225971
2839 947 1 0.4238 20.572674 24.817068 18.321327
2840 947 2 -0.8476 21.321598 24.404836 18.840149
2841 947 1 0.4238 21.074381 23.470575 19.097131
2842 948 1 0.4238 19.02675 13.782505 5.329703
2843 948 2 -0.8476 18.13027 14.225156 5.310156
2844 948 1 0.4238 17.763094 14.275539 6.238941
2845 949 1 0.4238 34.652636 31.311262 10.760101
2846 949 2 -0.8476 34.05817 30.924575 11.465143
2847 949 1 0.4238 34.600079 30.353114 12.081394
2848 950 1 0.4238 13.570327 34.635687 22.073142
2849 950 2 -0.8476 13.393601 33.679521 22.306624
2850 950 1 0.4238 14.239429 33.252749 22.626685
2851 951 1 0.4238 47.762753 13.097161 13.773876
2852 951 2 -0.8476 47.142101 12.360927 13.504151
2853 951 1 0.4238 46.330461 12.378507 14.088043
2854 952 1 0.4238 20.472343 23.261203 30.631623
2855 952 2 -0.8476 19.95157 22.606969 30.083194
2856 952 1 0.4238 19.797526 21.774268 30.615058
2857 953 1 0.4238 40.056854 18.020419 10.813305
2858 953 2 -0.8476 40.13682 17.072667 10.504483
2859 953 1 0.4238 39.22447 16.673148 10.415029
2860 954 1 0.4238 39.941469 11.063515 22.268869
2861 954 2 -0.8476 39.737795 10.091548 22.386325
2862 954 1 0.4238 38.912547 9.859339 21.871499
2863 955 1 0.4238 36.678116 2.962518 47.761683
2864 955 2 -0.8476 36.392568 2.197385 47.184592
2865 955 1 0.4238 35.949113 1.501345 47.749282
2866 956 1 0.4238 6.160347 30.51954 25.896814
2867 956 2 -0.8476 5.647212 29.814933 25.40669
2868 956 1 0.4238 6.161611 28.957498 25.420737
2869 957 1 0.4238 22.763375 42.40277 32.850614
2870 957 2 -0.8476 23.746043 42.220534 32.816643
2871 957 1 0.4238 24.248276 43.065042 33.002567
2872 958 1 0.4238 27.932864 1.501692 36.397628
2873 958 2 -0.8476 28.685325 2.068654 36.732826
2874 958 1 0.4238 29.083942 1.646233 37.546869
2875 959 1 0.4238 28.154425 16.582647 36.125239
2876 959 2 -0.8476 27.502695 16.528186 35.368746
2877 959 1 0.4238 27.737824 17.210429 34.676461
2878 960 1 0.4238 36.902272 4.98262 12.612231
2879 960 2 -0.8476 37.166117 4.124265 13.052246
2880 960 1 0.4238 37.479781 4.309743 13.983488
2881 961 1 0.4238 35.275833 24.287474 33.677342
2882 961 2 -0.8476 35.828592 24.242721 34.509481
2883 961 1 0.4238 35.560868 23.441614 35.044785
2884 962 1 0.4238 12.553655 24.661607 47.762767
2885 962 2 -0.8476 13.547998 24.738112 47.689086
2886 962 1 0.4238 13.779662 25.493173 47.075723
2887 963 1 0.4238 20.568186 37.249306 23.485299
2888 963 2 -0.8476 20.003958 38.058733 23.322592
2889 963 1 0.4238 20.58928 38.825628 23.0594
2890 964 1 0.4238 28.932841 44.387933 14.976006
2891 964 2 -0.8476 29.717638 44.959423 14.736226
2892 964 1 0.4238 29.463628 45.580329 13.994637
2893 965 1 0.4238 19.870789 32.236755 36.151807
2894 965 2 -0.8476 20.647937 31.773759 35.725571
2895 965 1 0.4238 21.500251 32.150069 36.088822
2896 966 1 0.4238 13.565636 36.595023 15.159588
2897 966 2 -0.8476 12.727929 37.110784 14.98004
2898 966 1 0.4238 12.197451 36.648148 14.269715
2899 967 1 0.4238 41.494148 25.36618 17.752176
2900 967 2 -0.8476 40.789713 26.03075 18.001408
2901 967 1 0.4238 39.997501 25.551083 18.378661
2902 968 1 0.4238 10.347726 1.535996 19.398682
2903 968 2 -0.8476 9.381489 1.500157 19.653835
2904 968 1 0.4238 9.256259 1.932742 20.546688
2905 969 1 0.4238 2.41517 29.456 3.862023
2906 969 2 -0.8476 1.500058 29.771155 4.113513
2907 969 1 0.4238 1.510783 30.76382 4.233932
2908 970 1 0.4238 20.811752 38.491059 10.049118
2909 970 2 -0.8476 20.177463 38.173353 10.753916
2910 970 1 0.4238 20.155239 37.173603 10.756173
2911 971 1 0.4238 8.376392 36.18316 23.262467
2912 971 2 -0.8476 8.973881 36.25527 24.061095
2913 971 1 0.4238 8.793264 37.116682 24.535801
2914 972 1 0.4238 10.117476 5.129207 40.364157
2915 972 2 -0.8476 9.395764 5.352695 39.709036
2916 972 1 0.4238 9.575191 4.885578 38.843237
2917 973 1 0.4238 47.762303 7.48201 17.594187
2918 973 2 -0.8476 47.527567 6.540972 17.350573
2919 973 1 0.4238 46.578715 6.357031 17.607175
2920 974 1 0.4238 44.913146 35.2808 38.594416
2921 974 2 -0.8476 45.180632 34.567742 39.24249
2922 974 1 0.4238 45.159094 33.677935 38.786663
2923 975 1 0.4238 30.930932 18.987619 29.393449
2924 975 2 -0.8476 30.259671 19.627473 29.767609
2925 975 1 0.4238 30.03833 19.366699 30.707293
2926 976 1 0.4238 32.83662 18.661227 47.762666
2927 976 2 -0.8476 32.398919 17.762281 47.744976
2928 976 1 0.4238 33.100412 17.049704 47.756862
2929 977 1 0.4238 46.837561 40.511457 3.8721
2930 977 2 -0.8476 47.762639 40.188003 4.071123
2931 977 1 0.4238 47.752636 39.193594 4.176244
2932 978 1 0.4238 37.178219 15.67218 38.573911
2933 978 2 -0.8476 36.706412 16.038384 39.375967
2934 978 1 0.4238 36.681343 15.343088 40.094253
2935 979 1 0.4238 32.229734 13.674806 7.25348
2936 979 2 -0.8476 32.112519 14.665263 7.180989
2937 979 1 0.4238 33.009698 15.104769 7.137358
2938 980 1 0.4238 37.977263 46.398189 19.221061
2939 980 2 -0.8476 38.374024 47.311949 19.308377
2940 980 1 0.4238 38.372214 47.762799 18.415779
2941 981 1 0.4238 9.371355 7.599631 18.964335
2942 981 2 -0.8476 9.417775 6.615948 19.138154
2943 981 1 0.4238 9.979446 6.446717 19.948022
2944 982 1 0.4238 9.751407 1.500316 45.711307
2945 982 2 -0.8476 10.037246 2.430626 45.94113
2946 982 1 0.4238 9.246087 3.041119 45.904187
2947 983 1 0.4238 37.456207 39.526596 3.881551
2948 983 2 -0.8476 37.398609 38.580501 4.200278
2949 983 1 0.4238 37.212674 38.570512 5.182789
2950 984 1 0.4238 26.444296 4.107749 8.207681
2951 984 2 -0.8476 25.484004 4.20344 8.469754
2952 984 1 0.4238 24.901454 3.983748 7.687213
2953 985 1 0.4238 47.762254 1.501059 27.391908
2954 985 2 -0.8476 47.721741 1.600268 26.397667
2955 985 1 0.4238 46.775053 1.501228 26.091117
2956 986 1 0.4238 4.276845 22.197909 31.036734
2957 986 2 -0.8476 4.895666 21.893235 31.760774
2958 986 1 0.4238 4.858372 22.537943 32.524292
2959 987 1 0.4238 4.094508 40.209093 27.317546
2960 987 2 -0.8476 4.888358 39.989539 26.75045
2961 987 1 0.4238 4.795486 40.435277 25.860118
2962 988 1 0.4238 3.679605 26.096892 16.533987
2963 988 2 -0.8476 3.355736 25.157258 16.644423
2964 988 1 0.4238 2.372514 25.162853 16.826749
2965 989 1 0.4238 32.359975 47.762733 22.994725
2966 989 2 -0.8476 31.949799 47.311333 22.202264
2967 989 1 0.4238 30.984827 47.1252 22.387151
2968 990 1 0.4238 37.957239 10.984503 34.513608
2969 990 2 -0.8476 38.899829 11.318454 34.514406
2970 990 1 0.4238 38.899318 12.318053 34.486099
2971 991 1 0.4238 10.409033 18.924867 33.775982
2972 991 2 -0.8476 9.810866 19.194837 33.021453
2973 991 1 0.4238 10.36357 19.389012 32.211013
2974 992 1 0.4238 40.311258 9.059817 35.198686
2975 992 2 -0.8476 40.859403 8.883195 36.016208
2976 992 1 0.4238 40.867135 9.69869 36.594919
2977 993 1 0.4238 7.37461 47.762791 9.60976
2978 993 2 -0.8476 7.140983 47.075553 10.297599
2979 993 1 0.4238 6.311984 46.591693 10.01717
2980 994 1 0.4238 46.560287 4.896342 4.225486
2981 994 2 -0.8476 47.551683 5.024995 4.20135
2982 994 1 0.4238 47.760943 6.002853 4.199316
2983 995 1 0.4238 38.874461 8.992832 32.854971
2984 995 2 -0.8476 38.335392 8.668536 32.077644
2985 995 1 0.4238 38.491028 7.689063 31.949548
2986 996 1 0.4238 37.663827 31.26224 5.736494
2987 996 2 -0.8476 37.923863 30.301432 5.832556
2988 996 1 0.4238 37.216815 29.814431 6.345306
2989 997 1 0.4238 44.091249 26.394225 4.07418
2990 997 2 -0.8476 44.802854 27.096734 4.06428
2991 997 1 0.4238 44.404423 27.97087 3.786542
2992 998 1 0.4238 15.806207 28.348032 45.152759
2993 998 2 -0.8476 16.165614 27.428495 44.993771
2994 998 1 0.4238 15.469291 26.752267 45.234291
2995 999 1 0.4238 7.45967 40.886407 26.368222
2996 999 2 -0.8476 7.821487 40.851146 27.299804
2997 999 1 0.4238 8.23798 41.730885 27.529134
2998 1000 1 0.4238 42.608934 43.274745 13.512789
2999 1000 2 -0.8476 42.524289 42.709712 12.692074
3000 1000 1 0.4238 41.579775 42.394252 12.600545
3001 1001 1 0.4238 25.463247 19.002811 34.253148
3002 1001 2 -0.8476 24.789184 18.553788 34.839677
3003 1001 1 0.4238 25.003874 17.579559 34.908858
3004 1002 1 0.4238 33.218656 36.82388 10.062079
3005 1002 2 -0.8476 33.859103 36.133005 9.726639
3006 1002 1 0.4238 33.722567 35.279677 10.229819
3007 1003 1 0.4238 47.760952 19.571647 29.865332
3008 1003 2 -0.8476 47.54805 18.799337 30.463839
3009 1003 1 0.4238 46.555887 18.70102 30.540945
3010 1004 1 0.4238 7.082883 2.221646 27.56019
3011 1004 2 -0.8476 7.68689 1.512257 27.196951
3012 1004 1 0.4238 7.624748 1.500507 26.198953
3013 1005 1 0.4238 40.880284 47.152898 32.542169
3014 1005 2 -0.8476 41.482097 47.76016 32.023465
3015 1005 1 0.4238 41.2057 47.762063 31.062423
3016 1006 1 0.4238 47.762749 14.835016 38.811217
3017 1006 2 -0.8476 46.960398 14.382703 39.200633
3018 1006 1 0.4238 46.888019 14.610231 40.171711
3019 1007 1 0.4238 12.021379 36.222912 29.001947
3020 1007 2 -0.8476 12.556133 37.063052 29.092519
3021 1007 1 0.4238 12.846429 37.372628 28.187041
3022 1008 1 0.4238 5.128661 6.211431 30.521771
3023 1008 2 -0.8476 4.379702 6.869896 30.447718
3024 1008 1 0.4238 4.235309 7.311447 31.33326
3025 1009 1 0.4238 27.78569 26.59966 35.34909
3026 1009 2 -0.8476 28.60837 26.099823 35.078236
3027 1009 1 0.4238 29.194454 25.964701 35.877139
3028 1010 1 0.4238 3.073095 29.010134 24.77378
3029 1010 2 -0.8476 2.441804 29.724486 25.075728
3030 1010 1 0.4238 1.500196 29.412809 24.948326
3031 1011 1 0.4238 28.508249 6.959972 36.95567
3032 1011 2 -0.8476 28.870056 6.649707 36.076563
3033 1011 1 0.4238 29.843912 6.869854 36.020519
3034 1012 1 0.4238 47.752803 8.668566 7.58239
3035 1012 2 -0.8476 47.762703 8.387356 6.622795
3036 1012 1 0.4238 47.752712 7.388911 6.56794
3037 1013 1 0.4238 14.962724 21.405246 27.983982
3038 1013 2 -0.8476 14.391732 21.355239 27.164551
3039 1013 1 0.4238 14.654439 20.556346 26.623484
3040 1014 1 0.4238 26.890583 38.211986 27.665948
3041 1014 2 -0.8476 27.535268 38.254266 28.429226
3042 1014 1 0.4238 28.425881 37.909407 28.132779
3043 1015 1 0.4238 12.764841 14.160706 10.599075
3044 1015 2 -0.8476 11.855621 14.570312 10.67352
3045 1015 1 0.4238 11.234467 13.92455 11.117545
3046 1016 1 0.4238 21.783597 17.908366 15.188579
3047 1016 2 -0.8476 21.811931 18.886499 14.982538
3048 1016 1 0.4238 22.702676 19.119224 14.592137
3049 1017 1 0.4238 37.281041 35.570838 9.330883
3050 1017 2 -0.8476 36.469406 35.945124 8.882376
3051 1017 1 0.4238 36.630374 36.903849 8.647991
3052 1018 1 0.4238 19.792882 30.610317 3.708709
3053 1018 2 -0.8476 19.028428 29.965935 3.728238
3054 1018 1 0.4238 18.222941 30.415939 4.113838
3055 1019 1 0.4238 44.25127 40.26885 45.393858
3056 1019 2 -0.8476 44.000833 40.451441 44.443099
3057 1019 1 0.4238 43.153137 40.981308 44.417572
3058 1020 1 0.4238 35.153331 17.870145 36.425841
3059 1020 2 -0.8476 35.838523 17.145929 36.503451
3060 1020 1 0.4238 35.384347 16.255059 36.494792
3061 1021 1 0.4238 20.632398 20.197051 34.819566
3062 1021 2 -0.8476 20.407923 20.01593 35.777066
3063 1021 1 0.4238 19.803968 20.735538 36.119704
3064 1022 1 0.4238 41.027909 47.762623 3.231331
3065 1022 2 -0.8476 40.386361 47.600843 2.481502
3066 1022 1 0.4238 40.846405 47.762621 1.608468
3067 1023 1 0.4238 38.327936 11.087804 30.310991
3068 1023 2 -0.8476 37.756016 11.182498 31.125816
3069 1023 1 0.4238 38.281862 11.624376 31.852611
3070 1024 1 0.4238 29.049169 4.212131 24.845276
3071 1024 2 -0.8476 28.851631 5.14131 24.532857
3072 1024 1 0.4238 29.706966 5.602531 24.296898
3073 1025 1 0.4238 32.027387 47.760169 19.500006
3074 1025 2 -0.8476 32.099836 47.742206 18.502796
3075 1025 1 0.4238 31.183858 47.755056 18.101772
3076 1026 1 0.4238 12.072315 40.257868 17.98789
3077 1026 2 -0.8476 12.866191 40.709841 18.394684
3078 1026 1 0.4238 13.285973 40.102728 19.069367
3079 1027 1 0.4238 31.934929 16.11782 14.966153
3080 1027 2 -0.8476 32.535796 16.91628 15.003859
3081 1027 1 0.4238 32.010943 17.739003 14.785557
3082 1028 1 0.4238 15.922364 38.234419 47.761305
3083 1028 2 -0.8476 16.921487 38.276078 47.756892
3084 1028 1 0.4238 17.293778 37.347967 47.754123
3085 1029 1 0.4238 25.693417 10.971661 17.946076
3086 1029 2 -0.8476 26.138276 10.719801 17.086619
3087 1029 1 0.4238 26.447166 9.770039 17.137007
3088 1030 1 0.4238 8.484239 37.863007 31.689104
3089 1030 2 -0.8476 7.633652 38.199035 32.093564
3090 1030 1 0.4238 7.180637 37.454332 32.583662
3091 1031 1 0.4238 7.996605 4.444926 19.297207
3092 1031 2 -0.8476 7.783376 4.79399 18.38469
3093 1031 1 0.4238 7.8462 4.049544 17.71997
3094 1032 1 0.4238 12.429949 46.90425 15.32685
3095 1032 2 -0.8476 12.643039 47.762715 15.793358
3096 1032 1 0.4238 13.601525 47.758134 16.078458
3097 1033 1 0.4238 12.099697 11.256083 8.905276
3098 1033 2 -0.8476 11.741846 11.873335 8.204603
3099 1033 1 0.4238 11.477969 12.740289 8.627404
3100 1034 1 0.4238 21.258401 7.531444 7.437696
3101 1034 2 -0.8476 21.676582 8.037195 8.192242
3102 1034 1 0.4238 21.550813 7.529049 9.04428
3103 1035 1 0.4238 1.500024 2.677495 36.470445
3104 1035 2 -0.8476 1.513812 1.713071 36.206448
3105 1035 1 0.4238 2.386825 1.500033 35.767743
3106 1036 1 0.4238 12.649882 7.478787 42.767408
3107 1036 2 -0.8476 12.08827 6.66305 42.628969
3108 1036 1 0.4238 12.473607 6.115165 41.886449
3109 1037 1 0.4238 6.707229 10.946968 12.486224
3110 1037 2 -0.8476 5.873533 10.526466 12.844176
3111 1037 1 0.4238 5.076476 10.937255 12.401512
3112 1038 1 0.4238 19.398116 11.292236 6.435245
3113 1038 2 -0.8476 19.413539 10.34924 6.767693
3114 1038 1 0.4238 20.2261 10.208476 7.333316
3115 1039 1 0.4238 21.01616 14.560081 25.527344
3116 1039 2 -0.8476 20.185203 14.846665 25.0505
3117 1039 1 0.4238 19.930254 15.766518 25.348611
3118 1040 1 0.4238 31.788361 38.255809 5.02997
3119 1040 2 -0.8476 30.923605 38.249448 4.527817
3120 1040 1 0.4238 30.267361 38.848516 4.986576
3121 1041 1 0.4238 24.942574 19.509897 43.734609
3122 1041 2 -0.8476 24.13403 19.675274 44.299327
3123 1041 1 0.4238 24.417788 20.011208 45.197453
3124 1042 1 0.4238 43.120827 45.36787 9.464137
3125 1042 2 -0.8476 43.39157 44.538649 8.975168
3126 1042 1 0.4238 42.598105 44.157335 8.500813
3127 1043 1 0.4238 21.884758 45.910433 12.124192
3128 1043 2 -0.8476 21.528813 45.609513 13.008923
3129 1043 1 0.4238 20.616165 45.219718 12.885906
3130 1044 1 0.4238 12.431036 16.427382 19.048987
3131 1044 2 -0.8476 12.856341 17.077574 18.419411
3132 1044 1 0.4238 13.529305 16.601698 17.853143
3133 1045 1 0.4238 13.263244 47.762729 3.608864
3134 1045 2 -0.8476 13.684868 47.128534 2.960767
3135 1045 1 0.4238 13.372766 46.198287 3.153725
3136 1046 1 0.4238 28.065592 21.735714 1.501361
3137 1046 2 -0.8476 27.159201 22.158152 1.500011
3138 1046 1 0.4238 26.458807 21.444397 1.500977
3139 1047 1 0.4238 14.990793 6.780351 5.817642
3140 1047 2 -0.8476 15.609172 6.924476 6.590193
3141 1047 1 0.4238 15.986678 6.046093 6.883336
3142 1048 1 0.4238 14.793351 33.085979 37.551975
3143 1048 2 -0.8476 15.555538 33.668047 37.83529
3144 1048 1 0.4238 15.216338 34.393128 38.434623
3145 1049 1 0.4238 22.021741 31.366145 2.005519
3146 1049 2 -0.8476 22.847531 31.616301 1.500056
3147 1049 1 0.4238 22.973919 32.607567 1.537703
3148 1050 1 0.4238 28.000339 31.613984 45.744599
3149 1050 2 -0.8476 27.686478 31.046573 46.505872
3150 1050 1 0.4238 28.308283 31.155696 47.281403
3151 1051 1 0.4238 1.500139 46.35612 34.471782
3152 1051 2 -0.8476 1.504259 45.361993 34.57992
3153 1051 1 0.4238 1.500133 44.928661 33.678696
3154 1052 1 0.4238 24.485387 36.423196 47.762511
3155 1052 2 -0.8476 24.686781 36.854618 46.883127
3156 1052 1 0.4238 25.299854 37.631669 47.025718
3157 1053 1 0.4238 4.292348 21.24677 34.885071
3158 1053 2 -0.8476 4.963058 21.803914 35.374702
3159 1053 1 0.4238 4.532964 22.212411 36.179778
3160 1054 1 0.4238 31.976963 33.681792 1.500095
3161 1054 2 -0.8476 31.049311 34.053287 1.538229
3162 1054 1 0.4238 30.388672 33.302834 1.518813
3163 1055 1 0.4238 40.38697 27.18788 32.586972
3164 1055 2 -0.8476 40.304372 27.125076 33.581574
3165 1055 1 0.4238 39.432738 26.695251 33.817169
3166 1056 1 0.4238 13.670623 1.973481 47.762782
3167 1056 2 -0.8476 13.497181 1.500031 46.899206
3168 1056 1 0.4238 12.515237 1.500791 46.710036
3169 1057 1 0.4238 45.92169 29.84814 11.006001
3170 1057 2 -0.8476 44.925315 29.805398 10.932456
3171 1057 1 0.4238 44.614893 30.44833 10.232259
3172 1058 1 0.4238 28.827326 28.171233 47.745844
3173 1058 2 -0.8476 28.227447 27.371319 47.76267
3174 1058 1 0.4238 28.781095 26.538924 47.738354
3175 1059 1 0.4238 10.91357 40.732374 12.498832
3176 1059 2 -0.8476 11.827205 40.729129 12.905355
3177 1059 1 0.4238 12.064796 39.798549 13.18387
3178 1060 1 0.4238 32.61034 6.869675 36.328676
3179 1060 2 -0.8476 33.171134 7.478324 36.889974
3180 1060 1 0.4238 34.077185 7.571756 36.477248
3181 1061 1 0.4238 41.878282 7.599681 33.474035
3182 1061 2 -0.8476 42.607667 7.313222 34.095274
3183 1061 1 0.4238 42.449515 6.368282 34.381765
3184 1062 1 0.4238 30.818926 37.466438 47.76261
3185 1062 2 -0.8476 30.366409 38.350342 47.644536
3186 1062 1 0.4238 30.371478 38.600703 46.676397
3187 1063 1 0.4238 47.761854 27.697848 2.90884
3188 1063 2 -0.8476 47.448215 28.529033 2.449751
3189 1063 1 0.4238 47.761225 28.523586 1.500017
3190 1064 1 0.4238 47.759573 43.592832 33.13751
3191 1064 2 -0.8476 47.762781 43.166734 32.232839
3192 1064 1 0.4238 47.760087 42.171768 32.333021
3193 1065 1 0.4238 40.108744 16.074442 45.436645
3194 1065 2 -0.8476 40.568051 16.757223 44.868449
3195 1065 1 0.4238 40.334992 16.603134 43.908272
3196 1066 1 0.4238 29.555961 34.81263 22.819391
3197 1066 2 -0.8476 30.503109 34.551658 22.632832
3198 1066 1 0.4238 30.90234 35.192278 21.976921
3199 1067 1 0.4238 32.004294 19.661277 18.308577
3200 1067 2 -0.8476 31.181916 19.949891 17.818276
3201 1067 1 0.4238 31.358142 19.934875 16.834041
3202 1068 1 0.4238 14.658318 47.762754 45.056454
3203 1068 2 -0.8476 15.649206 47.628147 45.06112
3204 1068 1 0.4238 15.852573 46.649046 45.062253
3205 1069 1 0.4238 16.415014 20.655072 46.935154
3206 1069 2 -0.8476 15.860115 20.742937 47.762418
3207 1069 1 0.4238 15.345411 21.599657 47.72909
3208 1070 1 0.4238 38.962793 41.360456 20.799083
3209 1070 2 -0.8476 38.011954 41.056158 20.741552
3210 1070 1 0.4238 37.412223 41.851475 20.65328
3211 1071 1 0.4238 45.472306 11.150237 46.769689
3212 1071 2 -0.8476 45.08755 11.834203 47.38949
3213 1071 1 0.4238 44.223271 11.497057 47.762792
3214 1072 1 0.4238 40.744136 2.407704 33.736187
3215 1072 2 -0.8476 40.57655 1.503139 34.128204
3216 1072 1 0.4238 40.850677 1.500646 35.089894
3217 1073 1 0.4238 9.80906 1.535615 30.74965
3218 1073 2 -0.8476 9.430434 1.500093 31.674518
3219 1073 1 0.4238 10.17625 1.509656 32.340601
3220 1074 1 0.4238 3.72982 30.232699 32.39233
3221 1074 2 -0.8476 3.723338 30.334919 33.387071
3222 1074 1 0.4238 2.99705 29.767918 33.775679
3223 1075 1 0.4238 15.163266 24.84694 38.348358
3224 1075 2 -0.8476 15.199741 24.152247 37.629976
3225 1075 1 0.4238 15.870044 23.452408 37.876794
3226 1076 1 0.4238 15.142495 19.952977 6.75398
3227 1076 2 -0.8476 14.950335 19.011812 6.475981
3228 1076 1 0.4238 15.460161 18.380842 7.06075
3229 1077 1 0.4238 16.933833 32.425606 7.884009
3230 1077 2 -0.8476 17.598367 32.112922 7.205316
3231 1077 1 0.4238 17.115675 31.720152 6.422539
3232 1078 1 0.4238 17.581417 21.325889 38.206912
3233 1078 2 -0.8476 17.970481 20.542006 38.690809
3234 1078 1 0.4238 18.96476 20.638527 38.736555
3235 1079 1 0.4238 12.634562 24.582134 36.737608
3236 1079 2 -0.8476 11.705629 24.247717 36.896507
3237 1079 1 0.4238 11.136955 24.452072 36.099733
3238 1080 1 0.4238 32.828484 4.318944 35.326262
3239 1080 2 -0.8476 31.919593 4.348848 34.910303
3240 1080 1 0.4238 31.238032 4.553269 35.612931
3241 1081 1 0.4238 12.818113 22.916441 34.557293
3242 1081 2 -0.8476 12.834363 22.139298 35.186408
3243 1081 1 0.4238 11.89798 21.894164 35.437595
3244 1082 1 0.4238 18.169607 16.79463 19.166886
3245 1082 2 -0.8476 17.55988 16.007536 19.260246
3246 1082 1 0.4238 18.101941 15.167743 19.290514
3247 1083 1 0.4238 13.651382 15.16668 1.515482
3248 1083 2 -0.8476 12.970756 14.434211 1.500087
3249 1083 1 0.4238 13.433938 13.548262 1.52367
3250 1084 1 0.4238 24.173763 3.899419 29.322053
3251 1084 2 -0.8476 23.506707 4.623383 29.146231
3252 1084 1 0.4238 23.894692 5.505852 29.412155
3253 1085 1 0.4238 6.588744 8.237627 40.227484
3254 1085 2 -0.8476 6.721955 7.490817 39.575924
3255 1085 1 0.4238 7.680962 7.461474 39.294064
3256 1086 1 0.4238 30.079064 14.897633 1.500059
3257 1086 2 -0.8476 29.738168 14.843137 2.438579
3258 1086 1 0.4238 29.428608 13.911147 2.627169
3259 1087 1 0.4238 33.239844 45.550637 30.048898
3260 1087 2 -0.8476 32.242486 45.480511 30.02995
3261 1087 1 0.4238 31.976451 44.516777 30.00892
3262 1088 1 0.4238 35.804901 28.291299 36.669088
3263 1088 2 -0.8476 36.764733 28.236509 36.944265
3264 1088 1 0.4238 37.147682 29.158388 37.003337
3265 1089 1 0.4238 26.305367 23.925584 41.87974
3266 1089 2 -0.8476 25.994533 24.439214 41.080011
3267 1089 1 0.4238 26.419473 25.344435 41.079447
3268 1090 1 0.4238 42.320356 28.076508 30.657903
3269 1090 2 -0.8476 41.590012 27.621035 30.148842
3270 1090 1 0.4238 41.927624 26.751947 29.787313
3271 1091 1 0.4238 28.530216 28.19827 40.682898
3272 1091 2 -0.8476 27.544192 28.036401 40.722334
3273 1091 1 0.4238 27.076276 28.886458 40.964112
3274 1092 1 0.4238 40.663367 45.680901 45.266451
3275 1092 2 -0.8476 40.109466 44.874136 45.060721
3276 1092 1 0.4238 39.141589 45.094755 45.181305
3277 1093 1 0.4238 36.510431 22.07843 40.648107
3278 1093 2 -0.8476 36.513819 21.193255 40.182861
3279 1093 1 0.4238 35.579237 20.949141 39.924085
3280 1094 1 0.4238 29.00716 44.105473 20.702187
3281 1094 2 -0.8476 28.927848 45.07905 20.916328
3282 1094 1 0.4238 29.027133 45.212612 21.902382
3283 1095 1 0.4238 35.717434 47.761771 33.471484
3284 1095 2 -0.8476 35.013598 47.53927 34.1461
3285 1095 1 0.4238 35.182506 46.625253 34.514942
3286 1096 1 0.4238 21.627635 11.434586 14.703318
3287 1096 2 -0.8476 22.018058 12.145367 15.288434
3288 1096 1 0.4238 21.281123 12.693788 15.683607
3289 1097 1 0.4238 13.149766 13.164996 16.5832
3290 1097 2 -0.8476 13.023884 12.302668 17.073652
3291 1097 1 0.4238 13.916323 11.891511 17.259403
3292 1098 1 0.4238 36.892411 47.648481 30.994554
3293 1098 2 -0.8476 37.566754 47.762719 30.265025
3294 1098 1 0.4238 38.4863 47.76196 30.658005
3295 1099 1 0.4238 4.009903 13.375026 22.708547
3296 1099 2 -0.8476 3.993796 14.265846 23.162619
3297 1099 1 0.4238 4.243886 14.978575 22.507278
3298 1100 1 0.4238 17.43383 25.426621 32.86178
3299 1100 2 -0.8476 17.280988 25.195711 33.822676
3300 1100 1 0.4238 18.131563 24.854592 34.222875
3301 1101 1 0.4238 8.077238 10.780186 8.578231
3302 1101 2 -0.8476 8.952447 11.26393 8.576711
3303 1101 1 0.4238 9.408829 11.130018 9.45636
3304 1102 1 0.4238 1.500608 35.792506 42.414006
3305 1102 2 -0.8476 2.466468 35.546392 42.494895
3306 1102 1 0.4238 2.996852 36.356092 42.746047
3307 1103 1 0.4238 34.597218 34.098543 21.796813
3308 1103 2 -0.8476 33.944072 33.348186 21.69501
3309 1103 1 0.4238 33.107063 33.564352 22.19769
3310 1104 1 0.4238 28.032679 43.804168 36.468175
3311 1104 2 -0.8476 28.605021 43.111803 36.907556
3312 1104 1 0.4238 28.02968 42.361659 37.233542
3313 1105 1 0.4238 17.205589 4.901599 42.960484
3314 1105 2 -0.8476 16.650998 4.273868 43.506728
3315 1105 1 0.4238 16.194369 3.620693 42.902698
3316 1106 1 0.4238 18.950848 13.121743 43.465056
3317 1106 2 -0.8476 19.771667 12.566052 43.597204
3318 1106 1 0.4238 19.557484 11.60646 43.414699
3319 1107 1 0.4238 26.973098 38.986244 1.507826
3320 1107 2 -0.8476 26.407859 39.811135 1.500112
3321 1107 1 0.4238 25.588279 39.65877 2.052447
3322 1108 1 0.4238 24.658346 26.295196 21.400116
3323 1108 2 -0.8476 24.901059 25.57446 22.049445
3324 1108 1 0.4238 24.06752 25.176962 22.433122
3325 1109 1 0.4238 45.211007 41.25183 7.811308
3326 1109 2 -0.8476 45.545577 41.869992 8.522602
3327 1109 1 0.4238 46.36802 42.337295 8.198234
3328 1110 1 0.4238 39.914874 6.350116 35.447751
3329 1110 2 -0.8476 39.444465 6.347776 34.565305
3330 1110 1 0.4238 38.617217 6.906204 34.627094
3331 1111 1 0.4238 28.020127 13.752737 8.383587
3332 1111 2 -0.8476 28.908056 13.345435 8.597332
3333 1111 1 0.4238 28.79569 12.659326 9.316101
3334 1112 1 0.4238 42.364874 39.266036 32.154173
3335 1112 2 -0.8476 41.376795 39.411211 32.102945
3336 1112 1 0.4238 40.913534 38.528074 32.029072
3337 1113 1 0.4238 38.955239 30.508738 20.385415
3338 1113 2 -0.8476 38.375012 31.084914 19.809778
3339 1113 1 0.4238 38.393362 32.024202 20.152415
3340 1114 1 0.4238 46.561844 3.398803 39.645734
3341 1114 2 -0.8476 47.522707 3.365071 39.370772
3342 1114 1 0.4238 47.760747 4.207312 38.887071
3343 1115 1 0.4238 20.468837 6.404519 25.846252
3344 1115 2 -0.8476 20.538564 5.407122 25.864624
3345 1115 1 0.4238 21.500539 5.141349 25.927611
3346 1116 1 0.4238 46.63859 28.506176 28.023796
3347 1116 2 -0.8476 45.724685 28.500574 27.617907
3348 1116 1 0.4238 45.421626 27.55594 27.492124
3349 1117 1 0.4238 4.86504 32.46806 19.896589
3350 1117 2 -0.8476 5.498086 32.148541 20.601685
3351 1117 1 0.4238 5.476278 31.149564 20.64129
3352 1118 1 0.4238 17.227392 33.876817 26.232869
3353 1118 2 -0.8476 16.747161 34.514684 26.834952
3354 1118 1 0.4238 17.402593 35.159456 27.228243
3355 1119 1 0.4238 1.500097 21.301457 21.539129
3356 1119 2 -0.8476 2.389839 20.851126 21.613703
3357 1119 1 0.4238 3.056871 21.491829 21.993924
3358 1120 1 0.4238 18.260686 46.794292 23.943691
3359 1120 2 -0.8476 17.972272 47.725914 23.722564
3360 1120 1 0.4238 16.974264 47.76253 23.671186
3361 1121 1 0.4238 5.779704 9.31949 30.050363
3362 1121 2 -0.8476 6.411423 9.65405 30.749649
3363 1121 1 0.4238 6.127572 9.313089 31.645848
3364 1122 1 0.4238 42.724891 42.779226 29.96681
3365 1122 2 -0.8476 42.830871 41.939888 30.499989
3366 1122 1 0.4238 42.12268 41.90117 31.204947
3367 1123 1 0.4238 31.932393 13.462139 15.97854
3368 1123 2 -0.8476 31.22706 13.23097 16.648664
3369 1123 1 0.4238 31.639288 13.165625 17.557399
3370 1124 1 0.4238 8.737514 40.451964 17.905776
3371 1124 2 -0.8476 9.109167 40.67701 17.005094
3372 1124 1 0.4238 8.364742 40.720989 16.338839
3373 1125 1 0.4238 3.874089 40.80914 6.350144
3374 1125 2 -0.8476 3.53957 41.157887 7.225628
3375 1125 1 0.4238 3.412874 42.147886 7.163573
3376 1126 1 0.4238 30.382217 19.326527 46.74686
3377 1126 2 -0.8476 29.58143 19.922055 46.810793
3378 1126 1 0.4238 29.279735 19.973865 47.762789
3379 1127 1 0.4238 33.889132 11.247031 33.315892
3380 1127 2 -0.8476 34.626789 10.572238 33.293157
3381 1127 1 0.4238 35.508522 11.043126 33.264658
3382 1128 1 0.4238 40.668638 16.26193 15.46126
3383 1128 2 -0.8476 41.368795 16.957275 15.62336
3384 1128 1 0.4238 40.949122 17.864649 15.599992
3385 1129 1 0.4238 47.762022 32.998162 18.382358
3386 1129 2 -0.8476 47.517389 33.508719 17.558048
3387 1129 1 0.4238 47.762078 34.470986 17.677081
3388 1130 1 0.4238 41.245411 38.25654 35.860732
3389 1130 2 -0.8476 40.491719 38.455098 36.487249
3390 1130 1 0.4238 40.210428 39.408561 36.378694
3391 1131 1 0.4238 31.54782 16.882006 21.517053
3392 1131 2 -0.8476 31.128898 17.574837 20.930121
3393 1131 1 0.4238 31.572386 17.564844 20.033896
3394 1132 1 0.4238 11.005228 20.9533 25.431416
3395 1132 2 -0.8476 10.693758 21.197325 24.513027
3396 1132 1 0.4238 10.735931 20.39193 23.92179
3397 1133 1 0.4238 26.275609 14.758549 16.503766
3398 1133 2 -0.8476 26.114356 13.866604 16.081354
3399 1133 1 0.4238 25.434248 13.363386 16.614481
3400 1134 1 0.4238 11.925289 5.048915 45.274178
3401 1134 2 -0.8476 11.328089 5.839583 45.139282
3402 1134 1 0.4238 11.826477 6.676302 45.366242
3403 1135 1 0.4238 20.076537 25.301558 1.500228
3404 1135 2 -0.8476 19.45561 24.517692 1.502398
3405 1135 1 0.4238 19.98769 23.671 1.503753
3406 1136 1 0.4238 12.502648 31.145741 31.281648
3407 1136 2 -0.8476 11.826286 30.554658 31.721142
3408 1136 1 0.4238 11.256865 30.12242 31.021907
3409 1137 1 0.4238 33.739393 39.168328 43.557519
3410 1137 2 -0.8476 34.09256 38.245542 43.711594
3411 1137 1 0.4238 33.328723 37.604454 43.78615
3412 1138 1 0.4238 41.567992 30.018023 26.997122
3413 1138 2 -0.8476 41.298406 29.105613 27.305066
3414 1138 1 0.4238 42.114362 28.581704 27.549474
3415 1139 1 0.4238 44.811573 46.695046 39.06404
3416 1139 2 -0.8476 44.918749 47.661758 38.831701
3417 1139 1 0.4238 44.968688 47.76219 37.838012
3418 1140 1 0.4238 27.434846 41.738053 45.672677
3419 1140 2 -0.8476 27.916215 41.293953 44.916992
3420 1140 1 0.4238 28.858222 41.099304 45.190365
3421 1141 1 0.4238 10.262298 14.269586 25.226003
3422 1141 2 -0.8476 10.493335 14.61947 26.133859
3423 1141 1 0.4238 10.159357 15.557692 26.224407
3424 1142 1 0.4238 17.489668 47.762774 30.437828
3425 1142 2 -0.8476 17.300618 47.486742 31.3802
3426 1142 1 0.4238 17.015717 46.528315 31.396007
3427 1143 1 0.4238 1.501139 40.891354 34.637505
3428 1143 2 -0.8476 1.503814 41.182218 33.680744
3429 1143 1 0.4238 1.541182 42.180515 33.635963
3430 1144 1 0.4238 7.486374 34.613714 1.546983
3431 1144 2 -0.8476 7.143167 35.552872 1.533126
3432 1144 1 0.4238 7.914057 36.189016 1.500748
3433 1145 1 0.4238 27.968138 20.424821 5.305108
3434 1145 2 -0.8476 27.162044 20.08567 4.820145
3435 1145 1 0.4238 27.268944 20.250797 3.839684
3436 1146 1 0.4238 29.457918 42.541355 17.563161
3437 1146 2 -0.8476 28.626501 42.617133 18.113618
3438 1146 1 0.4238 28.340548 41.706714 18.412564
3439 1147 1 0.4238 43.180047 32.683381 15.068941
3440 1147 2 -0.8476 42.21111 32.458572 14.96588
3441 1147 1 0.4238 42.090692 31.467636 15.025417
3442 1148 1 0.4238 27.803191 28.927062 38.13354
3443 1148 2 -0.8476 27.388153 28.377605 37.408391
3444 1148 1 0.4238 26.450698 28.687742 37.250299
3445 1149 1 0.4238 34.23705 5.139734 8.910097
3446 1149 2 -0.8476 34.324791 4.147103 8.993674
3447 1149 1 0.4238 34.923907 3.803387 8.270542
3448 1150 1 0.4238 11.556944 31.367359 26.550468
3449 1150 2 -0.8476 11.914771 30.678845 25.919667
3450 1150 1 0.4238 11.607301 29.771703 26.206993
3451 1151 1 0.4238 41.578241 30.481634 21.20285
3452 1151 2 -0.8476 42.382324 31.060907 21.069085
3453 1151 1 0.4238 43.085287 30.546994 20.577419
3454 1152 1 0.4238 9.865813 3.058802 16.030823
3455 1152 2 -0.8476 10.342282 2.288126 16.453949
3456 1152 1 0.4238 9.723403 1.504774 16.5118
3457 1153 1 0.4238 33.381809 21.608321 1.503313
3458 1153 2 -0.8476 32.568421 22.190033 1.500021
3459 1153 1 0.4238 31.748854 21.617052 1.501193
3460 1154 1 0.4238 30.510521 11.776275 19.799398
3461 1154 2 -0.8476 30.056569 12.66556 19.855064
3462 1154 1 0.4238 29.867498 12.883928 20.812439
3463 1155 1 0.4238 16.396322 10.18025 13.032994
3464 1155 2 -0.8476 15.765484 10.287362 12.264509
3465 1155 1 0.4238 15.443172 11.23326 12.227202
3466 1156 1 0.4238 1.983563 40.905295 23.219051
3467 1156 2 -0.8476 1.5001 40.072978 22.947922
3468 1156 1 0.4238 2.164047 39.368941 22.695917
3469 1157 1 0.4238 15.52023 38.28626 41.565195
3470 1157 2 -0.8476 15.582878 38.479596 42.544326
3471 1157 1 0.4238 16.526153 38.34997 42.849986
3472 1158 1 0.4238 12.016617 24.88556 8.957214
3473 1158 2 -0.8476 12.074495 25.748383 9.459396
3474 1158 1 0.4238 13.01631 25.895652 9.761548
3475 1159 1 0.4238 19.844971 23.017736 24.14453
3476 1159 2 -0.8476 20.191303 23.825246 24.622004
3477 1159 1 0.4238 19.594623 24.036094 25.396288
3478 1160 1 0.4238 5.266802 34.867058 42.676676
3479 1160 2 -0.8476 4.865314 34.494993 41.839792
3480 1160 1 0.4238 5.161629 33.547362 41.72066
3481 1161 1 0.4238 16.369844 45.478555 8.740959
3482 1161 2 -0.8476 17.105363 45.838706 8.167111
3483 1161 1 0.4238 17.929258 45.286789 8.295898
3484 1162 1 0.4238 3.277643 32.649243 15.167829
3485 1162 2 -0.8476 2.95187 33.593912 15.129455
3486 1162 1 0.4238 2.030018 33.644451 15.513687
3487 1163 1 0.4238 39.108829 16.116218 31.42115
3488 1163 2 -0.8476 38.600231 16.704302 30.792274
3489 1163 1 0.4238 38.083469 16.13777 30.150403
3490 1164 1 0.4238 35.175354 11.033674 24.873789
3491 1164 2 -0.8476 34.885847 10.369157 24.184874
3492 1164 1 0.4238 33.93613 10.547868 23.927775
3493 1165 1 0.4238 37.375778 1.713047 1.50088
3494 1165 2 -0.8476 36.916466 2.601279 1.509625
3495 1165 1 0.4238 37.600852 3.330361 1.517121
3496 1166 1 0.4238 1.501019 33.251406 23.781454
3497 1166 2 -0.8476 1.719042 32.328062 24.097527
3498 1166 1 0.4238 1.501111 31.669164 23.377556
3499 1167 1 0.4238 44.081087 2.988933 26.32131
3500 1167 2 -0.8476 43.227194 2.48152 26.20556
3501 1167 1 0.4238 43.414864 1.500041 26.244019
3502 1168 1 0.4238 3.052407 9.619326 34.129449
3503 1168 2 -0.8476 2.903093 9.509129 33.146819
3504 1168 1 0.4238 3.647026 9.950507 32.645073
3505 1169 1 0.4238 36.769069 10.209458 26.957402
3506 1169 2 -0.8476 36.545081 10.835295 27.704502
3507 1169 1 0.4238 36.340518 10.309241 28.529984
3508 1170 1 0.4238 30.750121 34.117276 33.019725
3509 1170 2 -0.8476 30.219598 33.316384 32.742027
3510 1170 1 0.4238 30.800188 32.700108 32.209938
3511 1171 1 0.4238 42.552273 30.177704 12.568245
3512 1171 2 -0.8476 42.465916 30.903095 11.885347
3513 1171 1 0.4238 42.592494 31.792043 12.325516
3514 1172 1 0.4238 35.724841 39.941389 47.75521
3515 1172 2 -0.8476 36.469115 39.273514 47.754651
3516 1172 1 0.4238 36.087535 38.349213 47.762623
3517 1173 1 0.4238 6.602557 19.718252 27.451322
3518 1173 2 -0.8476 5.604452 19.657205 27.459086
3519 1173 1 0.4238 5.241272 20.228768 28.194896
3520 1174 1 0.4238 25.355665 45.678719 44.998452
3521 1174 2 -0.8476 26.298313 45.697475 45.331716
3522 1174 1 0.4238 26.702406 46.591564 45.138552
3523 1175 1 0.4238 22.659648 46.018784 15.793374
3524 1175 2 -0.8476 23.481231 45.450178 15.752296
3525 1175 1 0.4238 23.478623 44.921541 14.903452
3526 1176 1 0.4238 47.762454 47.756531 41.154021
3527 1176 2 -0.8476 47.350109 46.848864 41.075851
3528 1176 1 0.4238 47.761609 46.236563 41.750948
3529 1177 1 0.4238 17.499438 35.780379 42.764323
3530 1177 2 -0.8476 16.919208 34.979854 42.614349
3531 1177 1 0.4238 17.46522 34.148433 42.717355
3532 1178 1 0.4238 31.635959 21.183246 9.985799
3533 1178 2 -0.8476 32.303671 20.43945 9.955328
3534 1178 1 0.4238 32.303427 20.028453 9.043692
3535 1179 1 0.4238 45.263547 15.512928 9.29897
3536 1179 2 -0.8476 44.718983 14.67421 9.300423
3537 1179 1 0.4238 45.32823 13.881234 9.303223
3538 1180 1 0.4238 4.092326 27.772438 46.100617
3539 1180 2 -0.8476 3.390101 28.419131 45.802845
3540 1180 1 0.4238 3.817608 29.160682 45.285795
3541 1181 1 0.4238 3.192532 41.072355 15.349906
3542 1181 2 -0.8476 2.634222 41.891527 15.218578
3543 1181 1 0.4238 1.676569 41.627363 15.104041
3544 1182 1 0.4238 14.848488 1.500065 41.716702
3545 1182 2 -0.8476 15.161359 1.92217 40.865857
3546 1182 1 0.4238 14.690112 1.500065 40.09142
3547 1183 1 0.4238 43.643463 1.50167 23.509248
3548 1183 2 -0.8476 43.950897 1.552253 22.559024
3549 1183 1 0.4238 43.486319 2.308431 22.098196
3550 1184 1 0.4238 4.57877 33.022541 7.900967
3551 1184 2 -0.8476 5.168203 33.363998 8.633071
3552 1184 1 0.4238 4.977139 34.332904 8.79028
3553 1185 1 0.4238 26.162079 28.122654 31.055417
3554 1185 2 -0.8476 26.221714 28.494042 31.981977
3555 1185 1 0.4238 25.866351 29.428737 31.989932
3556 1186 1 0.4238 44.222799 7.764541 31.916291
3557 1186 2 -0.8476 43.490583 8.021923 31.285725
3558 1186 1 0.4238 43.147595 7.205039 30.821979
3559 1187 1 0.4238 42.404438 28.73708 15.091991
3560 1187 2 -0.8476 41.917462 28.8847 15.95284
3561 1187 1 0.4238 41.49474 28.027799 16.247843
3562 1188 1 0.4238 41.272817 4.675346 38.783027
3563 1188 2 -0.8476 41.386047 5.56593 38.342528
3564 1188 1 0.4238 42.354137 5.718943 38.144058
3565 1189 1 0.4238 14.687317 25.487961 35.044649
3566 1189 2 -0.8476 13.919716 25.966559 34.618348
3567 1189 1 0.4238 14.202969 26.324923 33.728774
3568 1190 1 0.4238 40.976111 32.646899 10.271958
3569 1190 2 -0.8476 41.248031 33.559677 10.576747
3570 1190 1 0.4238 41.011248 34.230162 9.873624
3571 1191 1 0.4238 3.682596 27.12654 33.435784
3572 1191 2 -0.8476 4.542336 26.994179 33.929067
3573 1191 1 0.4238 4.972046 27.881947 34.094043
3574 1192 1 0.4238 32.159886 13.162328 1.940687
3575 1192 2 -0.8476 32.043282 12.272181 1.500185
3576 1192 1 0.4238 31.079883 12.006448 1.535521
3577 1193 1 0.4238 27.01969 29.160673 28.299478
3578 1193 2 -0.8476 27.364947 29.674513 29.084823
3579 1193 1 0.4238 28.219473 30.130146 28.835455
3580 1194 1 0.4238 11.745905 16.470589 38.762922
3581 1194 2 -0.8476 12.351537 15.986828 38.13111
3582 1194 1 0.4238 11.80419 15.439745 37.497777
3583 1195 1 0.4238 27.589343 22.470368 20.211952
3584 1195 2 -0.8476 28.307404 23.010306 19.772799
3585 1195 1 0.4238 28.190028 23.975112 20.008113
3586 1196 1 0.4238 45.118353 31.327845 22.256046
3587 1196 2 -0.8476 45.026958 30.777221 23.085781
3588 1196 1 0.4238 44.109381 30.381486 23.123805
3589 1197 1 0.4238 15.33455 10.454744 26.263348
3590 1197 2 -0.8476 15.073119 11.400784 26.071876
3591 1197 1 0.4238 14.278287 11.645823 26.627031
3592 1198 1 0.4238 29.331443 1.501235 12.766964
3593 1198 2 -0.8476 28.337793 1.603477 12.719984
3594 1198 1 0.4238 28.106135 2.572432 12.633604
3595 1199 1 0.4238 19.881254 36.008135 4.883263
3596 1199 2 -0.8476 20.392215 36.866624 4.927036
3597 1199 1 0.4238 19.855803 37.54881 5.42391
3598 1200 1 0.4238 8.632815 28.870338 12.548404
3599 1200 2 -0.8476 7.97877 28.384105 11.968919
3600 1200 1 0.4238 7.37976 29.04433 11.515831
3601 1201 1 0.4238 24.426564 1.503504 38.021331
3602 1201 2 -0.8476 23.927914 2.02438 38.714178
3603 1201 1 0.4238 23.130657 1.501 39.014933
3604 1202 1 0.4238 47.496002 22.826265 9.783028
3605 1202 2 -0.8476 47.28356 21.912021 10.12803
3606 1202 1 0.4238 46.36881 21.912464 10.532048
3607 1203 1 0.4238 7.556307 40.610265 22.73675
3608 1203 2 -0.8476 7.237279 40.794382 21.807061
3609 1203 1 0.4238 7.87093 40.385746 21.150172
3610 1204 1 0.4238 4.788388 35.395692 45.332465
3611 1204 2 -0.8476 5.626491 34.855631 45.409388
3612 1204 1 0.4238 6.331707 35.397911 45.866117
3613 1205 1 0.4238 3.832123 32.27527 4.417701
3614 1205 2 -0.8476 4.126617 31.391338 4.780933
3615 1205 1 0.4238 4.001586 31.380279 5.773024
3616 1206 1 0.4238 44.983761 36.02018 44.223338
3617 1206 2 -0.8476 44.71637 35.404183 44.964317
3618 1206 1 0.4238 45.530239 35.118275 45.470156
3619 1207 1 0.4238 9.552459 10.45076 35.911656
3620 1207 2 -0.8476 9.895914 9.618024 35.477385
3621 1207 1 0.4238 10.327195 9.850287 34.605577
3622 1208 1 0.4238 27.388396 43.395997 2.596563
3623 1208 2 -0.8476 27.066589 43.377412 1.64994
3624 1208 1 0.4238 26.518062 42.554749 1.500458
3625 1209 1 0.4238 30.313311 1.687999 42.813558
3626 1209 2 -0.8476 31.271285 1.500086 42.59682
3627 1209 1 0.4238 31.779776 2.36039 42.560583
3628 1210 1 0.4238 19.628342 47.761018 32.812593
3629 1210 2 -0.8476 20.087463 47.667462 33.696027
3630 1210 1 0.4238 21.075064 47.761022 33.569971
3631 1211 1 0.4238 23.842309 45.542744 36.405198
3632 1211 2 -0.8476 23.175476 45.901367 37.058438
3633 1211 1 0.4238 23.496006 46.7794 37.41385
3634 1212 1 0.4238 43.780916 10.333158 28.539491
3635 1212 2 -0.8476 43.63151 9.421949 28.923387
3636 1212 1 0.4238 44.480683 8.896143 28.874065
3637 1213 1 0.4238 6.852831 45.056681 14.64202
3638 1213 2 -0.8476 6.474418 45.345974 15.521288
3639 1213 1 0.4238 6.633518 46.325246 15.646645
3640 1214 1 0.4238 38.329551 6.493546 44.708049
3641 1214 2 -0.8476 37.982926 7.105678 45.418784
3642 1214 1 0.4238 37.576804 7.914349 44.993207
3643 1215 1 0.4238 16.835196 47.762315 35.929627
3644 1215 2 -0.8476 15.840602 47.761471 36.033462
3645 1215 1 0.4238 15.594787 47.298666 36.885157
3646 1216 1 0.4238 34.866152 43.88266 32.124238
3647 1216 2 -0.8476 34.55904 44.791643 32.406073
3648 1216 1 0.4238 35.163112 45.484507 32.012327
3649 1217 1 0.4238 15.753464 7.331679 22.555072
3650 1217 2 -0.8476 15.546022 7.868485 21.737265
3651 1217 1 0.4238 14.617731 7.660781 21.428826
3652 1218 1 0.4238 10.39156 4.110454 18.558425
3653 1218 2 -0.8476 11.342772 4.047347 18.256408
3654 1218 1 0.4238 11.897091 4.709865 18.760193
3655 1219 1 0.4238 1.705715 1.499933 10.593846
3656 1219 2 -0.8476 2.311331 1.570982 11.386425
3657 1219 1 0.4238 2.802927 2.441176 11.353328
3658 1220 1 0.4238 46.503287 37.534329 1.500152
3659 1220 2 -0.8476 47.464312 37.652309 1.750176
3660 1220 1 0.4238 47.759971 38.577049 1.510507
3661 1221 1 0.4238 41.942828 2.922631 44.982463
3662 1221 2 -0.8476 41.048143 2.485319 45.073549
3663 1221 1 0.4238 41.169413 1.499917 45.193031
3664 1222 1 0.4238 12.978706 43.599766 28.882286
3665 1222 2 -0.8476 12.943299 44.276222 29.617918
3666 1222 1 0.4238 12.412613 45.068534 29.316896
3667 1223 1 0.4238 28.054564 9.868682 9.465934
3668 1223 2 -0.8476 27.840192 9.102121 10.071269
3669 1223 1 0.4238 28.670239 8.810631 10.54672
3670 1224 1 0.4238 8.598403 34.495574 29.345632
3671 1224 2 -0.8476 8.480309 33.906053 30.144706
3672 1224 1 0.4238 7.885368 34.359443 30.808395
3673 1225 1 0.4238 26.020499 15.108372 19.712278
3674 1225 2 -0.8476 26.144382 14.256089 19.204079
3675 1225 1 0.4238 25.350439 13.664917 19.346105
3676 1226 1 0.4238 8.715338 34.868269 33.380198
3677 1226 2 -0.8476 8.887218 34.190882 34.095463
3678 1226 1 0.4238 9.869744 34.135888 34.273278
3679 1227 1 0.4238 12.350578 8.210064 40.110978
3680 1227 2 -0.8476 11.427211 8.554693 40.280166
3681 1227 1 0.4238 10.814169 7.787237 40.467759
3682 1228 1 0.4238 1.501147 32.318789 12.006478
3683 1228 2 -0.8476 2.012484 32.891049 12.647612
3684 1228 1 0.4238 1.502387 33.733162 12.822672
3685 1229 1 0.4238 47.761769 30.807631 31.299482
3686 1229 2 -0.8476 46.785382 30.717894 31.102974
3687 1229 1 0.4238 46.258498 30.939516 31.923508
3688 1230 1 0.4238 42.828789 2.518908 38.083325
3689 1230 2 -0.8476 42.47371 1.589376 38.182766
3690 1230 1 0.4238 42.007148 1.503192 39.063045
3691 1231 1 0.4238 30.926414 26.722246 21.283174
3692 1231 2 -0.8476 30.147403 27.1884 21.70251
3693 1231 1 0.4238 29.507633 26.509761 22.063262
3694 1232 1 0.4238 7.716578 38.641879 45.82566
3695 1232 2 -0.8476 6.781037 38.987581 45.753184
3696 1232 1 0.4238 6.672643 39.783327 46.349036
3697 1233 1 0.4238 41.618295 15.21649 30.749006
3698 1233 2 -0.8476 41.712206 16.064102 30.226765
3699 1233 1 0.4238 41.051485 16.068062 29.476144
3700 1234 1 0.4238 16.926801 45.666725 34.005398
3701 1234 2 -0.8476 17.838022 46.078626 34.009237
3702 1234 1 0.4238 18.530057 45.357096 33.987288
3703 1235 1 0.4238 28.580057 35.988637 33.022368
3704 1235 2 -0.8476 28.538974 36.281152 32.06699
3705 1235 1 0.4238 29.026257 35.62123 31.495101
3706 1236 1 0.4238 11.232633 33.536444 29.272219
3707 1236 2 -0.8476 11.685409 32.70526 28.949531
3708 1236 1 0.4238 12.591102 32.935746 28.593728
3709 1237 1 0.4238 1.501506 18.933406 29.759497
3710 1237 2 -0.8476 1.92744 18.084093 30.071342
3711 1237 1 0.4238 1.501324 17.792369 30.927685
3712 1238 1 0.4238 36.502906 40.46316 1.500718
3713 1238 2 -0.8476 36.375995 41.446361 1.631899
3714 1238 1 0.4238 36.240507 41.638189 2.60393
3715 1239 1 0.4238 42.097523 22.169928 6.950145
3716 1239 2 -0.8476 41.200862 21.819558 7.220775
3717 1239 1 0.4238 41.231851 20.820896 7.262159
3718 1240 1 0.4238 28.886629 6.036202 12.290391
3719 1240 2 -0.8476 28.14068 6.699166 12.226847
3720 1240 1 0.4238 27.818342 6.927301 13.14557
3721 1241 1 0.4238 20.908617 12.552654 23.334707
3722 1241 2 -0.8476 21.551812 13.291546 23.133861
3723 1241 1 0.4238 22.405547 13.134421 23.630296
3724 1242 1 0.4238 11.377819 32.406775 47.762539
3725 1242 2 -0.8476 10.437344 32.26728 47.452623
3726 1242 1 0.4238 10.240271 31.287571 47.416137
3727 1243 1 0.4238 16.041858 41.240439 40.113954
3728 1243 2 -0.8476 16.773342 41.738759 39.648543
3729 1243 1 0.4238 17.397516 42.125452 40.327421
3730 1244 1 0.4238 26.702457 4.89729 34.237389
3731 1244 2 -0.8476 27.567778 5.352728 34.028113
3732 1244 1 0.4238 27.43985 5.971475 33.25301
3733 1245 1 0.4238 22.995127 45.380588 33.794156
3734 1245 2 -0.8476 22.351701 44.748167 34.225488
3735 1245 1 0.4238 21.537385 45.249317 34.518298
3736 1246 1 0.4238 27.558105 44.453926 7.213951
3737 1246 2 -0.8476 26.796912 45.096165 7.123872
3738 1246 1 0.4238 26.659825 45.574346 7.991369
3739 1247 1 0.4238 1.500725 29.400512 11.577169
3740 1247 2 -0.8476 2.077755 28.589353 11.482001
3741 1247 1 0.4238 1.500465 27.775411 11.416947
3742 1248 1 0.4238 46.732509 7.381835 40.663395
3743 1248 2 -0.8476 47.675802 7.421204 40.333777
3744 1248 1 0.4238 47.761529 6.872252 39.502331
3745 1249 1 0.4238 41.154854 40.673628 41.940744
3746 1249 2 -0.8476 41.955958 41.271861 41.959452
3747 1249 1 0.4238 41.719711 42.157863 41.560469
3748 1250 1 0.4238 16.657084 11.831826 37.797282
3749 1250 2 -0.8476 15.838008 11.40396 38.17944
3750 1250 1 0.4238 15.818251 10.436718 37.926353
3751 1251 1 0.4238 21.070625 39.663976 3.806959
3752 1251 2 -0.8476 20.33063 39.422502 3.179187
3753 1251 1 0.4238 20.531319 38.541616 2.750511
3754 1252 1 0.4238 25.536715 1.500299 35.05702
3755 1252 2 -0.8476 25.406718 1.950273 34.173491
3756 1252 1 0.4238 25.974298 1.500691 33.48376
3757 1253 1 0.4238 38.560539 34.147302 4.200193
3758 1253 2 -0.8476 39.107792 33.310341 4.1968
3759 1253 1 0.4238 40.079297 33.547337 4.193628
3760 1254 1 0.4238 21.850479 10.056095 1.500461
3761 1254 2 -0.8476 20.862636 10.211515 1.50377
3762 1254 1 0.4238 20.679921 11.194666 1.50918
3763 1255 1 0.4238 47.232769 3.62359 6.550334
3764 1255 2 -0.8476 47.762601 3.101482 7.218676
3765 1255 1 0.4238 47.733992 3.56663 8.103446
3766 1256 1 0.4238 7.753649 23.476208 4.290149
3767 1256 2 -0.8476 8.696868 23.212869 4.087688
3768 1256 1 0.4238 9.312569 23.960058 4.337929
3769 1257 1 0.4238 1.515887 17.729657 26.261174
3770 1257 2 -0.8476 1.500194 17.081442 27.02247
3771 1257 1 0.4238 1.531747 16.147706 26.665902
3772 1258 1 0.4238 27.390705 19.362386 29.965152
3773 1258 2 -0.8476 27.062829 20.306822 29.941997
3774 1258 1 0.4238 27.844242 20.930657 29.926997
3775 1259 1 0.4238 29.875258 19.309902 6.942242
3776 1259 2 -0.8476 30.678405 18.778273 7.211174
3777 1259 1 0.4238 30.806348 18.020761 6.571013
3778 1260 1 0.4238 15.221539 21.945251 13.866091
3779 1260 2 -0.8476 14.390758 22.256727 13.404804
3780 1260 1 0.4238 14.104992 23.134405 13.789535
3781 1261 1 0.4238 43.584485 40.486694 3.98747
3782 1261 2 -0.8476 44.208507 41.266606 3.939147
3783 1261 1 0.4238 44.502542 41.515886 4.861862
3784 1262 1 0.4238 11.452926 18.892817 15.462243
3785 1262 2 -0.8476 11.557535 18.689248 16.435699
3786 1262 1 0.4238 10.655262 18.631444 16.862972
3787 1263 1 0.4238 10.16996 21.90696 33.298676
3788 1263 2 -0.8476 10.317794 22.889306 33.413311
3789 1263 1 0.4238 9.525072 23.294791 33.868473
3790 1264 1 0.4238 19.432179 6.05537 37.617731
3791 1264 2 -0.8476 18.940464 5.722573 36.81308
3792 1264 1 0.4238 18.553488 4.821336 37.008069
3793 1265 1 0.4238 4.124986 29.016662 19.55283
3794 1265 2 -0.8476 3.183314 28.736615 19.366207
3795 1265 1 0.4238 3.129229 28.338528 18.450455
3796 1266 1 0.4238 24.801013 26.234295 38.239876
3797 1266 2 -0.8476 25.663786 26.101315 37.752087
3798 1266 1 0.4238 26.409603 26.012136 38.412242
3799 1267 1 0.4238 40.908296 29.060824 40.839039
3800 1267 2 -0.8476 40.121129 29.464886 41.304981
3801 1267 1 0.4238 39.594649 28.74414 41.755919
3802 1268 1 0.4238 4.384099 17.4591 4.497761
3803 1268 2 -0.8476 4.209739 18.434183 4.634915
3804 1268 1 0.4238 4.812431 18.967301 4.041159
3805 1269 1 0.4238 6.696023 42.769123 39.367335
3806 1269 2 -0.8476 7.595007 43.0169 39.006179
3807 1269 1 0.4238 7.520821 43.203335 38.026517
3808 1270 1 0.4238 41.881104 36.636609 33.76585
3809 1270 2 -0.8476 41.926793 36.094899 32.926527
3810 1270 1 0.4238 41.001219 35.853991 32.634507
3811 1271 1 0.4238 35.40064 11.795481 8.481838
3812 1271 2 -0.8476 35.235525 10.814355 8.582479
3813 1271 1 0.4238 36.110354 10.332959 8.636628
3814 1272 1 0.4238 10.7543 42.374999 1.501103
3815 1272 2 -0.8476 10.273818 43.252003 1.501523
3816 1272 1 0.4238 10.940521 43.997326 1.50266
3817 1273 1 0.4238 4.379163 5.577078 25.304042
3818 1273 2 -0.8476 4.923873 5.912352 26.072731
3819 1273 1 0.4238 5.894404 5.762644 25.8839
3820 1274 1 0.4238 24.778729 16.565736 22.440737
3821 1274 2 -0.8476 25.360774 15.754417 22.495375
3822 1274 1 0.4238 24.795118 14.932931 22.42331
3823 1275 1 0.4238 32.994623 35.129787 35.283357
3824 1275 2 -0.8476 32.336027 35.828694 35.004468
3825 1275 1 0.4238 32.797753 36.712996 34.935053
3826 1276 1 0.4238 22.780858 15.346971 1.500009
3827 1276 2 -0.8476 22.042702 14.77165 1.852332
3828 1276 1 0.4238 22.149124 13.841137 1.501874
3829 1277 1 0.4238 39.313572 14.373233 8.91013
3830 1277 2 -0.8476 40.050854 14.507136 8.247947
3831 1277 1 0.4238 40.712249 15.162095 8.61344
3832 1278 1 0.4238 36.983568 32.210025 14.631751
3833 1278 2 -0.8476 36.353356 31.59421 14.158881
3834 1278 1 0.4238 36.858022 31.052924 13.486333
3835 1279 1 0.4238 29.005791 10.036657 37.878344
3836 1279 2 -0.8476 29.56187 9.463246 37.276701
3837 1279 1 0.4238 29.227128 9.542538 36.337733
3838 1280 1 0.4238 12.415844 28.183127 35.239043
3839 1280 2 -0.8476 12.922053 29.031146 35.395936
3840 1280 1 0.4238 13.380298 29.306978 34.550993
3841 1281 1 0.4238 25.723747 28.577405 47.745694
3842 1281 2 -0.8476 25.752588 29.576916 47.757755
3843 1281 1 0.4238 24.819777 29.937252 47.762357
3844 1282 1 0.4238 16.306146 35.021967 13.782264
3845 1282 2 -0.8476 16.109839 34.17325 13.291201
3846 1282 1 0.4238 16.844355 33.988417 12.638267
3847 1283 1 0.4238 26.879397 31.601285 15.82746
3848 1283 2 -0.8476 26.753588 32.513653 15.4379
3849 1283 1 0.4238 25.951943 32.513193 14.8401
3850 1284 1 0.4238 37.034765 6.081632 26.847334
3851 1284 2 -0.8476 37.972313 5.786046 27.030726
3852 1284 1 0.4238 38.393526 5.467553 26.181526
3853 1285 1 0.4238 45.57839 14.750188 26.678807
3854 1285 2 -0.8476 44.66867 15.141358 26.539542
3855 1285 1 0.4238 44.752744 16.025032 26.079052
3856 1286 1 0.4238 7.910725 33.966069 47.652676
3857 1286 2 -0.8476 7.841577 33.114636 47.132791
3858 1286 1 0.4238 7.707064 32.349567 47.762533
3859 1287 1 0.4238 33.209486 29.193255 29.643109
3860 1287 2 -0.8476 32.65243 28.615782 29.046273
3861 1287 1 0.4238 33.082533 27.717585 28.955428
3862 1288 1 0.4238 3.921729 6.014671 11.635922
3863 1288 2 -0.8476 3.776762 6.868901 12.135198
3864 1288 1 0.4238 4.306625 7.600114 11.70558
3865 1289 1 0.4238 35.397891 30.252831 38.820442
3866 1289 2 -0.8476 35.746139 31.081064 38.381406
3867 1289 1 0.4238 34.993089 31.722532 38.235005
3868 1290 1 0.4238 15.291878 47.762107 33.33948
3869 1290 2 -0.8476 14.425548 47.757865 32.840025
3870 1290 1 0.4238 14.607658 47.762112 31.856756
3871 1291 1 0.4238 42.798009 6.363356 21.592937
3872 1291 2 -0.8476 43.732951 6.010697 21.554026
3873 1291 1 0.4238 43.747215 5.066925 21.884316
3874 1292 1 0.4238 20.152278 10.087079 24.36674
3875 1292 2 -0.8476 20.599165 9.192776 24.389433
3876 1292 1 0.4238 21.575813 9.312629 24.56774
3877 1293 1 0.4238 25.306861 1.501514 19.310525
3878 1293 2 -0.8476 24.983016 1.51473 18.364507
3879 1293 1 0.4238 23.983111 1.524252 18.3546
3880 1294 1 0.4238 24.414047 26.139971 26.968111
3881 1294 2 -0.8476 24.527825 25.174907 27.204135
3882 1294 1 0.4238 24.209428 25.020744 28.139473
3883 1295 1 0.4238 32.380679 34.863046 29.991876
3884 1295 2 -0.8476 31.829778 34.028706 29.972233
3885 1295 1 0.4238 30.85956 34.27026 29.954076
3886 1296 1 0.4238 20.166833 34.931314 43.724122
3887 1296 2 -0.8476 20.011234 35.907337 43.876337
3888 1296 1 0.4238 20.658332 36.245428 44.559681
3889 1297 1 0.4238 41.318567 47.762544 35.252726
3890 1297 2 -0.8476 40.750392 46.940006 35.277421
3891 1297 1 0.4238 41.304171 46.161089 35.571729
3892 1298 1 0.4238 27.801765 5.833666 1.50004
3893 1298 2 -0.8476 28.221324 5.292024 2.228459
3894 1298 1 0.4238 28.620887 5.904015 2.910966
3895 1299 1 0.4238 11.789906 25.185468 33.064584
3896 1299 2 -0.8476 10.877487 25.515678 32.822813
3897 1299 1 0.4238 10.810911 25.614133 31.829901
3898 1300 1 0.4238 30.467741 38.617114 39.292219
3899 1300 2 -0.8476 29.574601 38.94136 39.603933
3900 1300 1 0.4238 29.013282 38.160252 39.877414
3901 1301 1 0.4238 22.330533 22.356477 8.864139
3902 1301 2 -0.8476 22.605097 21.579045 9.430013
3903 1301 1 0.4238 21.919282 20.854943 9.356981
3904 1302 1 0.4238 32.795193 25.950663 18.006179
3905 1302 2 -0.8476 32.103889 26.379337 18.587846
3906 1302 1 0.4238 31.360944 25.731314 18.755473
3907 1303 1 0.4238 40.691858 10.907742 47.758647
3908 1303 2 -0.8476 41.021759 9.963726 47.758006
3909 1303 1 0.4238 42.021752 9.96011 47.75699
3910 1304 1 0.4238 32.94015 39.369626 35.628407
3911 1304 2 -0.8476 31.977376 39.310503 35.89217
3912 1304 1 0.4238 31.860745 39.68175 36.81335
3913 1305 1 0.4238 1.500788 15.32653 16.048647
3914 1305 2 -0.8476 1.982004 16.160534 15.778706
3915 1305 1 0.4238 1.500525 16.956649 16.145284
3916 1306 1 0.4238 7.827265 15.098282 46.216021
3917 1306 2 -0.8476 7.530971 14.62483 47.045511
3918 1306 1 0.4238 7.99685 13.742339 47.110048
3919 1307 1 0.4238 3.800847 14.30445 7.388541
3920 1307 2 -0.8476 3.973768 14.594522 6.447289
3921 1307 1 0.4238 3.637544 15.527515 6.31893
3922 1308 1 0.4238 33.518582 40.089879 6.126958
3923 1308 2 -0.8476 32.95511 40.848973 6.452957
3924 1308 1 0.4238 32.062157 40.818097 6.003868
3925 1309 1 0.4238 21.427903 35.650613 14.669732
3926 1309 2 -0.8476 22.323847 36.085808 14.580907
3927 1309 1 0.4238 22.47791 36.693538 15.359963
3928 1310 1 0.4238 31.121374 33.19054 7.103007
3929 1310 2 -0.8476 30.307974 32.802848 7.536683
3930 1310 1 0.4238 29.67185 32.489173 6.831734
3931 1311 1 0.4238 23.254261 30.017857 9.947002
3932 1311 2 -0.8476 24.034382 29.609476 9.473043
3933 1311 1 0.4238 24.598153 30.332858 9.074446
3934 1312 1 0.4238 17.794702 29.59795 31.882736
3935 1312 2 -0.8476 17.454737 28.660029 31.951504
3936 1312 1 0.4238 16.792549 28.599437 32.698388
3937 1313 1 0.4238 32.667505 1.501536 36.457262
3938 1313 2 -0.8476 31.816827 2.018089 36.359687
3939 1313 1 0.4238 31.179349 1.504965 35.784949
3940 1314 1 0.4238 46.946942 1.502225 9.718319
3941 1314 2 -0.8476 47.430765 2.071922 10.382669
3942 1314 1 0.4238 47.762237 1.500244 11.13321
3943 1315 1 0.4238 24.388426 33.930164 29.42053
3944 1315 2 -0.8476 23.399314 33.917741 29.273889
3945 1315 1 0.4238 23.096602 32.976768 29.122446
3946 1316 1 0.4238 1.501818 11.192808 46.816312
3947 1316 2 -0.8476 1.677548 11.483129 47.756967
3948 1316 1 0.4238 1.95782 12.443032 47.762687
3949 1317 1 0.4238 47.761271 10.161311 15.019235
3950 1317 2 -0.8476 47.750904 9.617221 15.858197
3951 1317 1 0.4238 47.043002 9.965548 16.472642
3952 1318 1 0.4238 45.115436 2.262535 29.784704
3953 1318 2 -0.8476 44.738633 1.519789 29.231217
3954 1318 1 0.4238 45.197377 1.500299 28.342862
3955 1319 1 0.4238 2.396619 23.55672 46.063876
3956 1319 2 -0.8476 1.500043 23.536632 46.506311
3957 1319 1 0.4238 1.550087 24.015407 47.382821
3958 1320 1 0.4238 21.948298 2.142602 22.245758
3959 1320 2 -0.8476 21.181115 1.501226 22.253918
3960 1320 1 0.4238 20.321091 2.009722 22.211614
3961 1321 1 0.4238 47.760582 47.762214 27.563235
3962 1321 2 -0.8476 47.26816 47.461453 28.379975
3963 1321 1 0.4238 47.761379 47.762262 29.196216
3964 1322 1 0.4238 46.601999 38.318443 34.529939
3965 1322 2 -0.8476 47.587545 38.471169 34.456634
3966 1322 1 0.4238 47.761763 39.225618 33.82382
3967 1323 1 0.4238 19.586819 15.156234 3.014809
3968 1323 2 -0.8476 19.122951 14.421296 2.520146
3969 1323 1 0.4238 19.323566 14.498483 1.543522
3970 1324 1 0.4238 20.969842 34.134949 27.819541
3971 1324 2 -0.8476 20.206536 33.721401 27.323212
3972 1324 1 0.4238 19.936634 34.319368 26.568502
3973 1325 1 0.4238 15.692637 19.892087 22.646336
3974 1325 2 -0.8476 15.290175 20.156757 23.522677
3975 1325 1 0.4238 15.774229 19.693728 24.265169
3976 1326 1 0.4238 14.145679 19.35223 17.086004
3977 1326 2 -0.8476 14.173292 19.463972 16.092651
3978 1326 1 0.4238 14.08846 20.433739 15.863839
3979 1327 1 0.4238 41.209387 47.760805 40.660287
3980 1327 2 -0.8476 42.203223 47.708718 40.758149
3981 1327 1 0.4238 42.511224 46.781991 40.542945
3982 1328 1 0.4238 25.666117 5.03978 46.192103
3983 1328 2 -0.8476 26.241221 5.403055 46.925101
3984 1328 1 0.4238 25.682924 5.561052 47.739559
3985 1329 1 0.4238 32.792974 20.813363 31.184871
3986 1329 2 -0.8476 32.47689 20.142466 31.855684
3987 1329 1 0.4238 32.661919 19.219911 31.517076
3988 1330 1 0.4238 38.780311 23.466594 28.230925
3989 1330 2 -0.8476 38.930572 22.552022 27.855452
3990 1330 1 0.4238 39.651052 22.092663 28.374969
3991 1331 1 0.4238 5.584816 47.761325 21.814219
3992 1331 2 -0.8476 6.33648 47.231956 21.420811
3993 1331 1 0.4238 6.772311 47.761828 20.69329
3994 1332 1 0.4238 26.362958 38.066781 30.952184
3995 1332 2 -0.8476 26.508906 38.630339 31.765266
3996 1332 1 0.4238 26.497135 38.050002 32.579556
3997 1333 1 0.4238 34.734777 11.053328 16.377174
3998 1333 2 -0.8476 33.925652 11.632423 16.477001
3999 1333 1 0.4238 33.115859 11.056887 16.590994
4000 1334 1 0.4238 26.573286 31.06003 39.357503
4001 1334 2 -0.8476 25.723819 31.586947 39.38516
4002 1334 1 0.4238 25.833719 32.424763 38.850383
4003 1335 1 0.4238 30.163262 16.914127 33.020401
4004 1335 2 -0.8476 30.81323 17.119107 33.752197
4005 1335 1 0.4238 31.287575 17.975101 33.546596
4006 1336 1 0.4238 12.528351 47.760094 29.245521
4007 1336 2 -0.8476 11.732619 47.735629 28.640365
4008 1336 1 0.4238 10.896379 47.754514 29.188402
4009 1337 1 0.4238 12.383184 1.505023 38.595692
4010 1337 2 -0.8476 11.386928 1.500039 38.682
4011 1337 1 0.4238 10.973448 1.507321 37.771515
4012 1338 1 0.4238 8.25548 23.602263 6.990993
4013 1338 2 -0.8476 7.54867 23.779878 7.675736
4014 1338 1 0.4238 6.800491 23.126612 7.559667
4015 1339 1 0.4238 32.295368 2.169541 21.774112
4016 1339 2 -0.8476 33.012789 1.500535 21.968374
4017 1339 1 0.4238 33.870661 1.977668 22.15916
4018 1340 1 0.4238 26.397114 9.465433 43.289039
4019 1340 2 -0.8476 26.430879 9.511151 42.290655
4020 1340 1 0.4238 25.548404 9.826185 41.941383
4021 1341 1 0.4238 27.066535 17.61092 39.264051
4022 1341 2 -0.8476 26.585298 17.464846 40.128386
4023 1341 1 0.4238 27.00214 18.02865 40.841385
4024 1342 1 0.4238 1.500803 47.337084 6.934409
4025 1342 2 -0.8476 2.034695 47.761626 6.203162
4026 1342 1 0.4238 1.500467 47.762523 5.357822
4027 1343 1 0.4238 46.129706 1.500496 47.761472
4028 1343 2 -0.8476 46.946635 1.503247 47.18474
4029 1343 1 0.4238 47.762686 1.500515 47.762714
4030 1344 1 0.4238 37.816646 32.888028 47.678357
4031 1344 2 -0.8476 38.812828 32.912687 47.762102
4032 1344 1 0.4238 39.214093 33.187042 46.888194
4033 1345 1 0.4238 37.498314 17.464781 33.194072
4034 1345 2 -0.8476 36.987246 17.586896 34.044893
4035 1345 1 0.4238 36.082866 17.961056 33.839707
4036 1346 1 0.4238 35.112928 47.728155 22.992624
4037 1346 2 -0.8476 35.362442 46.765986 23.102042
4038 1346 1 0.4238 34.604628 46.18851 22.798331
4039 1347 1 0.4238 37.368792 39.131152 22.596278
4040 1347 2 -0.8476 36.905881 39.580695 23.360232
4041 1347 1 0.4238 36.81785 40.558097 23.168045
4042 1348 1 0.4238 16.915924 15.001722 42.944105
4043 1348 2 -0.8476 16.593668 14.507744 43.751655
4044 1348 1 0.4238 15.79368 13.958814 43.509383
4045 1349 1 0.4238 18.737573 32.122298 41.362491
4046 1349 2 -0.8476 19.702663 32.379148 41.311197
4047 1349 1 0.4238 19.797311 33.357725 41.494028
4048 1350 1 0.4238 8.002538 31.958776 3.902541
4049 1350 2 -0.8476 8.213532 32.905202 3.658083
4050 1350 1 0.4238 9.073368 33.177285 4.090116
4051 1351 1 0.4238 26.12067 36.699759 37.854961
4052 1351 2 -0.8476 27.051917 36.335372 37.853757
4053 1351 1 0.4238 27.3725 36.236836 38.795838
4054 1352 1 0.4238 7.71776 35.46094 4.802066
4055 1352 2 -0.8476 8.630957 35.860471 4.882364
4056 1352 1 0.4238 9.047781 35.924248 3.975618
4057 1353 1 0.4238 6.327751 17.375283 23.355058
4058 1353 2 -0.8476 6.568856 17.48522 24.31931
4059 1353 1 0.4238 6.56946 18.45729 24.554
4060 1354 1 0.4238 47.758758 16.660622 17.557088
4061 1354 2 -0.8476 47.695774 17.552885 17.109987
4062 1354 1 0.4238 47.716503 17.430685 16.117698
4063 1355 1 0.4238 27.405366 26.962429 23.777014
4064 1355 2 -0.8476 27.350255 26.871134 24.771312
4065 1355 1 0.4238 27.220399 27.773526 25.182195
4066 1356 1 0.4238 5.387536 19.416062 33.150349
4067 1356 2 -0.8476 6.059144 18.68103 33.05723
4068 1356 1 0.4238 6.832577 19.003401 32.511449
4069 1357 1 0.4238 32.174987 5.184016 28.440272
4070 1357 2 -0.8476 32.299274 4.194615 28.515358
4071 1357 1 0.4238 33.251084 3.994963 28.74816
4072 1358 1 0.4238 9.585592 5.524383 16.33499
4073 1358 2 -0.8476 10.020653 6.41547 16.464162
4074 1358 1 0.4238 10.983487 6.285139 16.700731
4075 1359 1 0.4238 14.736723 8.009296 27.369816
4076 1359 2 -0.8476 14.636434 7.051362 27.638714
4077 1359 1 0.4238 13.81042 6.945282 28.192291
4078 1360 1 0.4238 44.529971 43.632553 6.615678
4079 1360 2 -0.8476 45.132285 44.395192 6.851473
4080 1360 1 0.4238 44.670501 45.259104 6.650449
4081 1361 1 0.4238 7.109704 1.501048 30.203094
4082 1361 2 -0.8476 6.16226 1.792015 30.336092
4083 1361 1 0.4238 5.848284 1.501958 31.240131
4084 1362 1 0.4238 18.387851 38.00727 19.045365
4085 1362 2 -0.8476 19.343827 37.714445 19.026259
4086 1362 1 0.4238 19.927029 38.494849 18.800772
4087 1363 1 0.4238 41.221874 8.267235 28.273846
4088 1363 2 -0.8476 41.24891 7.267665 28.285264
4089 1363 1 0.4238 40.315457 6.909047 28.292815
4090 1364 1 0.4238 10.543077 14.947407 3.75037
4091 1364 2 -0.8476 9.666863 15.306889 4.071339
4092 1364 1 0.4238 9.739469 16.295869 4.200359
4093 1365 1 0.4238 29.992093 33.551232 25.223348
4094 1365 2 -0.8476 30.582701 32.750996 25.119405
4095 1365 1 0.4238 30.024072 31.950285 24.903081
4096 1366 1 0.4238 31.039843 5.487571 1.508918
4097 1366 2 -0.8476 30.760105 4.527535 1.500045
4098 1366 1 0.4238 31.571987 3.943734 1.504835
4099 1367 1 0.4238 12.16728 22.519089 30.674505
4100 1367 2 -0.8476 12.15549 22.310123 29.696654
4101 1367 1 0.4238 12.931145 22.757 29.250942
4102 1368 1 0.4238 4.075193 7.261919 17.052353
4103 1368 2 -0.8476 4.679074 7.136627 17.839518
4104 1368 1 0.4238 4.417263 7.773016 18.565097
4105 1369 1 0.4238 41.325792 4.935501 14.84429
4106 1369 2 -0.8476 41.037794 3.97899 14.890598
4107 1369 1 0.4238 40.039183 3.932384 14.91514
4108 1370 1 0.4238 2.881115 30.3177 13.766675
4109 1370 2 -0.8476 1.943304 30.525585 14.044693
4110 1370 1 0.4238 1.500342 29.69138 14.373153
4111 1371 1 0.4238 35.314505 23.516385 12.618433
4112 1371 2 -0.8476 35.046525 22.569646 12.79696
4113 1371 1 0.4238 35.362075 21.987027 12.047972
4114 1372 1 0.4238 47.02025 22.966861 1.501054
4115 1372 2 -0.8476 47.76263 23.636724 1.513567
4116 1372 1 0.4238 47.378494 24.559998 1.515215
4117 1373 1 0.4238 26.289255 14.075782 35.641274
4118 1373 2 -0.8476 25.441704 14.182355 36.161177
4119 1373 1 0.4238 25.181584 15.147741 36.180342
4120 1374 1 0.4238 40.058129 33.780503 36.494009
4121 1374 2 -0.8476 39.993517 34.603444 35.929569
4122 1374 1 0.4238 40.766802 34.634827 35.296287
4123 1375 1 0.4238 26.776948 31.087454 4.162566
4124 1375 2 -0.8476 26.742256 30.092172 4.071956
4125 1375 1 0.4238 27.672902 29.72707 4.047464
4126 1376 1 0.4238 43.869797 31.32737 27.906372
4127 1376 2 -0.8476 43.990662 30.371089 28.172677
4128 1376 1 0.4238 43.557776 30.215072 29.060521
4129 1377 1 0.4238 41.95469 30.522449 5.654824
4130 1377 2 -0.8476 41.469262 31.003584 4.924845
4131 1377 1 0.4238 40.486917 30.988099 5.111281
4132 1378 1 0.4238 40.714369 29.827749 33.284449
4133 1378 2 -0.8476 40.411679 30.719893 32.949102
4134 1378 1 0.4238 39.904753 31.192484 33.669992
4135 1379 1 0.4238 21.753985 27.731823 28.622644
4136 1379 2 -0.8476 22.30354 26.906248 28.750762
4137 1379 1 0.4238 21.69908 26.117511 28.862659
4138 1380 1 0.4238 44.359351 39.967349 37.073977
4139 1380 2 -0.8476 43.646996 40.669122 37.065868
4140 1380 1 0.4238 42.748107 40.231405 37.045814
4141 1381 1 0.4238 13.443341 41.794118 40.926934
4142 1381 2 -0.8476 13.489885 42.601405 41.515255
4143 1381 1 0.4238 14.415887 42.978178 41.491543
4144 1382 1 0.4238 4.238094 47.761591 36.698072
4145 1382 2 -0.8476 4.522261 47.489031 37.617289
4146 1382 1 0.4238 3.822019 47.761494 38.277156
4147 1383 1 0.4238 44.605805 24.938774 25.065961
4148 1383 2 -0.8476 44.318968 25.88918 24.945747
4149 1383 1 0.4238 43.354067 25.915625 24.684468
4150 1384 1 0.4238 9.194878 45.344685 47.754979
4151 1384 2 -0.8476 9.991616 45.948574 47.732046
4152 1384 1 0.4238 9.688841 46.901145 47.762635
4153 1385 1 0.4238 17.356874 10.861475 17.905106
4154 1385 2 -0.8476 17.571329 9.909264 18.122597
4155 1385 1 0.4238 18.061492 9.868484 18.993273
4156 1386 1 0.4238 25.35078 31.485382 28.609387
4157 1386 2 -0.8476 24.949745 30.959569 29.359514
4158 1386 1 0.4238 25.147836 31.413746 30.228123
4159 1387 1 0.4238 22.120382 3.980328 38.162105
4160 1387 2 -0.8476 21.726719 3.850561 39.072154
4161 1387 1 0.4238 20.768671 4.137077 39.064842
4162 1388 1 0.4238 35.9218 12.355793 46.168125
4163 1388 2 -0.8476 35.188514 12.399317 46.846651
4164 1388 1 0.4238 35.575034 12.290976 47.762546
4165 1389 1 0.4238 26.141221 17.743203 3.799058
4166 1389 2 -0.8476 25.962842 17.460089 4.74141
4167 1389 1 0.4238 25.304562 18.086596 5.15873
4168 1390 1 0.4238 43.690775 42.613645 27.39784
4169 1390 2 -0.8476 44.413698 42.357886 26.755991
4170 1390 1 0.4238 45.103826 43.080946 26.725871
4171 1391 1 0.4238 22.345275 11.886358 18.442707
4172 1391 2 -0.8476 23.202306 12.329954 18.180563
4173 1391 1 0.4238 23.022691 13.282007 17.93291
4174 1392 1 0.4238 25.624743 7.001321 35.091709
4175 1392 2 -0.8476 26.37929 7.281478 35.685149
4176 1392 1 0.4238 26.177127 8.177283 36.080957
4177 1393 1 0.4238 10.947953 15.722026 21.254748
4178 1393 2 -0.8476 11.563675 14.935169 21.212996
4179 1393 1 0.4238 12.321105 15.070369 21.851762
4180 1394 1 0.4238 43.233723 11.289812 14.409011
4181 1394 2 -0.8476 42.949954 10.374608 14.695152
4182 1394 1 0.4238 41.993385 10.397857 14.98573
4183 1395 1 0.4238 33.385233 3.667557 40.756693
4184 1395 2 -0.8476 34.023638 3.552863 41.5178
4185 1395 1 0.4238 33.797939 4.203291 42.24306
4186 1396 1 0.4238 38.756352 44.754954 26.277525
4187 1396 2 -0.8476 39.476904 45.446402 26.329523
4188 1396 1 0.4238 40.347364 45.004973 26.547334
4189 1397 1 0.4238 40.60968 28.848517 35.851717
4190 1397 2 -0.8476 39.898926 28.76762 36.550491
4191 1397 1 0.4238 39.516014 27.844039 36.531088
4192 1398 1 0.4238 44.971411 46.471998 42.561948
4193 1398 2 -0.8476 44.463148 47.314403 42.383001
4194 1398 1 0.4238 44.836264 47.762633 41.570676
4195 1399 1 0.4238 33.428401 19.892188 41.272499
4196 1399 2 -0.8476 32.991291 19.006226 41.427438
4197 1399 1 0.4238 32.889042 18.852329 42.41022
4198 1400 1 0.4238 7.385775 12.763417 31.888192
4199 1400 2 -0.8476 6.561149 12.233356 31.690639
4200 1400 1 0.4238 6.159328 11.910312 32.547483
4201 1401 1 0.4238 11.81475 39.217291 42.584161
4202 1401 2 -0.8476 12.528894 38.663276 42.156299
4203 1401 1 0.4238 12.877454 39.136001 41.346955
4204 1402 1 0.4238 15.342051 10.18257 47.682371
4205 1402 2 -0.8476 15.096647 11.150693 47.732508
4206 1402 1 0.4238 14.10119 11.241103 47.762349
4207 1403 1 0.4238 47.762709 45.456863 26.086308
4208 1403 2 -0.8476 46.886921 45.004655 25.91748
4209 1403 1 0.4238 46.178129 45.694797 25.771478
4210 1404 1 0.4238 9.609285 21.512331 30.635534
4211 1404 2 -0.8476 9.177998 22.336096 30.267562
4212 1404 1 0.4238 9.449709 23.127548 30.815081
4213 1405 1 0.4238 22.291018 19.659197 28.079573
4214 1405 2 -0.8476 21.504025 19.257006 28.547424
4215 1405 1 0.4238 20.875812 19.982998 28.827218
4216 1406 1 0.4238 10.38997 45.381554 44.135037
4217 1406 2 -0.8476 9.571167 44.877907 43.859537
4218 1406 1 0.4238 9.8117 43.924408 43.677922
4219 1407 1 0.4238 11.926578 36.552359 5.249784
4220 1407 2 -0.8476 11.718614 36.505172 4.272786
4221 1407 1 0.4238 11.778476 35.555686 3.964742
4222 1408 1 0.4238 12.910365 29.389884 4.59274
4223 1408 2 -0.8476 12.582537 28.717388 5.256274
4224 1408 1 0.4238 13.093653 27.864842 5.147067
4225 1409 1 0.4238 27.728378 33.449207 21.035519
4226 1409 2 -0.8476 28.408872 33.929258 20.481914
4227 1409 1 0.4238 29.254107 33.395494 20.455958
4228 1410 1 0.4238 45.253599 20.20894 37.79944
4229 1410 2 -0.8476 45.195512 19.225518 37.971216
4230 1410 1 0.4238 44.300838 18.888262 37.678274
4231 1411 1 0.4238 9.564884 35.645546 13.25136
4232 1411 2 -0.8476 9.40412 36.25906 14.024506
4233 1411 1 0.4238 9.424691 35.734868 14.875858
4234 1412 1 0.4238 21.580053 42.043072 45.776234
4235 1412 2 -0.8476 21.109225 42.679138 45.164891
4236 1412 1 0.4238 20.273946 43.008221 45.60536
4237 1413 1 0.4238 38.893753 36.639691 2.965845
4238 1413 2 -0.8476 39.615285 37.139128 2.486309
4239 1413 1 0.4238 39.457528 37.087579 1.500178
4240 1414 1 0.4238 23.150363 11.768948 39.79521
4241 1414 2 -0.8476 23.443904 12.382166 40.528557
4242 1414 1 0.4238 24.349677 12.106867 40.850711
4243 1415 1 0.4238 39.445674 45.696194 40.46807
4244 1415 2 -0.8476 39.844301 45.245817 41.26698
4245 1415 1 0.4238 39.169773 44.629422 41.673267
4246 1416 1 0.4238 6.466974 20.666722 37.376561
4247 1416 2 -0.8476 7.250561 20.063442 37.525038
4248 1416 1 0.4238 6.937641 19.11454 37.565846
4249 1417 1 0.4238 9.002933 23.517031 24.382186
4250 1417 2 -0.8476 8.159404 24.049247 24.454335
4251 1417 1 0.4238 7.371884 23.439393 24.365514
4252 1418 1 0.4238 5.889795 34.289904 28.917873
4253 1418 2 -0.8476 5.78838 33.94345 27.985304
4254 1418 1 0.4238 4.82676 33.990502 27.714985
4255 1419 1 0.4238 23.439603 25.199025 43.339656
4256 1419 2 -0.8476 24.432813 25.224031 43.453279
4257 1419 1 0.4238 24.655806 25.272341 44.4269
4258 1420 1 0.4238 11.359026 27.220408 47.727888
4259 1420 2 -0.8476 11.982176 28.001743 47.762504
4260 1420 1 0.4238 11.453281 28.85041 47.756738
4261 1421 1 0.4238 39.963848 41.932027 23.295612
4262 1421 2 -0.8476 40.339026 41.043717 23.560462
4263 1421 1 0.4238 39.599336 40.37323 23.617956
4264 1422 1 0.4238 23.342378 40.679934 38.869961
4265 1422 2 -0.8476 23.917324 39.97367 39.283032
4266 1422 1 0.4238 23.765228 39.955885 40.271238
4267 1423 1 0.4238 9.828111 44.235955 29.747762
4268 1423 2 -0.8476 9.581356 43.270413 29.665062
4269 1423 1 0.4238 9.860534 42.782995 30.492397
4270 1424 1 0.4238 19.967632 7.475183 13.118348
4271 1424 2 -0.8476 19.590594 6.601656 12.810464
4272 1424 1 0.4238 18.689808 6.752427 12.403214
4273 1425 1 0.4238 34.358287 19.131378 7.453376
4274 1425 2 -0.8476 34.347787 18.131434 7.454153
4275 1425 1 0.4238 33.401523 17.808039 7.454822
4276 1426 1 0.4238 25.666581 31.150703 6.676719
4277 1426 2 -0.8476 24.837814 31.220639 6.121512
4278 1426 1 0.4238 24.593176 30.316054 5.772402
4279 1427 1 0.4238 12.212534 43.989861 10.887224
4280 1427 2 -0.8476 12.705277 43.245722 10.436156
4281 1427 1 0.4238 12.2568 42.375985 10.642128
4282 1428 1 0.4238 35.372773 12.230732 30.241151
4283 1428 2 -0.8476 34.792501 12.463211 31.021687
4284 1428 1 0.4238 34.402297 13.374084 30.88733
4285 1429 1 0.4238 46.28812 37.312901 21.248171
4286 1429 2 -0.8476 46.778943 38.1803 21.330097
4287 1429 1 0.4238 47.762688 38.014399 21.261385
4288 1430 1 0.4238 42.537955 24.553692 27.066108
4289 1430 2 -0.8476 43.300763 25.047372 27.483725
4290 1430 1 0.4238 43.133995 26.031502 27.423092
4291 1431 1 0.4238 39.279776 42.492154 34.039509
4292 1431 2 -0.8476 39.816052 42.788394 33.24916
4293 1431 1 0.4238 39.711898 42.125055 32.508125
4294 1432 1 0.4238 36.166752 47.762728 14.542482
4295 1432 2 -0.8476 35.29486 47.379935 14.237073
4296 1432 1 0.4238 34.552094 47.762711 14.786419
4297 1433 1 0.4238 9.666676 30.396355 24.361898
4298 1433 2 -0.8476 9.098878 30.166028 25.152186
4299 1433 1 0.4238 8.887018 29.188847 25.136937
4300 1434 1 0.4238 10.302648 1.501204 23.608733
4301 1434 2 -0.8476 9.533829 2.066937 23.310633
4302 1434 1 0.4238 8.713242 1.500576 23.234016
4303 1435 1 0.4238 16.481856 7.068738 9.966727
4304 1435 2 -0.8476 15.656531 6.708871 9.531601
4305 1435 1 0.4238 15.655704 5.710737 9.592652
4306 1436 1 0.4238 23.643354 17.036751 44.896585
4307 1436 2 -0.8476 24.175808 17.307159 45.698691
4308 1436 1 0.4238 25.142545 17.370935 45.450998
4309 1437 1 0.4238 46.645544 47.762725 1.915952
4310 1437 2 -0.8476 47.622357 47.595826 1.781857
4311 1437 1 0.4238 47.762722 46.646685 1.500024
4312 1438 1 0.4238 30.676188 27.486013 1.500206
4313 1438 2 -0.8476 30.210446 26.69706 1.901003
4314 1438 1 0.4238 29.290829 26.621621 1.515499
4315 1439 1 0.4238 42.601629 10.376982 20.477451
4316 1439 2 -0.8476 41.691008 9.964347 20.455032
4317 1439 1 0.4238 41.759757 8.992594 20.680796
4318 1440 1 0.4238 46.978878 9.072541 33.794643
4319 1440 2 -0.8476 46.296029 9.736177 33.489188
4320 1440 1 0.4238 45.385834 9.430541 33.768708
4321 1441 1 0.4238 22.921592 9.105419 40.438109
4322 1441 2 -0.8476 22.746428 8.832565 39.492135
4323 1441 1 0.4238 21.962145 9.342012 39.138067
4324 1442 1 0.4238 14.862168 27.745786 23.745447
4325 1442 2 -0.8476 14.316716 28.488796 23.35761
4326 1442 1 0.4238 14.019929 28.238486 22.436056
4327 1443 1 0.4238 1.500687 37.099832 20.902605
4328 1443 2 -0.8476 1.500683 36.504925 20.098811
4329 1443 1 0.4238 1.500671 37.064464 19.270007
4330 1444 1 0.4238 40.143689 35.279072 38.803218
4331 1444 2 -0.8476 40.225954 36.1629 38.342695
4332 1444 1 0.4238 39.353956 36.397259 37.912934
4333 1445 1 0.4238 13.095066 16.393847 42.99942
4334 1445 2 -0.8476 13.229062 17.382476 42.93118
4335 1445 1 0.4238 14.171751 17.608778 43.176384
4336 1446 1 0.4238 34.808252 2.336135 29.784256
4337 1446 2 -0.8476 34.260591 1.50178 29.846859
4338 1446 1 0.4238 33.289639 1.740655 29.860695
4339 1447 1 0.4238 8.070811 15.402416 31.532004
4340 1447 2 -0.8476 7.124102 15.721378 31.487231
4341 1447 1 0.4238 6.875672 16.15088 32.355453
4342 1448 1 0.4238 40.438172 1.843081 1.529464
4343 1448 2 -0.8476 40.305271 2.833923 1.505614
4344 1448 1 0.4238 41.195411 3.289576 1.500019
4345 1449 1 0.4238 16.862248 43.867144 13.381794
4346 1449 2 -0.8476 17.042708 44.844018 13.267113
4347 1449 1 0.4238 17.882132 44.968034 12.737974
4348 1450 1 0.4238 20.064361 40.916714 47.762785
4349 1450 2 -0.8476 19.138016 41.293344 47.75692
4350 1450 1 0.4238 18.474137 40.545506 47.758678
4351 1451 1 0.4238 26.314301 3.383535 37.535993
4352 1451 2 -0.8476 27.049936 4.035666 37.719208
4353 1451 1 0.4238 27.344983 4.455141 36.860728
4354 1452 1 0.4238 14.487934 1.501948 36.157364
4355 1452 2 -0.8476 13.491966 1.544337 36.078303
4356 1452 1 0.4238 13.208184 2.494135 35.946579
4357 1453 1 0.4238 5.063453 42.11551 20.655016
4358 1453 2 -0.8476 4.142721 41.725819 20.635161
4359 1453 1 0.4238 4.201597 40.739096 20.483801
4360 1454 1 0.4238 31.730704 13.080084 30.250358
4361 1454 2 -0.8476 31.42283 12.580981 31.060365
4362 1454 1 0.4238 32.115951 11.909036 31.321273
4363 1455 1 0.4238 23.770301 10.972162 24.64178
4364 1455 2 -0.8476 24.481493 10.507697 25.169489
4365 1455 1 0.4238 24.057071 9.955487 25.887075
4366 1456 1 0.4238 5.742339 6.311236 4.081376
4367 1456 2 -0.8476 4.875035 5.813529 4.072847
4368 1456 1 0.4238 5.055252 4.829947 4.063405
4369 1457 1 0.4238 18.553206 24.075853 28.068004
4370 1457 2 -0.8476 18.338168 24.888112 28.610216
4371 1457 1 0.4238 19.139754 25.152822 29.146301
4372 1458 1 0.4238 8.683614 25.798585 34.632453
4373 1458 2 -0.8476 9.137648 26.213854 35.420745
4374 1458 1 0.4238 9.94136 26.722827 35.112535
4375 1459 1 0.4238 26.118684 12.597057 38.626861
4376 1459 2 -0.8476 26.829402 11.972367 38.303378
4377 1459 1 0.4238 27.729378 12.368704 38.484927
4378 1460 1 0.4238 35.963196 25.007939 47.762179
4379 1460 2 -0.8476 34.991562 24.797933 47.653435
4380 1460 1 0.4238 34.794677 24.621049 46.689097
4381 1461 1 0.4238 18.868673 7.739722 6.093296
4382 1461 2 -0.8476 18.462224 6.832862 5.981927
4383 1461 1 0.4238 19.177656 6.136984 6.044461
4384 1462 1 0.4238 14.273809 28.287428 15.59547
4385 1462 2 -0.8476 14.993736 27.594382 15.632771
4386 1462 1 0.4238 15.663048 27.769858 14.910808
4387 1463 1 0.4238 6.681179 30.162696 46.298898
4388 1463 2 -0.8476 6.189778 30.684766 45.601784
4389 1463 1 0.4238 5.765621 31.486428 46.023008
4390 1464 1 0.4238 29.756054 39.275115 18.599308
4391 1464 2 -0.8476 29.963291 38.44668 18.078972
4392 1464 1 0.4238 30.943908 38.410606 17.886389
4393 1465 1 0.4238 31.179551 23.825001 38.292258
4394 1465 2 -0.8476 31.661408 23.833486 37.416049
4395 1465 1 0.4238 31.022292 24.077076 36.686533
4396 1466 1 0.4238 39.545173 36.259408 11.011128
4397 1466 2 -0.8476 39.336111 37.221885 11.184135
4398 1466 1 0.4238 38.348585 37.365352 11.11926
4399 1467 1 0.4238 28.984177 21.659076 44.781755
4400 1467 2 -0.8476 29.961036 21.843464 44.890138
4401 1467 1 0.4238 30.08559 22.659497 45.454564
4402 1468 1 0.4238 24.505648 32.777003 3.878773
4403 1468 2 -0.8476 24.849179 33.529995 3.317534
4404 1468 1 0.4238 24.946894 34.349234 3.882599
4405 1469 1 0.4238 21.3505 29.781657 19.844516
4406 1469 2 -0.8476 20.383334 30.035749 19.839274
4407 1469 1 0.4238 20.300546 31.031667 19.803324
4408 1470 1 0.4238 47.753452 3.056026 29.645339
4409 1470 2 -0.8476 47.762735 2.452232 30.442425
4410 1470 1 0.4238 47.720649 1.500052 30.139803
4411 1471 1 0.4238 35.818319 8.11428 25.451944
4412 1471 2 -0.8476 35.511006 7.440186 24.780262
4413 1471 1 0.4238 34.555986 7.617757 24.542765
4414 1472 1 0.4238 13.470018 9.415061 10.419938
4415 1472 2 -0.8476 14.084725 8.663392 10.658951
4416 1472 1 0.4238 13.546598 7.849222 10.877001
4417 1473 1 0.4238 47.756892 35.06931 34.29667
4418 1473 2 -0.8476 46.964959 35.378609 33.770195
4419 1473 1 0.4238 47.23568 36.134282 33.173817
4420 1474 1 0.4238 16.97507 7.112177 19.508382
4421 1474 2 -0.8476 17.442944 6.256758 19.730535
4422 1474 1 0.4238 17.363287 6.078231 20.711241
4423 1475 1 0.4238 37.230533 47.761222 11.794806
4424 1475 2 -0.8476 36.413947 47.209314 11.625739
4425 1475 1 0.4238 35.732186 47.761207 11.145514
4426 1476 1 0.4238 35.034172 13.737852 33.538252
4427 1476 2 -0.8476 34.976689 14.724182 33.383821
4428 1476 1 0.4238 35.636836 15.192533 33.971062
4429 1477 1 0.4238 30.85349 31.112214 34.454369
4430 1477 2 -0.8476 31.366034 30.540096 33.814072
4431 1477 1 0.4238 30.727889 30.054195 33.216853
4432 1478 1 0.4238 16.62807 1.500624 8.632574
4433 1478 2 -0.8476 15.949328 1.503662 7.898204
4434 1478 1 0.4238 16.415458 1.500588 7.013494
4435 1479 1 0.4238 17.119425 38.287984 13.795394
4436 1479 2 -0.8476 17.996406 38.739939 13.632175
4437 1479 1 0.4238 18.261358 38.617882 12.67567
4438 1480 1 0.4238 29.443431 3.96365 15.93186
4439 1480 2 -0.8476 28.778232 4.084796 15.195087
4440 1480 1 0.4238 28.77789 5.0403 14.900111
4441 1481 1 0.4238 1.595058 20.445881 41.542603
4442 1481 2 -0.8476 1.936254 19.595558 41.141933
4443 1481 1 0.4238 1.501606 18.816373 41.593542
4444 1482 1 0.4238 34.107782 21.098736 36.119816
4445 1482 2 -0.8476 33.763078 20.848914 37.024674
4446 1482 1 0.4238 34.448935 20.300327 37.50285
4447 1483 1 0.4238 44.691967 24.025266 33.588381
4448 1483 2 -0.8476 45.171755 24.602481 32.927604
4449 1483 1 0.4238 45.423881 24.056072 32.128937
4450 1484 1 0.4238 21.030231 28.856135 14.644166
4451 1484 2 -0.8476 20.55411 27.999843 14.443983
4452 1484 1 0.4238 21.223254 27.266192 14.325655
4453 1485 1 0.4238 30.980998 30.569858 30.480505
4454 1485 2 -0.8476 30.909309 30.695173 29.490981
4455 1485 1 0.4238 31.548952 31.40573 29.197784
4456 1486 1 0.4238 6.658983 13.039527 44.812823
4457 1486 2 -0.8476 5.928184 13.721369 44.780849
4458 1486 1 0.4238 5.058748 13.289609 45.020981
4459 1487 1 0.4238 35.845241 36.342807 11.616747
4460 1487 2 -0.8476 35.685015 37.30108 11.853478
4461 1487 1 0.4238 35.59374 37.840444 11.016368
4462 1488 1 0.4238 26.428197 9.272053 38.453822
4463 1488 2 -0.8476 25.489624 9.180117 38.786432
4464 1488 1 0.4238 25.205012 10.034334 39.22153
4465 1489 1 0.4238 47.02067 1.500448 14.026319
4466 1489 2 -0.8476 47.76243 1.841934 14.603535
4467 1489 1 0.4238 47.64193 1.502743 15.536503
4468 1490 1 0.4238 3.177193 25.015185 39.075429
4469 1490 2 -0.8476 2.541986 25.247906 38.338983
4470 1490 1 0.4238 1.709112 25.640706 38.728893
4471 1491 1 0.4238 18.965492 39.787713 21.059586
4472 1491 2 -0.8476 18.706182 40.42405 20.333064
4473 1491 1 0.4238 17.713806 40.40452 20.211379
4474 1492 1 0.4238 11.231791 11.204527 11.513585
4475 1492 2 -0.8476 11.881788 11.483248 12.220564
4476 1492 1 0.4238 12.765444 11.687194 11.799187
4477 1493 1 0.4238 47.76024 6.319921 14.319278
4478 1493 2 -0.8476 47.4689 7.27032 14.428196
4479 1493 1 0.4238 47.021229 7.579935 13.58931
4480 1494 1 0.4238 9.555273 39.274549 47.755446
4481 1494 2 -0.8476 10.523018 39.367704 47.521368
4482 1494 1 0.4238 10.837448 40.285786 47.762736
4483 1495 1 0.4238 35.80495 27.919707 33.874135
4484 1495 2 -0.8476 35.872616 26.978397 34.204826
4485 1495 1 0.4238 36.790599 26.817674 34.567421
4486 1496 1 0.4238 39.393197 10.555673 27.813426
4487 1496 2 -0.8476 39.207863 11.418934 27.343924
4488 1496 1 0.4238 39.314027 12.17749 27.986825
4489 1497 1 0.4238 35.702645 31.402767 19.244628
4490 1497 2 -0.8476 35.232309 32.236059 19.53516
4491 1497 1 0.4238 35.885818 32.992082 19.571968
4492 1498 1 0.4238 20.350892 44.546911 15.539076
4493 1498 2 -0.8476 19.499813 44.173473 15.170012
4494 1498 1 0.4238 18.735789 44.76294 15.432304
4495 1499 1 0.4238 35.725863 3.729237 3.943373
4496 1499 2 -0.8476 36.46298 4.399715 3.859008
4497 1499 1 0.4238 36.09154 5.320342 3.979334
4498 1500 1 0.4238 24.722316 34.881702 39.389183
4499 1500 2 -0.8476 25.200157 35.270206 40.177049
4500 1500 1 0.4238 25.889608 34.622521 40.501334
4501 1501 1 0.4238 33.547693 6.641931 40.741069
4502 1501 2 -0.8476 32.579795 6.886652 40.798382
4503 1501 1 0.4238 32.031269 6.056266 40.896248
4504 1502 1 0.4238 35.568358 47.611986 20.12838
4505 1502 2 -0.8476 34.616059 47.368255 20.312015
4506 1502 1 0.4238 34.453636 46.422738 20.029852
4507 1503 1 0.4238 24.000637 10.329675 12.274468
4508 1503 2 -0.8476 24.602616 10.788529 11.620959
4509 1503 1 0.4238 24.050535 11.25368 10.928976
4510 1504 1 0.4238 1.500339 35.00468 32.183181
4511 1504 2 -0.8476 1.502122 34.364812 31.414698
4512 1504 1 0.4238 1.500239 34.87607 30.555273
4513 1505 1 0.4238 3.950988 4.332425 36.057918
4514 1505 2 -0.8476 4.85457 4.76053 36.074193
4515 1505 1 0.4238 5.544085 4.094607 35.789383
4516 1506 1 0.4238 15.027752 17.868167 26.18023
4517 1506 2 -0.8476 15.54813 17.050718 26.42718
4518 1506 1 0.4238 14.916476 16.309041 26.652853
4519 1507 1 0.4238 7.338561 20.694277 10.342379
4520 1507 2 -0.8476 7.089562 21.252734 9.551098
4521 1507 1 0.4238 6.454302 20.743565 8.970415
4522 1508 1 0.4238 9.995129 16.197822 47.498332
4523 1508 2 -0.8476 10.23936 15.239019 47.643411
4524 1508 1 0.4238 11.229234 15.161525 47.76234
4525 1509 1 0.4238 36.255359 12.531507 3.716808
4526 1509 2 -0.8476 37.022021 13.069035 4.06794
4527 1509 1 0.4238 36.681792 13.9351 4.434238
4528 1510 1 0.4238 16.079838 37.551835 20.489316
4529 1510 2 -0.8476 15.675515 38.464266 20.426125
4530 1510 1 0.4238 15.646899 38.75056 19.468411
4531 1511 1 0.4238 18.835986 18.241625 40.078044
4532 1511 2 -0.8476 18.059559 17.622301 39.961429
4533 1511 1 0.4238 17.223315 18.15611 39.835962
4534 1512 1 0.4238 44.473359 11.036654 4.257002
4535 1512 2 -0.8476 44.80615 10.418054 3.545255
4536 1512 1 0.4238 44.249202 9.587535 3.538368
4537 1513 1 0.4238 47.741218 5.095675 10.390516
4538 1513 2 -0.8476 47.736076 6.095216 10.420373
4539 1513 1 0.4238 47.759709 6.456646 9.488274
4540 1514 1 0.4238 15.596585 28.055815 3.156547
4541 1514 2 -0.8476 16.195343 28.594815 3.748973
4542 1514 1 0.4238 15.640311 29.180099 4.340058
4543 1515 1 0.4238 40.045255 29.543324 7.40873
4544 1515 2 -0.8476 39.321019 29.195557 8.004163
4545 1515 1 0.4238 39.728942 28.776104 8.815124
4546 1516 1 0.4238 31.837511 16.220015 42.706969
4547 1516 2 -0.8476 31.044856 16.824805 42.629979
4548 1516 1 0.4238 30.22213 16.277907 42.474977
4549 1517 1 0.4238 17.653681 3.177359 1.500016
4550 1517 2 -0.8476 17.243118 4.088422 1.537469
4551 1517 1 0.4238 17.960356 4.771913 1.673147
4552 1518 1 0.4238 10.887502 8.694443 3.97337
4553 1518 2 -0.8476 11.356554 8.168333 4.682734
4554 1518 1 0.4238 10.755572 8.06815 5.475693
4555 1519 1 0.4238 11.159059 42.796871 26.458913
4556 1519 2 -0.8476 10.816795 43.376867 27.198142
4557 1519 1 0.4238 11.082782 44.325667 27.027763
4558 1520 1 0.4238 31.942785 35.791137 12.267204
4559 1520 2 -0.8476 32.732431 35.466773 12.788017
4560 1520 1 0.4238 33.386862 36.214351 12.901362
4561 1521 1 0.4238 11.790793 25.684565 39.956636
4562 1521 2 -0.8476 11.098265 25.120015 39.507537
4563 1521 1 0.4238 10.362134 24.918587 40.153708
4564 1522 1 0.4238 42.956415 33.864945 46.411553
4565 1522 2 -0.8476 43.474284 33.91479 47.26556
4566 1522 1 0.4238 43.670809 34.871361 47.48085
4567 1523 1 0.4238 21.813923 42.675353 5.477126
4568 1523 2 -0.8476 21.109108 42.951364 6.130619
4569 1523 1 0.4238 21.520455 43.069551 7.034403
4570 1524 1 0.4238 9.478232 38.656498 27.963728
4571 1524 2 -0.8476 10.080462 38.142368 28.574455
4572 1524 1 0.4238 9.530663 37.552016 29.165391
4573 1525 1 0.4238 41.866987 44.509808 42.977825
4574 1525 2 -0.8476 42.65864 45.021973 42.644701
4575 1525 1 0.4238 43.119282 44.495815 41.929882
4576 1526 1 0.4238 22.251676 28.268431 25.971962
4577 1526 2 -0.8476 22.575557 28.746669 25.155636
4578 1526 1 0.4238 22.521879 29.73407 25.304491
4579 1527 1 0.4238 3.770192 26.867157 7.895887
4580 1527 2 -0.8476 3.990349 26.890888 6.920712
4581 1527 1 0.4238 4.379442 26.011804 6.645364
4582 1528 1 0.4238 4.513299 10.524414 7.371879
4583 1528 2 -0.8476 4.033585 9.999482 8.074958
4584 1528 1 0.4238 4.638906 9.287187 8.430235
4585 1529 1 0.4238 17.81596 22.975928 40.39426
4586 1529 2 -0.8476 18.516568 23.504604 40.873479
4587 1529 1 0.4238 18.15749 24.41165 41.093322
4588 1530 1 0.4238 47.762498 22.558107 47.758568
4589 1530 2 -0.8476 47.445636 23.375496 47.277451
4590 1530 1 0.4238 47.760692 24.191081 47.762797
4591 1531 1 0.4238 2.989329 23.614942 34.393309
4592 1531 2 -0.8476 2.470689 23.008397 33.790718
4593 1531 1 0.4238 1.500086 23.245011 33.8348
4594 1532 1 0.4238 30.88368 12.547843 33.724021
4595 1532 2 -0.8476 30.572593 11.692082 34.137419
4596 1532 1 0.4238 29.578144 11.713822 34.240364
4597 1533 1 0.4238 1.500231 39.537341 16.881051
4598 1533 2 -0.8476 1.501493 38.538247 16.838513
4599 1533 1 0.4238 1.887675 38.242317 15.964849
4600 1534 1 0.4238 8.356639 8.355086 6.788823
4601 1534 2 -0.8476 7.37973 8.184295 6.660456
4602 1534 1 0.4238 6.867899 9.024018 6.841827
4603 1535 1 0.4238 37.453316 27.562486 3.964845
4604 1535 2 -0.8476 38.104037 28.321152 3.933413
4605 1535 1 0.4238 37.753558 29.036037 3.328349
4606 1536 1 0.4238 47.733826 29.238215 33.247004
4607 1536 2 -0.8476 47.761917 30.099422 33.754481
4608 1536 1 0.4238 47.737328 29.90896 34.735867
4609 1537 1 0.4238 29.827281 8.138495 31.919202
4610 1537 2 -0.8476 29.331425 8.887945 32.357895
4611 1537 1 0.4238 29.892563 9.715434 32.338281
4612 1538 1 0.4238 24.687084 30.778311 36.97021
4613 1538 2 -0.8476 23.936949 31.419521 37.131912
4614 1538 1 0.4238 23.425651 31.136544 37.943391
4615 1539 1 0.4238 7.696642 27.34186 42.26037
4616 1539 2 -0.8476 8.428295 28.005984 42.414069
4617 1539 1 0.4238 8.035252 28.921803 42.496482
4618 1540 1 0.4238 8.662086 10.06349 32.427867
4619 1540 2 -0.8476 9.001054 10.341394 31.52905
4620 1540 1 0.4238 9.831054 10.887965 31.640224
4621 1541 1 0.4238 22.599109 44.568858 39.393944
4622 1541 2 -0.8476 22.265491 43.767116 39.889836
4623 1541 1 0.4238 22.00655 43.055303 39.236941
4624 1542 1 0.4238 34.250923 18.950052 26.36916
4625 1542 2 -0.8476 34.181685 19.900581 26.671978
4626 1542 1 0.4238 33.276212 20.258128 26.443332
4627 1543 1 0.4238 38.696593 32.167997 28.26699
4628 1543 2 -0.8476 38.556294 32.759115 29.061279
4629 1543 1 0.4238 37.716328 33.287817 28.939083
4630 1544 1 0.4238 34.280902 29.187444 15.149016
4631 1544 2 -0.8476 35.066362 29.193204 14.530131
4632 1544 1 0.4238 35.037452 28.381118 13.94731
4633 1545 1 0.4238 1.501668 24.712755 14.264366
4634 1545 2 -0.8476 1.522448 24.293558 13.356709
4635 1545 1 0.4238 1.501742 25.009164 12.658512
4636 1546 1 0.4238 1.500167 16.455086 40.190026
4637 1546 2 -0.8476 2.469632 16.210152 40.178032
4638 1546 1 0.4238 3.02367 17.042609 40.170488
4639 1547 1 0.4238 20.251412 25.79236 35.707367
4640 1547 2 -0.8476 19.946956 26.063863 36.62038
4641 1547 1 0.4238 20.162411 27.028792 36.770353
4642 1548 1 0.4238 27.518832 41.859119 6.299229
4643 1548 2 -0.8476 28.499219 42.052429 6.260846
4644 1548 1 0.4238 28.997513 41.209359 6.058523
4645 1549 1 0.4238 37.075725 24.768664 40.602676
4646 1549 2 -0.8476 37.769037 25.480476 40.490233
4647 1549 1 0.4238 37.688076 26.144948 41.233147
4648 1550 1 0.4238 32.100991 35.698799 19.523903
4649 1550 2 -0.8476 32.827691 35.217764 20.014324
4650 1550 1 0.4238 33.559485 34.979428 19.375831
4651 1551 1 0.4238 10.768462 47.762799 34.590956
4652 1551 2 -0.8476 11.456573 47.037195 34.589393
4653 1551 1 0.4238 11.001829 46.146581 34.593177
4654 1552 1 0.4238 39.441749 47.466967 13.403814
4655 1552 2 -0.8476 40.119801 47.76257 14.076765
4656 1552 1 0.4238 41.035035 47.695099 13.679531
4657 1553 1 0.4238 9.436828 43.280714 41.030811
4658 1553 2 -0.8476 10.042125 42.507609 41.220348
4659 1553 1 0.4238 9.495447 41.713757 41.486701
4660 1554 1 0.4238 15.142216 22.085738 8.656754
4661 1554 2 -0.8476 16.101845 21.872731 8.473069
4662 1554 1 0.4238 16.621675 22.722801 8.38847
4663 1555 1 0.4238 16.574161 39.061606 36.642739
4664 1555 2 -0.8476 16.941891 38.782369 37.529757
4665 1555 1 0.4238 17.28483 39.5859 38.016307
4666 1556 1 0.4238 29.340578 27.726986 26.948771
4667 1556 2 -0.8476 30.259818 27.884714 27.30949
4668 1556 1 0.4238 30.373949 28.856066 27.517936
4669 1557 1 0.4238 2.36886 44.691126 7.097043
4670 1557 2 -0.8476 1.510714 44.675734 7.610218
4671 1557 1 0.4238 1.666886 45.031733 8.531562
4672 1558 1 0.4238 29.945043 23.759281 12.092803
4673 1558 2 -0.8476 30.490049 23.505329 11.293756
4674 1558 1 0.4238 29.883236 23.329596 10.518581
4675 1559 1 0.4238 4.965208 42.970044 26.9107
4676 1559 2 -0.8476 4.842665 43.962025 26.879754
4677 1559 1 0.4238 3.866139 44.176956 26.865559
4678 1560 1 0.4238 19.990905 31.32911 14.039205
4679 1560 2 -0.8476 20.149869 32.281769 13.780029
4680 1560 1 0.4238 19.61 32.500603 12.967224
4681 1561 1 0.4238 6.484459 31.173056 7.187785
4682 1561 2 -0.8476 7.055319 31.125595 8.007459
4683 1561 1 0.4238 7.245649 30.168538 8.226129
4684 1562 1 0.4238 12.086361 1.522222 9.067047
4685 1562 2 -0.8476 11.409138 2.24773 9.189547
4686 1562 1 0.4238 11.827027 3.132242 8.982166
4687 1563 1 0.4238 1.501293 38.439773 33.392338
4688 1563 2 -0.8476 1.500032 37.449903 33.53431
4689 1563 1 0.4238 2.439346 37.129606 33.657185
4690 1564 1 0.4238 18.120935 1.731943 26.745646
4691 1564 2 -0.8476 17.458447 1.52001 26.02718
4692 1564 1 0.4238 16.53788 1.502183 26.417358
4693 1565 1 0.4238 18.158624 29.84847 16.877224
4694 1565 2 -0.8476 17.236139 30.189048 16.695487
4695 1565 1 0.4238 16.570914 29.466698 16.884394
4696 1566 1 0.4238 8.950154 42.343876 35.840517
4697 1566 2 -0.8476 9.823759 42.756788 35.582993
4698 1566 1 0.4238 10.035845 42.52344 34.634011
4699 1567 1 0.4238 27.515983 41.305084 14.489236
4700 1567 2 -0.8476 27.678608 41.954096 15.232429
4701 1567 1 0.4238 26.9203 41.912689 15.883009
4702 1568 1 0.4238 8.270758 16.03739 35.12962
4703 1568 2 -0.8476 7.863174 16.94884 35.185609
4704 1568 1 0.4238 8.146403 17.489835 34.393709
4705 1569 1 0.4238 13.278609 40.376973 33.445401
4706 1569 2 -0.8476 13.267222 39.994899 32.52134
4707 1569 1 0.4238 14.155745 40.144828 32.087694
4708 1570 1 0.4238 43.391672 4.202583 28.688923
4709 1570 2 -0.8476 43.100096 4.476922 29.605286
4710 1570 1 0.4238 42.779799 3.673726 30.107565
4711 1571 1 0.4238 24.549584 20.580989 6.568263
4712 1571 2 -0.8476 24.271351 21.237181 7.269688
4713 1571 1 0.4238 24.902968 22.012461 7.270141
4714 1572 1 0.4238 17.37906 25.033573 10.353848
4715 1572 2 -0.8476 16.4229 24.792467 10.18764
4716 1572 1 0.4238 15.852212 25.608199 10.281968
4717 1573 1 0.4238 39.029206 14.1977 17.595157
4718 1573 2 -0.8476 38.420629 13.957958 16.838745
4719 1573 1 0.4238 38.581767 14.578913 16.071641
4720 1574 1 0.4238 8.751267 30.877278 31.867222
4721 1574 2 -0.8476 8.132015 31.631626 31.649309
4722 1574 1 0.4238 7.962231 32.172145 32.473331
4723 1575 1 0.4238 35.201821 43.794376 24.387153
4724 1575 2 -0.8476 34.81662 43.063344 24.950369
4725 1575 1 0.4238 34.921123 42.188259 24.477818
4726 1576 1 0.4238 7.87869 41.978293 32.220626
4727 1576 2 -0.8476 6.878982 41.958993 32.20606
4728 1576 1 0.4238 6.566337 41.028905 32.013215
4729 1577 1 0.4238 33.290328 24.868125 20.600845
4730 1577 2 -0.8476 33.838256 25.6406 20.921869
4731 1577 1 0.4238 34.808302 25.401239 20.880432
4732 1578 1 0.4238 28.780406 40.240333 3.139702
4733 1578 2 -0.8476 28.075668 40.87503 3.456726
4734 1578 1 0.4238 27.391616 40.375256 3.988043
4735 1579 1 0.4238 36.073992 23.512317 27.74798
4736 1579 2 -0.8476 35.667881 22.753641 27.238584
4737 1579 1 0.4238 36.32127 21.998287 27.188345
4738 1580 1 0.4238 18.290512 11.741124 3.641013
4739 1580 2 -0.8476 18.375474 10.78855 3.93322
4740 1580 1 0.4238 19.319072 10.483396 3.804755
4741 1581 1 0.4238 33.898807 5.46778 14.362173
4742 1581 2 -0.8476 34.779407 4.993924 14.360053
4743 1581 1 0.4238 34.626162 4.005768 14.352049
4744 1582 1 0.4238 21.149566 42.219102 2.794704
4745 1582 2 -0.8476 20.524326 42.522575 2.075692
4746 1582 1 0.4238 20.275245 41.743766 1.500005
4747 1583 1 0.4238 18.150717 17.900974 2.514905
4748 1583 2 -0.8476 18.590231 18.428483 3.241927
4749 1583 1 0.4238 19.14835 17.819125 3.805119
4750 1584 1 0.4238 1.502598 19.845592 36.441125
4751 1584 2 -0.8476 1.89483 20.671376 36.035865
4752 1584 1 0.4238 1.501754 20.816081 35.127817
4753 1585 1 0.4238 16.682432 47.761497 42.290749
4754 1585 2 -0.8476 17.670595 47.754884 42.444014
4755 1585 1 0.4238 17.855526 47.762033 43.42674
4756 1586 1 0.4238 45.518959 28.176998 22.278819
4757 1586 2 -0.8476 45.304914 27.200254 22.29134
4758 1586 1 0.4238 45.946772 26.726072 22.893975
4759 1587 1 0.4238 15.929415 12.509311 5.199988
4760 1587 2 -0.8476 16.107959 11.530519 5.300425
4761 1587 1 0.4238 16.669686 11.375847 6.113161
4762 1588 1 0.4238 47.76194 43.928539 14.130104
4763 1588 2 -0.8476 47.758693 44.386959 15.018834
4764 1588 1 0.4238 47.757685 45.37767 14.882852
4765 1589 1 0.4238 13.632427 18.639566 1.500023
4766 1589 2 -0.8476 14.632331 18.644081 1.513136
4767 1589 1 0.4238 14.96997 17.702811 1.509776
4768 1590 1 0.4238 1.542504 36.873648 23.643028
4769 1590 2 -0.8476 1.500235 35.982415 24.094598
4770 1590 1 0.4238 1.541514 36.108657 25.085738
4771 1591 1 0.4238 7.186926 18.074751 17.929991
4772 1591 2 -0.8476 7.972876 18.261304 17.340516
4773 1591 1 0.4238 7.999021 17.591891 16.598086
4774 1592 1 0.4238 41.960142 17.727847 12.776497
4775 1592 2 -0.8476 42.434868 16.905103 13.08911
4776 1592 1 0.4238 43.240503 17.16678 13.620596
4777 1593 1 0.4238 11.510488 24.012938 25.396029
4778 1593 2 -0.8476 11.263153 23.564392 26.254884
4779 1593 1 0.4238 12.07987 23.161007 26.667502
4780 1594 1 0.4238 34.694184 43.114793 18.034444
4781 1594 2 -0.8476 35.639122 43.43885 18.080044
4782 1594 1 0.4238 35.655977 44.365373 18.455904
4783 1595 1 0.4238 40.526053 25.380722 13.74833
4784 1595 2 -0.8476 40.969427 26.270504 13.640132
4785 1595 1 0.4238 40.272342 26.979381 13.532592
4786 1596 1 0.4238 34.656789 11.467611 1.748648
4787 1596 2 -0.8476 34.46424 10.78281 2.45148
4788 1596 1 0.4238 33.913349 11.195485 3.176888
4789 1597 1 0.4238 36.840548 22.442022 47.332589
4790 1597 2 -0.8476 36.522264 22.500718 46.386413
4791 1597 1 0.4238 37.308316 22.48175 45.768543
4792 1598 1 0.4238 31.59901 37.786061 21.386973
4793 1598 2 -0.8476 31.437674 38.369807 20.591228
4794 1598 1 0.4238 31.955938 39.219256 20.690424
4795 1599 1 0.4238 26.888344 3.052078 42.650245
4796 1599 2 -0.8476 27.679605 2.444742 42.579187
4797 1599 1 0.4238 27.366873 1.500076 42.480163
4798 1600 1 0.4238 4.752795 45.792735 1.501053
4799 1600 2 -0.8476 5.468647 46.490987 1.501353
4800 1600 1 0.4238 5.868131 46.558395 2.415611
4801 1601 1 0.4238 24.209819 13.862682 3.308775
4802 1601 2 -0.8476 25.038727 14.421505 3.333817
4803 1601 1 0.4238 24.787651 15.388923 3.366416
4804 1602 1 0.4238 35.764338 17.966029 18.750373
4805 1602 2 -0.8476 35.093014 18.688149 18.917305
4806 1602 1 0.4238 34.226409 18.278285 19.201922
4807 1603 1 0.4238 1.501667 3.010402 13.958264
4808 1603 2 -0.8476 2.057089 2.195909 14.125916
4809 1603 1 0.4238 1.500016 1.50012 14.579288
4810 1604 1 0.4238 37.912898 17.9953 42.52202
4811 1604 2 -0.8476 37.899219 18.650608 41.766781
4812 1604 1 0.4238 37.207987 18.374956 41.098788
4813 1605 1 0.4238 21.067129 12.606105 3.83014
4814 1605 2 -0.8476 22.004232 12.268459 3.741632
4815 1605 1 0.4238 22.024485 11.28723 3.93341
4816 1606 1 0.4238 34.400784 25.924377 36.274793
4817 1606 2 -0.8476 33.725076 25.896121 35.538165
4818 1606 1 0.4238 33.325495 24.980835 35.487324
4819 1607 1 0.4238 1.503959 2.71705 32.428451
4820 1607 2 -0.8476 1.500029 2.613536 33.423071
4821 1607 1 0.4238 1.501992 3.516777 33.852199
4822 1608 1 0.4238 10.574693 35.457032 36.579255
4823 1608 2 -0.8476 10.475918 36.180678 37.262321
4824 1608 1 0.4238 11.301555 36.222909 37.82494
4825 1609 1 0.4238 11.282947 22.426148 41.969788
4826 1609 2 -0.8476 10.534738 21.957494 41.500164
4827 1609 1 0.4238 10.545365 22.20113 40.530356
4828 1610 1 0.4238 44.615132 4.010953 5.93996
4829 1610 2 -0.8476 44.175366 3.273262 5.427693
4830 1610 1 0.4238 43.217223 3.200364 5.704544
4831 1611 1 0.4238 38.095767 20.243595 4.138846
4832 1611 2 -0.8476 38.877244 19.7317 4.495576
4833 1611 1 0.4238 38.563691 18.853385 4.856472
4834 1612 1 0.4238 4.717599 38.051544 14.208069
4835 1612 2 -0.8476 4.768991 38.905856 14.725283
4836 1612 1 0.4238 4.580659 38.723137 15.690242
4837 1613 1 0.4238 3.968132 34.57442 1.500022
4838 1613 2 -0.8476 4.467266 35.13205 2.163283
4839 1613 1 0.4238 4.171408 34.894207 3.088431
4840 1614 1 0.4238 5.528498 45.359315 29.43893
4841 1614 2 -0.8476 4.553227 45.162874 29.337651
4842 1614 1 0.4238 4.374485 44.215885 29.604601
4843 1615 1 0.4238 32.005555 9.571361 38.532793
4844 1615 2 -0.8476 31.726537 8.682341 38.895824
4845 1615 1 0.4238 30.974494 8.807685 39.54291
4846 1616 1 0.4238 21.163485 45.660148 24.601618
4847 1616 2 -0.8476 21.161617 45.18422 25.4811
4848 1616 1 0.4238 21.311642 44.206915 25.331543
4849 1617 1 0.4238 32.370125 28.101407 3.524418
4850 1617 2 -0.8476 32.046111 29.045728 3.581619
4851 1617 1 0.4238 31.051557 29.051139 3.685706
4852 1618 1 0.4238 34.659872 38.746121 4.02012
4853 1618 2 -0.8476 34.697522 39.369635 3.239215
4854 1618 1 0.4238 34.463438 38.872179 2.403905
4855 1619 1 0.4238 24.164088 38.439638 37.014339
4856 1619 2 -0.8476 23.263802 38.775293 36.737172
4857 1619 1 0.4238 23.374021 39.555546 36.121496
4858 1620 1 0.4238 29.093047 15.856601 39.886439
4859 1620 2 -0.8476 29.514127 15.055678 39.460747
4860 1620 1 0.4238 29.277519 14.23701 39.984004
4861 1621 1 0.4238 23.677056 13.989365 38.260909
4862 1621 2 -0.8476 22.9437 13.568642 37.726886
4863 1621 1 0.4238 22.553108 14.247055 37.104637
4864 1622 1 0.4238 43.027776 33.268427 4.949194
4865 1622 2 -0.8476 44.014545 33.320397 4.795619
4866 1622 1 0.4238 44.212231 34.051808 4.142965
4867 1623 1 0.4238 15.253484 45.347575 42.715655
4868 1623 2 -0.8476 16.21361 45.079047 42.637864
4869 1623 1 0.4238 16.486809 45.09326 41.676012
4870 1624 1 0.4238 43.217859 6.052134 7.141119
4871 1624 2 -0.8476 42.557626 5.763316 6.44781
4872 1624 1 0.4238 41.641019 6.059192 6.716675
4873 1625 1 0.4238 25.816946 25.16577 6.225504
4874 1625 2 -0.8476 24.876807 24.83304 6.151817
4875 1625 1 0.4238 24.312167 25.271897 6.850806
4876 1626 1 0.4238 35.450922 7.137045 38.81907
4877 1626 2 -0.8476 35.496671 8.135945 38.829353
4878 1626 1 0.4238 34.587105 8.509408 39.011601
4879 1627 1 0.4238 5.764319 8.628626 23.177756
4880 1627 2 -0.8476 5.565913 7.64853 23.184643
4881 1627 1 0.4238 4.697571 7.480951 22.717847
4882 1628 1 0.4238 30.665014 47.752418 4.264277
4883 1628 2 -0.8476 30.122874 47.745272 5.104535
4884 1628 1 0.4238 30.734193 47.760523 5.895772
4885 1629 1 0.4238 5.544075 45.615158 35.61275
4886 1629 2 -0.8476 5.683647 45.00533 36.392897
4887 1629 1 0.4238 6.268549 45.45565 37.067508
4888 1630 1 0.4238 7.310792 28.744175 35.254325
4889 1630 2 -0.8476 8.123154 28.735181 35.837409
4890 1630 1 0.4238 7.90115 28.303497 36.711687
4891 1631 1 0.4238 15.456052 18.806629 33.657354
4892 1631 2 -0.8476 15.035621 19.707762 33.551534
4893 1631 1 0.4238 15.231479 20.263871 34.359236
4894 1632 1 0.4238 5.827691 40.318655 40.261499
4895 1632 2 -0.8476 6.655693 39.820527 40.518949
4896 1632 1 0.4238 7.441502 40.20877 40.037524
4897 1633 1 0.4238 44.630543 14.495161 46.863178
4898 1633 2 -0.8476 44.201623 14.408533 47.762357
4899 1633 1 0.4238 43.324675 14.889116 47.761026
4900 1634 1 0.4238 15.484902 35.818689 18.438892
4901 1634 2 -0.8476 16.248124 35.216015 18.20592
4902 1634 1 0.4238 17.10661 35.636834 18.499029
4903 1635 1 0.4238 47.761708 14.248713 34.588407
4904 1635 2 -0.8476 47.753019 14.68432 35.488503
4905 1635 1 0.4238 47.761225 13.980958 36.199287
4906 1636 1 0.4238 37.848935 8.400077 3.671318
4907 1636 2 -0.8476 38.571055 9.066595 3.48612
4908 1636 1 0.4238 39.418028 8.585931 3.258969
4909 1637 1 0.4238 22.486844 47.761131 1.501278
4910 1637 2 -0.8476 21.513084 47.533555 1.500319
4911 1637 1 0.4238 21.403059 46.53967 1.509642
4912 1638 1 0.4238 10.929344 30.516739 16.490676
4913 1638 2 -0.8476 11.556877 30.68288 15.730018
4914 1638 1 0.4238 11.407746 31.603807 15.369944
4915 1639 1 0.4238 17.30364 23.309455 31.111701
4916 1639 2 -0.8476 17.223067 22.932711 30.188895
4917 1639 1 0.4238 16.382097 22.396002 30.120243
4918 1640 1 0.4238 37.350061 18.306405 11.589617
4919 1640 2 -0.8476 37.098554 19.262377 11.740817
4920 1640 1 0.4238 37.821663 19.719362 12.258773
4921 1641 1 0.4238 13.978062 15.193693 47.756801
4922 1641 2 -0.8476 13.784945 16.174838 47.748989
4923 1641 1 0.4238 14.645481 16.684043 47.762679
4924 1642 1 0.4238 8.72196 6.691157 11.7556
4925 1642 2 -0.8476 9.091176 6.492538 10.847729
4926 1642 1 0.4238 9.557605 5.608126 10.863768
4927 1643 1 0.4238 35.551155 19.777859 43.016779
4928 1643 2 -0.8476 36.013176 19.477476 43.851228
4929 1643 1 0.4238 35.98285 20.210098 44.531188
4930 1644 1 0.4238 26.767133 16.708816 29.391077
4931 1644 2 -0.8476 27.13131 15.92543 28.887408
4932 1644 1 0.4238 27.667006 15.351038 29.506361
4933 1645 1 0.4238 11.044403 19.202352 7.491477
4934 1645 2 -0.8476 12.027982 19.023565 7.516144
4935 1645 1 0.4238 12.522541 19.889813 7.587037
4936 1646 1 0.4238 30.407542 9.168521 47.762133
4937 1646 2 -0.8476 31.205529 8.856999 47.246215
4938 1646 1 0.4238 31.073484 7.904756 46.970902
4939 1647 1 0.4238 18.936399 41.227547 12.07246
4940 1647 2 -0.8476 18.76275 42.211315 12.027231
4941 1647 1 0.4238 19.420988 42.692918 12.605833
4942 1648 1 0.4238 8.186073 44.606026 9.73872
4943 1648 2 -0.8476 8.20693 44.958768 8.803232
4944 1648 1 0.4238 8.90377 45.672403 8.731558
4945 1649 1 0.4238 1.500268 16.132156 42.919883
4946 1649 2 -0.8476 1.506704 15.205051 43.294629
4947 1649 1 0.4238 2.412651 15.001992 43.666149
4948 1650 1 0.4238 40.488153 1.500019 25.617345
4949 1650 2 -0.8476 40.293553 2.452488 25.382968
4950 1650 1 0.4238 39.316467 2.631238 25.498514
4951 1651 1 0.4238 27.3054 24.765895 2.356395
4952 1651 2 -0.8476 26.718611 24.622194 3.153281
4953 1651 1 0.4238 25.87565 24.16576 2.868526
4954 1652 1 0.4238 3.910951 17.031033 12.422509
4955 1652 2 -0.8476 4.631745 16.925842 13.10763
4956 1652 1 0.4238 5.525409 17.010087 12.666873
4957 1653 1 0.4238 28.613704 24.277216 5.917306
4958 1653 2 -0.8476 29.451827 23.765814 5.727522
4959 1653 1 0.4238 29.217706 22.874099 5.340183
4960 1654 1 0.4238 45.732848 3.417378 15.444153
4961 1654 2 -0.8476 46.446456 4.103368 15.302088
4962 1654 1 0.4238 47.072212 4.099842 16.082098
4963 1655 1 0.4238 17.467673 22.742047 15.237655
4964 1655 2 -0.8476 18.022667 22.548591 14.428608
4965 1655 1 0.4238 18.659305 23.303841 14.272758
4966 1656 1 0.4238 4.190047 24.738036 47.762775
4967 1656 2 -0.8476 4.948425 24.086245 47.757277
4968 1656 1 0.4238 4.586697 23.153965 47.75948
4969 1657 1 0.4238 25.816617 23.264261 25.280188
4970 1657 2 -0.8476 26.184831 24.193207 25.241765
4971 1657 1 0.4238 25.578136 24.769864 24.694602
4972 1658 1 0.4238 27.954806 34.580293 1.500184
4973 1658 2 -0.8476 27.429333 33.72956 1.511674
4974 1658 1 0.4238 27.747679 33.151276 2.262835
4975 1659 1 0.4238 1.501449 31.860105 6.755132
4976 1659 2 -0.8476 1.944374 32.456141 7.424876
4977 1659 1 0.4238 1.50025 33.352086 7.41892
4978 1660 1 0.4238 47.762329 3.632222 1.500833
4979 1660 2 -0.8476 47.722353 4.631422 1.500811
4980 1660 1 0.4238 46.766966 4.926779 1.500795
4981 1661 1 0.4238 15.890652 9.459988 8.744474
4982 1661 2 -0.8476 16.288356 9.274823 7.845839
4983 1661 1 0.4238 17.196303 8.871545 7.959849
4984 1662 1 0.4238 33.047771 14.919576 12.308987
4985 1662 2 -0.8476 32.450072 15.72116 12.294163
4986 1662 1 0.4238 33.006027 16.55199 12.319357
4987 1663 1 0.4238 47.76273 12.339094 29.502801
4988 1663 2 -0.8476 47.185285 13.142079 29.355248
4989 1663 1 0.4238 47.762543 13.946217 29.213354
4990 1664 1 0.4238 19.216908 12.850848 18.284653
4991 1664 2 -0.8476 19.903608 13.484134 17.927733
4992 1664 1 0.4238 20.440812 13.854917 18.685315
4993 1665 1 0.4238 20.256285 43.531331 32.795779
4994 1665 2 -0.8476 19.682439 42.898454 32.276001
4995 1665 1 0.4238 18.75121 43.259116 32.223699
4996 1666 1 0.4238 8.99132 38.579575 4.686685
4997 1666 2 -0.8476 8.106665 38.569668 4.220543
4998 1666 1 0.4238 7.840942 39.50572 3.989898
4999 1667 1 0.4238 9.812017 39.140687 14.616783
5000 1667 2 -0.8476 10.260334 38.547443 15.285419
5001 1667 1 0.4238 10.964045 39.065455 15.771685
5002 1668 1 0.4238 16.435053 22.80926 42.765899
5003 1668 2 -0.8476 15.744127 23.517714 42.909825
5004 1668 1 0.4238 16.161241 24.301522 43.369891
5005 1669 1 0.4238 47.753228 39.679577 25.601733
5006 1669 2 -0.8476 47.762783 38.784549 25.155824
5007 1669 1 0.4238 47.76108 38.06576 25.85105
5008 1670 1 0.4238 5.037268 19.286672 45.408118
5009 1670 2 -0.8476 4.174879 19.758465 45.591687
5010 1670 1 0.4238 4.276064 20.731163 45.382835
5011 1671 1 0.4238 1.501297 12.096353 28.205836
5012 1671 2 -0.8476 2.0616 12.879137 27.935077
5013 1671 1 0.4238 1.500273 13.706731 27.935082
5014 1672 1 0.4238 21.892232 36.035571 25.650213
5015 1672 2 -0.8476 22.625289 36.488636 25.142907
5016 1672 1 0.4238 23.266302 35.802349 24.799235
5017 1673 1 0.4238 10.483973 26.623498 43.605933
5018 1673 2 -0.8476 10.303416 25.925123 42.91335
5019 1673 1 0.4238 11.13613 25.396751 42.74779
5020 1674 1 0.4238 19.346193 21.626304 8.768404
5021 1674 2 -0.8476 19.593611 22.594962 8.746397
5022 1674 1 0.4238 19.118875 23.077048 9.482752
5023 1675 1 0.4238 9.321294 31.234754 29.20084
5024 1675 2 -0.8476 9.911908 30.6217 28.676111
5025 1675 1 0.4238 9.41214 30.276466 27.881727
5026 1676 1 0.4238 47.761993 29.885303 46.053726
5027 1676 2 -0.8476 47.761825 30.633413 46.7173
5028 1676 1 0.4238 47.760003 30.257141 47.643807
5029 1677 1 0.4238 3.903279 44.965709 42.301178
5030 1677 2 -0.8476 4.894407 45.014078 42.424972
5031 1677 1 0.4238 5.167436 45.966657 42.559316
5032 1678 1 0.4238 17.840667 34.662225 16.034705
5033 1678 2 -0.8476 18.618086 34.144347 16.391667
5034 1678 1 0.4238 19.3274 34.081591 15.689573
5035 1679 1 0.4238 35.458485 5.805821 44.197204
5036 1679 2 -0.8476 35.636991 5.688164 45.174083
5037 1679 1 0.4238 36.194124 4.869769 45.31491
5038 1680 1 0.4238 30.423296 25.414212 25.928648
5039 1680 2 -0.8476 29.818078 24.823242 25.395294
5040 1680 1 0.4238 28.900062 24.841895 25.791398
5041 1681 1 0.4238 38.652397 37.231687 24.114374
5042 1681 2 -0.8476 38.951862 37.526491 25.021794
5043 1681 1 0.4238 38.545102 38.414861 25.234737
5044 1682 1 0.4238 32.770422 17.587602 24.435254
5045 1682 2 -0.8476 32.845817 16.724333 23.936172
5046 1682 1 0.4238 33.626411 16.766917 23.312585
5047 1683 1 0.4238 47.762698 25.781726 32.69169
5048 1683 2 -0.8476 47.30775 26.579515 33.08736
5049 1683 1 0.4238 46.59997 26.90472 32.460233
5050 1684 1 0.4238 44.077435 5.460454 1.682828
5051 1684 2 -0.8476 43.174613 5.134723 1.96356
5052 1684 1 0.4238 43.238196 4.715921 2.869409
5053 1685 1 0.4238 5.573598 26.368592 11.467723
5054 1685 2 -0.8476 4.984437 27.094198 11.112216
5055 1685 1 0.4238 4.197699 26.687319 10.648004
5056 1686 1 0.4238 20.350185 8.891975 21.60937
5057 1686 2 -0.8476 19.375102 8.799902 21.407539
5058 1686 1 0.4238 19.24293 8.085253 20.720658
5059 1687 1 0.4238 31.694042 32.947133 36.335128
5060 1687 2 -0.8476 31.709584 32.103465 36.871769
5061 1687 1 0.4238 32.353949 32.202579 37.630037
5062 1688 1 0.4238 16.043421 21.853993 11.244204
5063 1688 2 -0.8476 16.99856 22.088618 11.06348
5064 1688 1 0.4238 17.49247 21.270889 10.767894
5065 1689 1 0.4238 18.786448 9.663581 14.290592
5066 1689 2 -0.8476 18.147467 9.246074 14.936651
5067 1689 1 0.4238 17.809757 8.383092 14.560868
5068 1690 1 0.4238 19.365649 41.159324 8.16029
5069 1690 2 -0.8476 18.450716 41.537425 8.301486
5070 1690 1 0.4238 18.514844 42.367011 8.85617
5071 1691 1 0.4238 38.090149 47.760428 25.976578
5072 1691 2 -0.8476 37.823414 47.761272 25.012809
5073 1691 1 0.4238 38.468837 47.20643 24.487852
5074 1692 1 0.4238 47.762234 12.273585 47.7628
5075 1692 2 -0.8476 47.633949 13.104753 47.22178
5076 1692 1 0.4238 47.126038 13.777536 47.759728
5077 1693 1 0.4238 26.235607 6.66407 17.780153
5078 1693 2 -0.8476 25.561335 6.459206 17.070655
5079 1693 1 0.4238 25.468129 7.247105 16.461945
5080 1694 1 0.4238 20.383554 11.465094 40.79585
5081 1694 2 -0.8476 20.700219 12.411129 40.864715
5082 1694 1 0.4238 19.91165 13.025534 40.89051
5083 1695 1 0.4238 10.141681 21.702213 47.762486
5084 1695 2 -0.8476 9.925087 20.802132 47.384411
5085 1695 1 0.4238 10.552827 20.121838 47.762753
5086 1696 1 0.4238 12.946413 47.76139 37.434694
5087 1696 2 -0.8476 12.138992 47.187552 37.297653
5088 1696 1 0.4238 11.320307 47.761655 37.285016
5089 1697 1 0.4238 5.391186 39.965927 8.871244
5090 1697 2 -0.8476 4.962467 40.536041 9.572079
5091 1697 1 0.4238 4.164833 40.062177 9.945216
5092 1698 1 0.4238 21.418575 27.134355 17.065513
5093 1698 2 -0.8476 21.299261 28.104744 17.275533
5094 1698 1 0.4238 20.33795 28.284936 17.483888
5095 1699 1 0.4238 9.472403 28.224517 31.901483
5096 1699 2 -0.8476 9.145904 27.644266 32.647611
5097 1699 1 0.4238 8.176262 27.825926 32.811302
5098 1700 1 0.4238 13.843212 47.762123 26.484359
5099 1700 2 -0.8476 12.977751 47.598607 26.01082
5100 1700 1 0.4238 12.622993 46.699121 26.265912
5101 1701 1 0.4238 39.39359 47.759112 7.123662
5102 1701 2 -0.8476 40.162581 47.663949 6.491526
5103 1701 1 0.4238 41.021475 47.759111 6.99476
5104 1702 1 0.4238 32.826185 4.476353 17.702576
5105 1702 2 -0.8476 32.035851 4.176894 17.168069
5106 1702 1 0.4238 32.121457 4.512406 16.229931
5107 1703 1 0.4238 38.291993 28.316524 29.105435
5108 1703 2 -0.8476 39.246829 28.613641 29.108435
5109 1703 1 0.4238 39.284969 29.612912 29.106971
5110 1704 1 0.4238 29.468518 47.685452 43.100313
5111 1704 2 -0.8476 30.355094 47.762479 42.644189
5112 1704 1 0.4238 30.619849 46.870628 42.277438
5113 1705 1 0.4238 25.383906 15.335851 43.617545
5114 1705 2 -0.8476 25.064866 15.884402 42.844689
5115 1705 1 0.4238 25.578128 16.741939 42.810192
5116 1706 1 0.4238 11.373997 16.313591 29.763464
5117 1706 2 -0.8476 12.093618 16.016413 29.135905
5118 1706 1 0.4238 11.716037 15.360272 28.48252
5119 1707 1 0.4238 32.813342 3.097823 24.419205
5120 1707 2 -0.8476 32.30597 2.242076 24.520549
5121 1707 1 0.4238 31.325221 2.43637 24.540048
5122 1708 1 0.4238 14.334317 45.148002 19.087655
5123 1708 2 -0.8476 15.069048 45.301088 18.426796
5124 1708 1 0.4238 14.735265 45.884695 17.686531
5125 1709 1 0.4238 24.309481 47.559468 23.760346
5126 1709 2 -0.8476 24.546228 46.609522 23.964192
5127 1709 1 0.4238 24.746522 46.517879 24.939632
5128 1710 1 0.4238 19.53964 26.45714 26.698784
5129 1710 2 -0.8476 19.75285 27.432381 26.757492
5130 1710 1 0.4238 18.903215 27.959745 26.760144
5131 1711 1 0.4238 34.168803 16.359949 1.500677
5132 1711 2 -0.8476 33.473043 15.641683 1.504191
5133 1711 1 0.4238 32.56396 16.058257 1.509943
5134 1712 1 0.4238 21.429974 13.143222 6.502562
5135 1712 2 -0.8476 21.957831 12.293968 6.490948
5136 1712 1 0.4238 22.934489 12.508354 6.504218
5137 1713 1 0.4238 39.376192 25.082599 24.819036
5138 1713 2 -0.8476 40.245582 24.831308 25.244494
5139 1713 1 0.4238 40.096019 24.084405 25.892387
5140 1714 1 0.4238 14.32662 29.495893 26.506867
5141 1714 2 -0.8476 14.913453 29.786906 25.751262
5142 1714 1 0.4238 15.838179 29.954667 26.092931
5143 1715 1 0.4238 32.662798 16.26369 9.606641
5144 1715 2 -0.8476 31.886809 16.894431 9.608951
5145 1715 1 0.4238 31.235358 16.624006 8.900092
5146 1716 1 0.4238 21.900721 29.406053 35.10472
5147 1716 2 -0.8476 22.101419 28.720759 34.404654
5148 1716 1 0.4238 21.880394 27.810909 34.755825
5149 1717 1 0.4238 47.005697 4.117062 27.224396
5150 1717 2 -0.8476 47.762728 4.522578 26.712088
5151 1717 1 0.4238 47.634057 4.35082 25.735388
5152 1718 1 0.4238 38.777869 27.277243 1.504231
5153 1718 2 -0.8476 39.74564 27.065224 1.640129
5154 1718 1 0.4238 40.290799 27.891776 1.500083
5155 1719 1 0.4238 11.791945 11.539492 41.35642
5156 1719 2 -0.8476 12.005709 11.396231 42.322744
5157 1719 1 0.4238 12.715669 10.697043 42.406962
5158 1720 1 0.4238 1.900125 41.188356 47.756165
5159 1720 2 -0.8476 1.606638 40.698634 46.935167
5160 1720 1 0.4238 2.40964 40.367533 46.439628
5161 1721 1 0.4238 22.124541 34.788562 41.79828
5162 1721 2 -0.8476 22.279715 35.743784 42.050218
5163 1721 1 0.4238 23.257716 35.946653 42.001666
5164 1722 1 0.4238 34.650047 1.500076 2.595046
5165 1722 2 -0.8476 34.400753 1.500463 1.626618
5166 1722 1 0.4238 33.555432 2.019561 1.50025
5167 1723 1 0.4238 2.709457 19.994049 27.165526
5168 1723 2 -0.8476 1.757943 20.2383 27.352508
5169 1723 1 0.4238 1.501173 21.028567 26.796138
5170 1724 1 0.4238 23.56441 28.892969 30.584713
5171 1724 2 -0.8476 23.145298 29.697121 31.006239
5172 1724 1 0.4238 23.120579 29.578408 31.99886
5173 1725 1 0.4238 21.261349 10.524474 12.13476
5174 1725 2 -0.8476 21.440117 10.419458 11.156489
5175 1725 1 0.4238 21.733656 9.481865 10.970063
5176 1726 1 0.4238 40.797461 44.624445 3.082676
5177 1726 2 -0.8476 40.014934 44.879245 2.514584
5178 1726 1 0.4238 40.294641 44.906713 1.554892
5179 1727 1 0.4238 1.648163 47.642739 28.033408
5180 1727 2 -0.8476 1.500104 46.653854 28.046999
5181 1727 1 0.4238 2.381926 46.184182 28.004617
5182 1728 1 0.4238 7.928433 9.352192 16.804082
5183 1728 2 -0.8476 6.983325 9.082056 16.98792
5184 1728 1 0.4238 6.910419 8.741087 17.925163
5185 1729 1 0.4238 47.762695 40.757769 21.168665
5186 1729 2 -0.8476 46.833581 40.883839 20.821027
5187 1729 1 0.4238 46.869451 41.339605 19.93165
5188 1730 1 0.4238 17.090158 4.23305 14.519877
5189 1730 2 -0.8476 16.563574 5.068176 14.678855
5190 1730 1 0.4238 17.156336 5.763787 15.08476
5191 1731 1 0.4238 38.578083 15.564612 47.614719
5192 1731 2 -0.8476 38.649182 14.579162 47.7691
5193 1731 1 0.4238 37.737108 14.170296 47.738292
5194 1732 1 0.4238 4.387616 18.031552 47.759459
5195 1732 2 -0.8476 3.671469 17.333603 47.760762
5196 1732 1 0.4238 2.774732 17.776164 47.762144
5197 1733 1 0.4238 30.211454 1.502711 5.54251
5198 1733 2 -0.8476 31.209907 1.514438 5.488156
5199 1733 1 0.4238 31.560839 2.314381 5.974917
5200 1734 1 0.4238 47.758918 24.54005 43.93642
5201 1734 2 -0.8476 47.749427 24.475862 42.938527
5202 1734 1 0.4238 47.760693 23.513697 42.666293
5203 1735 1 0.4238 14.222906 45.239407 12.310989
5204 1735 2 -0.8476 14.914251 45.321194 11.593108
5205 1735 1 0.4238 14.470013 45.550982 10.72717
5206 1736 1 0.4238 13.33894 1.50474 30.750976
5207 1736 2 -0.8476 12.503397 1.500023 30.201571
5208 1736 1 0.4238 12.742877 1.501773 29.230672
5209 1737 1 0.4238 32.224046 31.426015 15.375519
5210 1737 2 -0.8476 33.157734 31.71563 15.164924
5211 1737 1 0.4238 33.335412 31.584498 14.189612
5212 1738 1 0.4238 16.730163 44.75999 22.90324
5213 1738 2 -0.8476 16.298048 43.945947 23.291327
5214 1738 1 0.4238 16.685687 43.761279 24.194451
5215 1739 1 0.4238 26.725699 9.208447 23.378069
5216 1739 2 -0.8476 26.042956 9.838116 23.007424
5217 1739 1 0.4238 25.206973 9.333749 22.791218
5218 1740 1 0.4238 7.833032 20.197257 34.776659
5219 1740 2 -0.8476 7.917172 21.154743 35.052594
5220 1740 1 0.4238 8.761084 21.278241 35.574668
5221 1741 1 0.4238 8.167347 32.583346 21.09933
5222 1741 2 -0.8476 7.888318 33.388034 21.623372
5223 1741 1 0.4238 8.608178 33.627604 22.274838
5224 1742 1 0.4238 45.271116 36.909251 26.184587
5225 1742 2 -0.8476 44.804651 37.624914 26.70443
5226 1742 1 0.4238 44.05216 37.995607 26.160056
5227 1743 1 0.4238 33.047604 46.494492 11.088202
5228 1743 2 -0.8476 33.015186 47.444102 11.399957
5229 1743 1 0.4238 33.28368 47.488359 12.36222
5230 1744 1 0.4238 6.950882 42.854664 11.625897
5231 1744 2 -0.8476 6.323118 43.590738 11.879093
5232 1744 1 0.4238 5.854753 43.351545 12.729634
5233 1745 1 0.4238 8.613507 10.469665 19.221416
5234 1745 2 -0.8476 8.247559 9.956473 19.997764
5235 1745 1 0.4238 7.439863 10.424796 20.355952
5236 1746 1 0.4238 6.299531 35.678018 16.80176
5237 1746 2 -0.8476 6.624188 35.052756 16.092081
5238 1746 1 0.4238 6.29117 35.358978 15.20027
5239 1747 1 0.4238 30.495562 44.627182 46.79248
5240 1747 2 -0.8476 31.374964 44.333917 47.167511
5241 1747 1 0.4238 32.094607 44.490154 46.490974
5242 1748 1 0.4238 47.762282 6.118198 36.318291
5243 1748 2 -0.8476 47.757097 7.015382 36.759919
5244 1748 1 0.4238 47.762309 7.730825 36.061269
5245 1749 1 0.4238 15.156385 39.007579 45.271389
5246 1749 2 -0.8476 16.051836 39.448483 45.332793
5247 1749 1 0.4238 15.934821 40.441607 45.336409
5248 1750 1 0.4238 45.950539 14.788149 11.879482
5249 1750 2 -0.8476 45.41923 14.570032 12.6981
5250 1750 1 0.4238 44.474457 14.87284 12.572759
5251 1751 1 0.4238 17.395727 4.092126 8.209559
5252 1751 2 -0.8476 18.099134 3.90573 7.523647
5253 1751 1 0.4238 17.684153 3.899477 6.613839
5254 1752 1 0.4238 3.525004 34.214905 38.834584
5255 1752 2 -0.8476 4.034983 35.059142 38.999463
5256 1752 1 0.4238 5.00478 34.845235 39.11667
5257 1753 1 0.4238 11.239802 41.114942 28.703403
5258 1753 2 -0.8476 11.875303 41.151765 29.474624
5259 1753 1 0.4238 12.30222 40.255902 29.5978
5260 1754 1 0.4238 36.65402 1.500678 17.790526
5261 1754 2 -0.8476 37.645744 1.508483 17.918675
5262 1754 1 0.4238 37.855562 1.500649 18.896384
5263 1755 1 0.4238 12.587313 43.4731 20.559558
5264 1755 2 -0.8476 12.075534 44.320619 20.41886
5265 1755 1 0.4238 11.230465 44.292234 20.952764
5266 1756 1 0.4238 20.417548 29.946383 9.133848
5267 1756 2 -0.8476 19.438938 30.152105 9.134467
5268 1756 1 0.4238 19.306706 31.14331 9.129321
5269 1757 1 0.4238 38.066953 42.569725 11.154373
5270 1757 2 -0.8476 37.946139 42.139447 12.048947
5271 1757 1 0.4238 38.423601 42.676519 12.744348
5272 1758 1 0.4238 6.077917 18.893089 1.619457
5273 1758 2 -0.8476 6.884588 19.478151 1.535885
5274 1758 1 0.4238 7.706482 18.909606 1.500598
5275 1759 1 0.4238 21.45141 19.5581 38.278976
5276 1759 2 -0.8476 21.555858 19.644375 39.269757
5277 1759 1 0.4238 22.336941 20.235005 39.472399
5278 1760 1 0.4238 18.650275 18.248607 37.334494
5279 1760 2 -0.8476 17.849927 17.972932 36.802097
5280 1760 1 0.4238 17.050276 18.487392 37.111757
5281 1761 1 0.4238 40.303225 9.733001 17.050624
5282 1761 2 -0.8476 40.961852 9.522614 17.773084
5283 1761 1 0.4238 41.735931 10.152775 17.712265
5284 1762 1 0.4238 46.016499 23.250676 40.596814
5285 1762 2 -0.8476 45.398135 23.186744 41.380101
5286 1762 1 0.4238 45.39885 22.249855 41.729727
5287 1763 1 0.4238 33.70219 16.262573 17.406816
5288 1763 2 -0.8476 33.318282 15.339564 17.432691
5289 1763 1 0.4238 34.06088 14.669983 17.447113
5290 1764 1 0.4238 7.643149 39.559121 43.205323
5291 1764 2 -0.8476 8.624039 39.600581 43.015229
5292 1764 1 0.4238 9.08 38.820979 43.444556
5293 1765 1 0.4238 37.33514 36.464609 32.633359
5294 1765 2 -0.8476 37.334303 37.414572 32.320998
5295 1765 1 0.4238 38.271391 37.700336 32.120487
5296 1766 1 0.4238 1.500837 14.380457 24.559916
5297 1766 2 -0.8476 1.503837 13.397236 24.377523
5298 1766 1 0.4238 1.500787 12.897541 25.243719
5299 1767 1 0.4238 42.841913 39.876344 8.048934
5300 1767 2 -0.8476 43.005909 38.979497 8.459753
5301 1767 1 0.4238 43.954093 38.924578 8.772691
5302 1768 1 0.4238 19.074052 15.142692 9.331429
5303 1768 2 -0.8476 18.550791 14.426845 8.869085
5304 1768 1 0.4238 17.573076 14.593158 8.997197
5305 1769 1 0.4238 22.100391 17.81041 36.258446
5306 1769 2 -0.8476 22.559205 16.923773 36.200437
5307 1769 1 0.4238 22.177983 16.400429 35.438348
5308 1770 1 0.4238 35.426673 9.363309 4.600915
5309 1770 2 -0.8476 35.668379 8.799136 5.3904
5310 1770 1 0.4238 35.085854 9.043549 6.165594
5311 1771 1 0.4238 43.126513 2.430159 17.958572
5312 1771 2 -0.8476 42.633933 2.376927 17.089935
5313 1771 1 0.4238 42.827675 1.500001 16.65009
5314 1772 1 0.4238 10.520656 1.647317 35.063699
5315 1772 2 -0.8476 10.255049 2.60965 35.121731
5316 1772 1 0.4238 10.775436 3.139998 34.452458
5317 1773 1 0.4238 24.648884 47.76261 27.434262
5318 1773 2 -0.8476 24.571815 47.762347 28.431288
5319 1773 1 0.4238 23.606125 47.75794 28.690947
5320 1774 1 0.4238 43.50735 31.891633 31.348453
5321 1774 2 -0.8476 43.475337 31.283142 32.141368
5322 1774 1 0.4238 43.00655 30.435638 31.892421
5323 1775 1 0.4238 9.167842 16.125606 37.872058
5324 1775 2 -0.8476 8.203416 16.389472 37.856005
5325 1775 1 0.4238 7.633989 15.56867 37.810898
5326 1776 1 0.4238 43.09158 24.245888 22.12305
5327 1776 2 -0.8476 43.562051 25.105832 21.925181
5328 1776 1 0.4238 43.225677 25.478457 21.06031
5329 1777 1 0.4238 40.116035 37.620221 27.772494
5330 1777 2 -0.8476 39.373546 37.933412 28.364625
5331 1777 1 0.4238 38.91779 38.71666 27.941767
5332 1778 1 0.4238 45.263525 25.58744 42.883869
5333 1778 2 -0.8476 44.586895 26.250363 43.204346
5334 1778 1 0.4238 45.043584 26.959777 43.741157
5335 1779 1 0.4238 28.910088 39.004007 10.509023
5336 1779 2 -0.8476 29.788021 39.469128 10.395461
5337 1779 1 0.4238 30.519677 38.790091 10.335558
5338 1780 1 0.4238 22.985448 24.896869 4.014887
5339 1780 2 -0.8476 23.150879 24.26543 3.257313
5340 1780 1 0.4238 22.422537 24.360833 2.578773
5341 1781 1 0.4238 2.277814 23.275337 1.500059
5342 1781 2 -0.8476 2.341536 23.738712 2.383927
5343 1781 1 0.4238 1.500463 24.252808 2.552152
5344 1782 1 0.4238 38.414411 3.150001 21.018331
5345 1782 2 -0.8476 38.233699 3.97461 21.554393
5346 1782 1 0.4238 38.181025 4.764479 20.943384
5347 1783 1 0.4238 46.451268 47.28592 7.119712
5348 1783 2 -0.8476 47.330036 47.762741 7.139908
5349 1783 1 0.4238 47.76272 47.626601 8.031115
5350 1784 1 0.4238 42.859652 45.895711 1.501874
5351 1784 2 -0.8476 43.580051 46.58927 1.500007
5352 1784 1 0.4238 44.474069 46.14124 1.501017
5353 1785 1 0.4238 26.156354 12.5949 47.76072
5354 1785 2 -0.8476 25.480899 11.857499 47.761311
5355 1785 1 0.4238 24.560528 12.248543 47.76233
5356 1786 1 0.4238 40.434573 17.615188 1.503899
5357 1786 2 -0.8476 39.5329 17.761379 1.910858
5358 1786 1 0.4238 38.875428 17.129723 1.500079
5359 1787 1 0.4238 47.762606 38.761927 18.617731
5360 1787 2 -0.8476 47.184622 37.947065 18.573747
5361 1787 1 0.4238 47.761353 37.131173 18.532498
5362 1788 1 0.4238 4.665184 5.189525 20.130404
5363 1788 2 -0.8476 3.995994 4.451874 20.22016
5364 1788 1 0.4238 4.472439 3.587081 20.378698
5365 1789 1 0.4238 22.64795 1.500126 10.117571
5366 1789 2 -0.8476 22.633211 2.499995 10.110857
5367 1789 1 0.4238 23.511637 2.844074 9.779228
5368 1790 1 0.4238 25.391465 36.319479 5.770871
5369 1790 2 -0.8476 24.526166 36.17388 6.250516
5370 1790 1 0.4238 24.246107 37.023185 6.698006
5371 1791 1 0.4238 21.74849 6.94894 22.962176
5372 1791 2 -0.8476 22.594218 6.971192 23.495327
5373 1791 1 0.4238 23.061191 6.09044 23.416512
5374 1792 1 0.4238 33.483087 12.39044 28.247658
5375 1792 2 -0.8476 34.191916 12.990437 27.87676
5376 1792 1 0.4238 34.467553 12.661893 26.973387
5377 1793 1 0.4238 16.642344 8.858611 4.930646
5378 1793 2 -0.8476 15.876287 8.954634 4.295086
5379 1793 1 0.4238 15.889703 8.198936 3.640303
5380 1794 1 0.4238 34.937008 37.726732 6.558854
5381 1794 2 -0.8476 34.350874 37.153061 7.130998
5382 1794 1 0.4238 33.590714 37.699419 7.482635
5383 1795 1 0.4238 46.084797 20.55254 46.970429
5384 1795 2 -0.8476 46.575348 20.012899 47.654642
5385 1795 1 0.4238 46.127659 19.12526 47.762681
5386 1796 1 0.4238 12.954759 38.359378 21.169959
5387 1796 2 -0.8476 13.129685 37.397777 21.381438
5388 1796 1 0.4238 13.404835 36.917984 20.548317
5389 1797 1 0.4238 10.816476 29.762479 7.959564
5390 1797 2 -0.8476 11.670342 29.597843 8.453334
5391 1797 1 0.4238 12.442267 29.690594 7.824423
5392 1798 1 0.4238 44.481996 41.904177 18.690171
5393 1798 2 -0.8476 43.484415 41.970541 18.669473
5394 1798 1 0.4238 43.212356 42.929258 18.752212
5395 1799 1 0.4238 3.459628 25.841308 26.772225
5396 1799 2 -0.8476 3.942258 26.04402 25.920182
5397 1799 1 0.4238 4.388149 26.936075 25.993791
5398 1800 1 0.4238 40.868556 5.979799 46.960872
5399 1800 2 -0.8476 40.832922 5.750881 45.988078
5400 1800 1 0.4238 41.682983 5.296851 45.721147
5401 1801 1 0.4238 32.215245 35.755908 6.107155
5402 1801 2 -0.8476 32.616326 34.970629 5.635486
5403 1801 1 0.4238 33.562692 35.178233 5.387917
5404 1802 1 0.4238 8.137822 15.035104 6.51724
5405 1802 2 -0.8476 7.431346 15.471912 7.074098
5406 1802 1 0.4238 6.570568 15.491188 6.565483
5407 1803 1 0.4238 16.107874 23.413476 20.982897
5408 1803 2 -0.8476 16.448714 23.435356 21.922764
5409 1803 1 0.4238 16.21402 22.578849 22.382453
5410 1804 1 0.4238 41.521134 18.899467 28.983677
5411 1804 2 -0.8476 42.208425 19.616139 29.10205
5412 1804 1 0.4238 41.755768 20.506057 29.158156
5413 1805 1 0.4238 39.180327 21.447949 20.559564
5414 1805 2 -0.8476 40.087353 21.053011 20.41352
5415 1805 1 0.4238 40.786028 21.703519 20.711334
5416 1806 1 0.4238 18.512675 3.90298 28.468146
5417 1806 2 -0.8476 19.287737 3.959148 27.838762
5418 1806 1 0.4238 20.113999 4.199604 28.348146
5419 1807 1 0.4238 45.507849 33.583478 43.06172
5420 1807 2 -0.8476 45.994047 33.004259 42.407413
5421 1807 1 0.4238 45.44934 32.913336 41.57373
5422 1808 1 0.4238 38.414642 4.688524 32.618996
5423 1808 2 -0.8476 37.425205 4.618755 32.74607
5424 1808 1 0.4238 37.036255 5.534842 32.843541
5425 1809 1 0.4238 35.940432 7.534939 31.458042
5426 1809 2 -0.8476 35.410806 8.224825 30.964531
5427 1809 1 0.4238 35.866034 9.111936 31.040701
5428 1810 1 0.4238 35.269833 26.239633 12.238514
5429 1810 2 -0.8476 34.729731 26.386025 11.409744
5430 1810 1 0.4238 34.739096 25.554351 10.854559
5431 1811 1 0.4238 36.844563 24.485481 22.546805
5432 1811 2 -0.8476 37.047915 25.461957 22.475096
5433 1811 1 0.4238 38.038029 25.59354 22.426514
5434 1812 1 0.4238 10.928317 24.86572 22.847468
5435 1812 2 -0.8476 10.834259 25.766723 23.270961
5436 1812 1 0.4238 9.867563 25.953508 23.44592
5437 1813 1 0.4238 7.07743 25.547456 44.249936
5438 1813 2 -0.8476 8.054309 25.589693 44.459514
5439 1813 1 0.4238 8.219696 26.309207 45.134011
5440 1814 1 0.4238 9.88931 39.102861 40.62497
5441 1814 2 -0.8476 9.935216 38.449608 39.869223
5442 1814 1 0.4238 10.861101 38.077052 39.806456
5443 1815 1 0.4238 16.648941 39.55659 8.926081
5444 1815 2 -0.8476 16.772746 39.394519 9.905063
5445 1815 1 0.4238 17.694646 39.672469 10.17496
5446 1816 1 0.4238 24.75369 47.76166 46.668701
5447 1816 2 -0.8476 24.518528 47.762532 47.640657
5448 1816 1 0.4238 23.603284 47.378495 47.762491
5449 1817 1 0.4238 4.654969 14.237128 47.761765
5450 1817 2 -0.8476 4.575005 13.240331 47.762151
5451 1817 1 0.4238 5.488149 12.832694 47.762391
5452 1818 1 0.4238 10.756262 11.389067 3.127785
5453 1818 2 -0.8476 11.538922 11.827461 2.68591
5454 1818 1 0.4238 11.620234 11.495394 1.746165
5455 1819 1 0.4238 22.072923 1.500737 24.934267
5456 1819 2 -0.8476 21.256551 2.078158 24.923288
5457 1819 1 0.4238 20.439977 1.500918 24.923674
5458 1820 1 0.4238 27.955103 26.791428 6.815179
5459 1820 2 -0.8476 28.891487 26.938983 7.133632
5460 1820 1 0.4238 29.115245 26.262868 7.83563
5461 1821 1 0.4238 45.395474 20.181654 17.479141
5462 1821 2 -0.8476 45.339135 20.986699 18.069673
5463 1821 1 0.4238 44.563623 20.888936 18.693391
5464 1822 1 0.4238 9.433168 20.746621 15.252503
5465 1822 2 -0.8476 8.859558 19.927728 15.23284
5466 1822 1 0.4238 8.992996 19.448054 14.365599
5467 1823 1 0.4238 34.700575 45.304176 47.76228
5468 1823 2 -0.8476 35.505267 45.897787 47.752523
5469 1823 1 0.4238 36.333192 45.336949 47.751722
5470 1824 1 0.4238 10.997555 15.775832 34.890757
5471 1824 2 -0.8476 11.351132 14.916165 34.522037
5472 1824 1 0.4238 12.116101 15.106923 33.906867
5473 1825 1 0.4238 18.352243 19.669615 23.309025
5474 1825 2 -0.8476 19.279878 19.459984 23.618136
5475 1825 1 0.4238 19.807606 20.30661 23.686888
5476 1826 1 0.4238 32.397119 30.786473 9.277955
5477 1826 2 -0.8476 31.861573 30.279496 8.602555
5478 1826 1 0.4238 32.02484 30.661427 7.6929
5479 1827 1 0.4238 23.623502 22.606809 26.819143
5480 1827 2 -0.8476 24.153446 21.768757 26.948868
5481 1827 1 0.4238 23.840844 21.07322 26.301947
5482 1828 1 0.4238 14.117968 1.500104 25.111921
5483 1828 2 -0.8476 13.401345 1.526701 25.808873
5484 1828 1 0.4238 13.814405 1.684414 26.705817
5485 1829 1 0.4238 17.241161 23.697747 17.805579
5486 1829 2 -0.8476 17.882 24.461985 17.87814
5487 1829 1 0.4238 17.866974 24.82216 18.810904
5488 1830 1 0.4238 21.59636 47.751652 39.144519
5489 1830 2 -0.8476 20.607613 47.698361 39.004738
5490 1830 1 0.4238 20.142321 47.760685 39.887698
5491 1831 1 0.4238 47.755488 43.876301 6.265248
5492 1831 2 -0.8476 47.762686 42.980342 5.82117
5493 1831 1 0.4238 46.852532 42.78101 5.45801
5494 1832 1 0.4238 39.535227 9.270453 45.826247
5495 1832 2 -0.8476 39.923039 8.869515 44.996278
5496 1832 1 0.4238 40.535728 8.11888 45.243581
5497 1833 1 0.4238 35.106859 24.178433 18.176289
5498 1833 2 -0.8476 35.412067 23.301042 18.546468
5499 1833 1 0.4238 35.135355 22.564495 17.929274
5500 1834 1 0.4238 42.128071 7.212194 16.843778
5501 1834 2 -0.8476 42.410883 7.857141 16.133805
5502 1834 1 0.4238 41.907841 7.666555 15.29082
5503 1835 1 0.4238 16.175298 27.632632 47.762072
5504 1835 2 -0.8476 15.182422 27.751774 47.761202
5505 1835 1 0.4238 14.963814 28.727583 47.758504
5506 1836 1 0.4238 29.468801 28.520899 9.364613
5507 1836 2 -0.8476 28.549846 28.915261 9.363997
5508 1836 1 0.4238 27.871735 28.180302 9.365075
5509 1837 1 0.4238 6.898104 11.715003 6.27654
5510 1837 2 -0.8476 6.968707 12.562736 6.802243
5511 1837 1 0.4238 6.080802 12.777629 7.208993
5512 1838 1 0.4238 4.312298 1.530315 38.920628
5513 1838 2 -0.8476 4.050063 1.500041 37.956099
5514 1838 1 0.4238 4.679276 2.064448 37.421744
5515 1839 1 0.4238 15.485213 4.27258 19.830979
5516 1839 2 -0.8476 14.901895 5.060923 20.026568
5517 1839 1 0.4238 14.056876 4.750455 20.461944
5518 1840 1 0.4238 25.66492 44.729275 22.21821
5519 1840 2 -0.8476 26.232757 45.047149 21.458922
5520 1840 1 0.4238 25.659081 45.19706 20.653675
5521 1841 1 0.4238 3.456708 38.441638 5.015599
5522 1841 2 -0.8476 3.026764 38.526236 4.116715
5523 1841 1 0.4238 2.487023 39.367402 4.083237
5524 1842 1 0.4238 39.272033 10.158622 39.72564
5525 1842 2 -0.8476 38.310631 10.087634 39.991471
5526 1842 1 0.4238 38.112842 9.150759 40.279818
5527 1843 1 0.4238 40.29577 25.297618 39.421809
5528 1843 2 -0.8476 40.529171 25.393564 40.389445
5529 1843 1 0.4238 40.37406 26.338494 40.677625
5530 1844 1 0.4238 28.475038 24.472719 16.695284
5531 1844 2 -0.8476 28.073538 25.270284 17.145494
5532 1844 1 0.4238 28.697715 25.603523 17.852144
5533 1845 1 0.4238 6.850196 42.003125 42.179531
5534 1845 2 -0.8476 6.488296 42.78815 42.682286
5535 1845 1 0.4238 7.200994 43.160612 43.276704
5536 1846 1 0.4238 18.909467 6.850052 8.694849
5537 1846 2 -0.8476 19.290994 5.953409 8.919501
5538 1846 1 0.4238 19.456346 5.898753 9.90422
5539 1847 1 0.4238 30.365716 19.81962 41.343705
5540 1847 2 -0.8476 29.527974 19.369601 41.034398
5541 1847 1 0.4238 29.724127 18.413542 40.816511
5542 1848 1 0.4238 42.313039 33.327147 2.268424
5543 1848 2 -0.8476 42.668458 32.398872 2.377885
5544 1848 1 0.4238 42.629081 31.921234 1.500212
5545 1849 1 0.4238 11.826973 44.276112 40.104166
5546 1849 2 -0.8476 12.396272 45.092773 40.009495
5547 1849 1 0.4238 12.950551 45.210048 40.833522
5548 1850 1 0.4238 1.511131 31.210069 16.666599
5549 1850 2 -0.8476 1.50011 30.341896 17.162737
5550 1850 1 0.4238 1.514009 30.520069 18.146638
5551 1851 1 0.4238 10.187491 15.47132 44.855419
5552 1851 2 -0.8476 11.141395 15.744221 44.980289
5553 1851 1 0.4238 11.711663 14.928381 45.076194
5554 1852 1 0.4238 30.558731 3.102571 40.210977
5555 1852 2 -0.8476 30.990236 2.248653 39.920069
5556 1852 1 0.4238 30.331286 1.500118 39.994092
5557 1853 1 0.4238 45.827331 44.908503 34.596957
5558 1853 2 -0.8476 45.053348 45.043943 33.978405
5559 1853 1 0.4238 44.414029 44.28077 34.072407
5560 1854 1 0.4238 35.316388 33.139511 32.47807
5561 1854 2 -0.8476 36.127205 33.69638 32.297868
5562 1854 1 0.4238 36.487788 33.47658 31.39141
5563 1855 1 0.4238 5.206082 16.613102 41.770386
5564 1855 2 -0.8476 4.537864 16.099685 42.308798
5565 1855 1 0.4238 4.991742 15.329265 42.756513
5566 1856 1 0.4238 29.917554 24.242883 3.089199
5567 1856 2 -0.8476 29.967337 23.519463 2.400588
5568 1856 1 0.4238 29.757702 23.901171 1.500393
5569 1857 1 0.4238 34.704926 15.478785 25.534419
5570 1857 2 -0.8476 34.316364 15.4359 26.454843
5571 1857 1 0.4238 33.76833 16.255118 26.623786
5572 1858 1 0.4238 42.579504 2.573622 41.494306
5573 1858 2 -0.8476 42.602485 1.604324 41.739121
5574 1858 1 0.4238 42.390469 1.500867 42.710896
5575 1859 1 0.4238 17.793856 36.902239 39.350119
5576 1859 2 -0.8476 16.815571 36.927353 39.555856
5577 1859 1 0.4238 16.581138 36.161562 40.154693
5578 1860 1 0.4238 35.542394 39.64114 14.363285
5579 1860 2 -0.8476 35.755079 38.981652 15.084284
5580 1860 1 0.4238 35.549658 39.384902 15.97602
5581 1861 1 0.4238 36.358507 32.981848 9.397095
5582 1861 2 -0.8476 36.517927 32.346555 8.641457
5583 1861 1 0.4238 37.0239 32.81235 7.915492
5584 1862 1 0.4238 27.400862 23.405685 13.074058
5585 1862 2 -0.8476 26.92753 23.656143 13.918586
5586 1862 1 0.4238 27.251338 23.07677 14.666566
5587 1863 1 0.4238 6.536394 26.744189 8.234813
5588 1863 2 -0.8476 6.672053 27.413654 8.965164
5589 1863 1 0.4238 7.41355 27.109069 9.563001
5590 1864 1 0.4238 10.022762 13.777503 39.020023
5591 1864 2 -0.8476 9.500427 13.665128 39.865327
5592 1864 1 0.4238 8.52364 13.745406 39.666729
5593 1865 1 0.4238 36.182556 39.574305 8.169929
5594 1865 2 -0.8476 37.093696 39.975238 8.074653
5595 1865 1 0.4238 37.740789 39.268229 7.789332
5596 1866 1 0.4238 9.556138 38.413549 1.894583
5597 1866 2 -0.8476 8.953982 39.107629 1.500044
5598 1866 1 0.4238 9.354469 40.013535 1.63768
5599 1867 1 0.4238 39.03751 6.128606 11.312388
5600 1867 2 -0.8476 39.864439 5.692245 11.667041
5601 1867 1 0.4238 39.642452 5.18404 12.499176
5602 1868 1 0.4238 20.951542 6.117165 45.195681
5603 1868 2 -0.8476 20.380217 6.230639 46.008523
5604 1868 1 0.4238 20.593983 5.51112 46.669278
5605 1869 1 0.4238 39.535125 31.393991 14.012947
5606 1869 2 -0.8476 40.062276 31.16011 13.195995
5607 1869 1 0.4238 39.6125 31.541774 12.388509
5608 1870 1 0.4238 6.36392 18.353338 6.372489
5609 1870 2 -0.8476 5.994063 18.091565 7.263937
5610 1870 1 0.4238 5.072139 17.722297 7.146901
5611 1871 1 0.4238 20.179481 12.787233 10.552628
5612 1871 2 -0.8476 20.722498 12.979081 9.735115
5613 1871 1 0.4238 20.407079 12.401334 8.982307
5614 1872 1 0.4238 37.71754 1.891428 32.738344
5615 1872 2 -0.8476 37.20273 1.500086 31.975571
5616 1872 1 0.4238 36.408069 2.074798 31.780071
5617 1873 1 0.4238 12.594907 23.882091 1.503971
5618 1873 2 -0.8476 11.595226 23.907066 1.50014
5619 1873 1 0.4238 11.262818 24.089499 2.425463
5620 1874 1 0.4238 8.639954 22.779322 43.31571
5621 1874 2 -0.8476 9.390422 22.614043 43.955617
5622 1874 1 0.4238 9.807562 23.485838 44.212454
5623 1875 1 0.4238 16.84641 12.888215 21.217187
5624 1875 2 -0.8476 17.066157 12.80598 20.245102
5625 1875 1 0.4238 16.236392 12.582894 19.733515
5626 1876 1 0.4238 4.391744 38.412927 47.762494
5627 1876 2 -0.8476 5.253377 37.905396 47.761338
5628 1876 1 0.4238 5.062062 36.923867 47.761088
5629 1877 1 0.4238 11.195237 12.856311 5.411567
5630 1877 2 -0.8476 10.425402 13.252037 5.912321
5631 1877 1 0.4238 10.717894 14.097194 6.359712
5632 1878 1 0.4238 41.891395 31.065912 17.7377
5633 1878 2 -0.8476 41.776325 31.73559 18.471383
5634 1878 1 0.4238 40.814423 31.771034 18.742468
5635 1879 1 0.4238 42.68296 47.761218 20.154135
5636 1879 2 -0.8476 41.969769 47.762137 19.453166
5637 1879 1 0.4238 41.071168 47.762365 19.891931
5638 1880 1 0.4238 38.411057 1.506049 12.482911
5639 1880 2 -0.8476 39.244707 1.500116 13.035172
5640 1880 1 0.4238 39.834147 2.258556 12.75709
5641 1881 1 0.4238 27.968295 34.267911 35.077786
5642 1881 2 -0.8476 28.919024 33.957887 35.07839
5643 1881 1 0.4238 28.947172 32.969375 35.226887
5644 1882 1 0.4238 22.460849 35.058104 4.819392
5645 1882 2 -0.8476 22.571106 34.164696 5.254897
5646 1882 1 0.4238 21.687731 33.853362 5.60521
5647 1883 1 0.4238 18.618626 43.940783 20.772699
5648 1883 2 -0.8476 19.056567 43.151083 20.34307
5649 1883 1 0.4238 19.935674 42.97547 20.786163
5650 1884 1 0.4238 36.752565 42.063489 14.840315
5651 1884 2 -0.8476 36.736347 42.415883 15.776026
5652 1884 1 0.4238 37.431538 43.127691 15.876219
5653 1885 1 0.4238 44.916361 37.771278 46.324044
5654 1885 2 -0.8476 45.131617 37.388435 47.222429
5655 1885 1 0.4238 45.630297 38.066184 47.762777
5656 1886 1 0.4238 40.971549 21.977473 31.344734
5657 1886 2 -0.8476 39.989069 21.923527 31.52312
5658 1886 1 0.4238 39.527371 22.692748 31.08138
5659 1887 1 0.4238 18.367823 32.158979 32.703572
5660 1887 2 -0.8476 17.937573 32.087966 33.603484
5661 1887 1 0.4238 18.227991 31.239407 34.045757
5662 1888 1 0.4238 22.067712 30.754672 40.833281
5663 1888 2 -0.8476 22.388435 30.02189 40.233142
5664 1888 1 0.4238 22.288747 29.142351 40.69841
5665 1889 1 0.4238 17.87622 3.880201 10.908853
5666 1889 2 -0.8476 18.135474 4.117713 11.845003
5667 1889 1 0.4238 18.451685 3.297427 12.321595
5668 1890 1 0.4238 35.385122 30.032554 4.305817
5669 1890 2 -0.8476 34.403485 30.195526 4.404956
5670 1890 1 0.4238 34.085077 29.799061 5.26602
5671 1891 1 0.4238 46.844833 34.686372 3.676343
5672 1891 2 -0.8476 46.893634 35.18182 2.809078
5673 1891 1 0.4238 47.7628 34.979264 2.357944
5674 1892 1 0.4238 38.894119 19.776746 23.859185
5675 1892 2 -0.8476 38.206348 19.7681 23.133308
5676 1892 1 0.4238 37.950855 20.70757 22.905012
5677 1893 1 0.4238 35.360284 37.268557 22.96824
5678 1893 2 -0.8476 34.970278 36.870233 22.138039
5679 1893 1 0.4238 33.986614 36.739233 22.261505
5680 1894 1 0.4238 35.248663 4.964362 30.561609
5681 1894 2 -0.8476 35.585451 5.575445 29.845263
5682 1894 1 0.4238 35.642718 5.075984 28.980822
5683 1895 1 0.4238 24.654492 18.20205 24.647305
5684 1895 2 -0.8476 24.453045 18.490486 25.583374
5685 1895 1 0.4238 24.445515 17.691103 26.184149
5686 1896 1 0.4238 14.551364 19.502208 9.401317
5687 1896 2 -0.8476 15.12709 18.82221 9.855347
5688 1896 1 0.4238 16.082993 19.112746 9.812484
5689 1897 1 0.4238 18.858585 4.439728 18.228818
5690 1897 2 -0.8476 17.925605 4.13889 18.031222
5691 1897 1 0.4238 17.88724 3.756226 17.108132
5692 1898 1 0.4238 7.524434 43.281507 1.500029
5693 1898 2 -0.8476 6.712626 43.865101 1.519677
5694 1898 1 0.4238 5.893348 43.294636 1.577567
5695 1899 1 0.4238 13.254989 6.814199 3.225121
5696 1899 2 -0.8476 12.659709 6.40845 2.531573
5697 1899 1 0.4238 13.154587 5.685808 2.048992
5698 1900 1 0.4238 5.999598 33.423215 25.293521
5699 1900 2 -0.8476 6.547139 34.05172 24.741089
5700 1900 1 0.4238 7.186349 34.544282 25.331676
5701 1901 1 0.4238 46.54925 31.985452 4.077637
5702 1901 2 -0.8476 47.494224 31.95787 3.751656
5703 1901 1 0.4238 47.762419 31.008693 3.586935
5704 1902 1 0.4238 22.982616 25.312037 31.157029
5705 1902 2 -0.8476 23.546692 26.11702 31.340934
5706 1902 1 0.4238 24.223429 26.223307 30.612422
5707 1903 1 0.4238 28.331503 30.135869 26.088268
5708 1903 2 -0.8476 27.66901 30.791105 25.725268
5709 1903 1 0.4238 27.173432 31.217835 26.481775
5710 1904 1 0.4238 14.59444 24.246494 26.907243
5711 1904 2 -0.8476 14.826694 24.201419 27.878853
5712 1904 1 0.4238 15.805432 24.022785 27.97966
5713 1905 1 0.4238 18.190355 33.305233 19.562391
5714 1905 2 -0.8476 17.753204 32.974069 18.726192
5715 1905 1 0.4238 18.11883 32.072906 18.493335
5716 1906 1 0.4238 25.464519 43.537345 17.557278
5717 1906 2 -0.8476 25.479601 44.428154 18.011407
5718 1906 1 0.4238 24.542078 44.729862 18.184678
5719 1907 1 0.4238 7.146216 3.363162 14.625997
5720 1907 2 -0.8476 6.155314 3.451894 14.727184
5721 1907 1 0.4238 5.750206 2.545736 14.848701
5722 1908 1 0.4238 21.134952 23.386276 6.611935
5723 1908 2 -0.8476 21.998723 23.849651 6.413986
5724 1908 1 0.4238 22.683123 23.175038 6.137412
5725 1909 1 0.4238 21.175758 9.65821 35.778697
5726 1909 2 -0.8476 20.288804 9.849728 36.198975
5727 1909 1 0.4238 20.02924 9.087298 36.791703
5728 1910 1 0.4238 37.599687 47.762098 47.762601
5729 1910 2 -0.8476 38.416385 47.185033 47.762597
5730 1910 1 0.4238 39.232667 47.762686 47.762594
5731 1911 1 0.4238 1.501079 16.207094 33.482601
5732 1911 2 -0.8476 1.519835 15.210624 33.564431
5733 1911 1 0.4238 2.128668 14.830414 32.868183
5734 1912 1 0.4238 32.684652 26.966823 25.735198
5735 1912 2 -0.8476 32.786181 27.832822 26.224828
5736 1912 1 0.4238 33.122055 28.53395 25.595855
5737 1913 1 0.4238 29.370825 40.380014 35.878764
5738 1913 2 -0.8476 29.829462 40.845014 35.121514
5739 1913 1 0.4238 30.394519 41.588153 35.47992
5740 1914 1 0.4238 34.385917 23.478778 37.531434
5741 1914 2 -0.8476 34.823528 23.053639 38.323743
5742 1914 1 0.4238 35.105201 23.763229 38.969608
5743 1915 1 0.4238 12.99781 18.193083 21.078937
5744 1915 2 -0.8476 13.454387 19.058895 21.283649
5745 1915 1 0.4238 13.032627 19.475916 22.088765
5746 1916 1 0.4238 17.469626 16.004964 28.093227
5747 1916 2 -0.8476 17.932352 15.266207 27.603205
5748 1916 1 0.4238 17.581739 15.215713 26.668047
5749 1917 1 0.4238 1.510716 46.162176 40.645742
5750 1917 2 -0.8476 1.524488 46.725417 39.819564
5751 1917 1 0.4238 1.502949 46.134647 39.013012
5752 1918 1 0.4238 1.500258 39.145161 13.400336
5753 1918 2 -0.8476 2.467967 39.380751 13.310693
5754 1918 1 0.4238 2.556915 40.235809 12.799846
5755 1919 1 0.4238 12.181869 26.847572 16.724793
5756 1919 2 -0.8476 11.857953 27.789787 16.810284
5757 1919 1 0.4238 10.859897 27.794792 16.872405
5758 1920 1 0.4238 32.089157 24.229479 46.648267
5759 1920 2 -0.8476 31.928737 24.518419 47.592078
5760 1920 1 0.4238 30.944662 24.570891 47.761907
5761 1921 1 0.4238 20.153403 5.808792 30.81952
5762 1921 2 -0.8476 20.821628 5.065945 30.860198
5763 1921 1 0.4238 21.743321 5.449523 30.918075
5764 1922 1 0.4238 35.492948 30.511632 34.736587
5765 1922 2 -0.8476 35.22532 30.782968 35.661115
5766 1922 1 0.4238 34.280307 31.109878 35.652135
5767 1923 1 0.4238 5.378287 47.761415 7.720701
5768 1923 2 -0.8476 4.380314 47.724703 7.668738
5769 1923 1 0.4238 4.078277 46.773207 7.727288
5770 1924 1 0.4238 46.72404 26.153561 29.451328
5771 1924 2 -0.8476 46.814921 25.363109 30.057073
5772 1924 1 0.4238 47.761873 25.041921 30.046126
5773 1925 1 0.4238 33.477103 27.191018 43.958716
5774 1925 2 -0.8476 33.797877 26.464283 44.566137
5775 1925 1 0.4238 33.177298 26.383651 45.346124
5776 1926 1 0.4238 34.734293 38.095556 18.280296
5777 1926 2 -0.8476 33.884493 37.762217 18.688616
5778 1926 1 0.4238 33.999373 37.682311 19.678776
5779 1927 1 0.4238 25.733251 1.502075 8.378268
5780 1927 2 -0.8476 26.012833 1.510678 7.418185
5781 1927 1 0.4238 27.011237 1.5092 7.361742
5782 1928 1 0.4238 19.028832 7.613646 34.688504
5783 1928 2 -0.8476 19.838356 7.878715 34.164664
5784 1928 1 0.4238 19.601941 8.622412 33.539346
5785 1929 1 0.4238 19.084404 38.435359 7.910074
5786 1929 2 -0.8476 18.676396 37.732429 8.492671
5787 1929 1 0.4238 19.059767 36.839649 8.256091
5788 1930 1 0.4238 43.227193 1.512664 10.255229
5789 1930 2 -0.8476 42.726017 1.500024 11.120482
5790 1930 1 0.4238 41.743108 1.504067 10.936436
5791 1931 1 0.4238 10.918952 6.353773 13.83848
5792 1931 2 -0.8476 11.325514 6.128993 12.95294
5793 1931 1 0.4238 12.245637 6.517092 12.900472
5794 1932 1 0.4238 15.210407 14.621623 28.830194
5795 1932 2 -0.8476 15.045194 13.929541 28.127537
5796 1932 1 0.4238 15.897668 13.445896 27.929104
5797 1933 1 0.4238 14.062767 40.290243 9.504251
5798 1933 2 -0.8476 14.363799 40.626401 10.396651
5799 1933 1 0.4238 13.840369 40.172445 11.117722
5800 1934 1 0.4238 45.516917 28.697096 47.418871
5801 1934 2 -0.8476 45.159654 27.773088 47.555145
5802 1934 1 0.4238 44.182284 27.820657 47.761264
5803 1935 1 0.4238 36.470828 33.24307 26.48034
5804 1935 2 -0.8476 37.061411 32.538068 26.087677
5805 1935 1 0.4238 37.299804 32.78772 25.149145
5806 1936 1 0.4238 4.021167 45.372862 39.584588
5807 1936 2 -0.8476 4.814594 44.767173 39.524467
5808 1936 1 0.4238 5.644217 45.282256 39.739911
5809 1937 1 0.4238 21.067292 7.404275 4.476482
5810 1937 2 -0.8476 21.122695 8.372697 4.233396
5811 1937 1 0.4238 21.197904 8.921551 5.065924
5812 1938 1 0.4238 1.502706 12.943006 12.373972
5813 1938 2 -0.8476 1.557324 11.99926 12.700103
5814 1938 1 0.4238 2.511582 11.765891 12.886996
5815 1939 1 0.4238 10.449732 47.752997 13.041483
5816 1939 2 -0.8476 9.478037 47.762364 12.805428
5817 1939 1 0.4238 9.376676 47.760562 11.81058
5818 1940 1 0.4238 16.699253 8.349029 25.138685
5819 1940 2 -0.8476 17.639622 8.406702 25.473914
5820 1940 1 0.4238 17.804224 9.318732 25.849557
5821 1941 1 0.4238 14.373392 27.201828 42.753361
5822 1941 2 -0.8476 13.49913 26.835324 42.435019
5823 1941 1 0.4238 12.808994 27.558841 42.450332
5824 1942 1 0.4238 8.68627 2.785576 40.371166
5825 1942 2 -0.8476 9.608645 2.445304 40.554031
5826 1942 1 0.4238 9.557408 1.500018 40.876225
5827 1943 1 0.4238 30.018584 28.014801 17.853646
5828 1943 2 -0.8476 29.76837 27.972099 18.820895
5829 1943 1 0.4238 30.357379 28.587211 19.345018
5830 1944 1 0.4238 47.582002 31.391529 24.946532
5831 1944 2 -0.8476 47.762493 30.474297 25.30165
5832 1944 1 0.4238 47.002534 30.187112 25.884734
5833 1945 1 0.4238 31.542881 3.208627 10.622942
5834 1945 2 -0.8476 32.196378 2.591843 11.061712
5835 1945 1 0.4238 31.711413 1.796864 11.426153
5836 1946 1 0.4238 11.000964 24.563073 6.422393
5837 1946 2 -0.8476 11.772721 24.338871 5.82731
5838 1946 1 0.4238 12.512658 24.993991 5.979993
5839 1947 1 0.4238 30.253687 8.375454 12.760214
5840 1947 2 -0.8476 29.804256 9.231311 13.016182
5841 1947 1 0.4238 29.32202 9.108125 13.883519
5842 1948 1 0.4238 17.757493 19.284382 26.146622
5843 1948 2 -0.8476 18.682187 18.92076 26.259405
5844 1948 1 0.4238 19.328194 19.677638 26.358453
5845 1949 1 0.4238 16.788075 14.238139 23.612295
5846 1949 2 -0.8476 17.721701 14.281116 23.967955
5847 1949 1 0.4238 18.282202 13.586007 23.517775
5848 1950 1 0.4238 22.296799 47.760771 6.919225
5849 1950 2 -0.8476 23.281702 47.76275 7.092325
5850 1950 1 0.4238 23.773187 47.762201 6.221439
5851 1951 1 0.4238 22.66767 7.692647 36.991613
5852 1951 2 -0.8476 21.935494 7.011618 37.00251
5853 1951 1 0.4238 21.557255 6.914108 36.081953
5854 1952 1 0.4238 42.168751 12.331577 5.404686
5855 1952 2 -0.8476 41.841284 11.689527 4.711478
5856 1952 1 0.4238 41.587139 12.192153 3.885174
5857 1953 1 0.4238 27.688453 24.37175 9.230819
5858 1953 2 -0.8476 27.29541 24.19178 8.329082
5859 1953 1 0.4238 27.200316 23.205001 8.19784
5860 1954 1 0.4238 14.602822 1.501734 22.405429
5861 1954 2 -0.8476 15.469175 1.500007 21.906001
5862 1954 1 0.4238 15.287075 1.500778 20.922721
5863 1955 1 0.4238 29.467355 26.079725 13.488684
5864 1955 2 -0.8476 28.748471 25.710107 14.077401
5865 1955 1 0.4238 28.402792 26.433193 14.67544
5866 1956 1 0.4238 10.17883 38.073945 12.109795
5867 1956 2 -0.8476 10.246359 38.121857 11.113229
5868 1956 1 0.4238 11.120197 38.535621 10.857873
5869 1957 1 0.4238 26.356523 7.736132 20.335772
5870 1957 2 -0.8476 26.82241 8.536096 20.713935
5871 1957 1 0.4238 26.429868 9.367392 20.320416
5872 1958 1 0.4238 17.556275 41.630152 30.358269
5873 1958 2 -0.8476 17.538162 41.032401 31.159746
5874 1958 1 0.4238 16.675527 41.157933 31.649748
5875 1959 1 0.4238 23.918418 22.608312 23.401901
5876 1959 2 -0.8476 23.204337 22.593886 24.101816
5877 1959 1 0.4238 22.934939 23.531286 24.322505
5878 1960 1 0.4238 33.898136 40.971514 9.032981
5879 1960 2 -0.8476 33.335562 40.151566 9.138789
5880 1960 1 0.4238 33.826666 39.479648 9.693173
5881 1961 1 0.4238 40.12737 44.05127 14.406375
5882 1961 2 -0.8476 40.311152 44.428886 15.313916
5883 1961 1 0.4238 40.638501 45.369457 15.223537
5884 1962 1 0.4238 1.500791 28.174478 32.119897
5885 1962 2 -0.8476 1.500436 27.235396 31.776202
5886 1962 1 0.4238 2.224979 27.12944 31.095165
5887 1963 1 0.4238 11.015103 40.066013 26.171419
5888 1963 2 -0.8476 10.103627 40.330845 25.856658
5889 1963 1 0.4238 9.710693 39.589852 25.312111
5890 1964 1 0.4238 16.81654 38.579836 6.361497
5891 1964 2 -0.8476 16.615474 37.651986 6.675611
5892 1964 1 0.4238 16.491738 37.051993 5.885233
5893 1965 1 0.4238 44.84423 14.301868 15.373302
5894 1965 2 -0.8476 44.579934 15.262936 15.292706
5895 1965 1 0.4238 43.665125 15.390318 15.675978
5896 1966 1 0.4238 14.807804 42.150506 14.009208
5897 1966 2 -0.8476 14.048713 42.353769 13.390771
5898 1966 1 0.4238 14.401839 42.501528 12.466937
5899 1967 1 0.4238 25.169689 19.015505 1.501858
5900 1967 2 -0.8476 24.372032 18.412395 1.50093
5901 1967 1 0.4238 24.674784 17.459326 1.500273
5902 1968 1 0.4238 29.343027 39.561022 13.401734
5903 1968 2 -0.8476 30.286661 39.677319 13.091848
5904 1968 1 0.4238 30.660957 40.52257 13.47323
5905 1969 1 0.4238 28.473181 45.302814 10.074919
5906 1969 2 -0.8476 29.01016 44.649954 9.540664
5907 1969 1 0.4238 28.690434 43.721543 9.729945
5908 1970 1 0.4238 17.33262 11.270046 10.229771
5909 1970 2 -0.8476 17.772098 11.886163 9.57612
5910 1970 1 0.4238 17.770297 11.465805 8.668764
5911 1971 1 0.4238 16.616856 35.237962 33.384606
5912 1971 2 -0.8476 17.162746 34.670139 32.768505
5913 1971 1 0.4238 18.131171 34.89307 32.880101
5914 1972 1 0.4238 47.760911 12.026851 25.0545
5915 1972 2 -0.8476 47.706637 13.014538 25.201228
5916 1972 1 0.4238 47.76079 13.209498 26.180543
5917 1973 1 0.4238 41.435756 29.247441 24.356112
5918 1973 2 -0.8476 41.459462 28.283959 24.622831
5919 1973 1 0.4238 40.53161 27.971585 24.826576
5920 1974 1 0.4238 1.500747 45.760206 46.322668
5921 1974 2 -0.8476 1.537983 45.783989 47.321691
5922 1974 1 0.4238 1.749025 44.870376 47.669214
5923 1975 1 0.4238 39.957121 4.552095 43.63435
5924 1975 2 -0.8476 40.001042 4.260626 42.678779
5925 1975 1 0.4238 40.862065 4.570036 42.275167
5926 1976 1 0.4238 42.955425 17.127502 24.313753
5927 1976 2 -0.8476 43.060353 16.214197 23.920224
5928 1976 1 0.4238 42.566201 15.55051 24.48177
5929 1977 1 0.4238 4.301523 47.453752 16.520066
5930 1977 2 -0.8476 3.802946 47.762648 15.710126
5931 1977 1 0.4238 4.411535 47.744009 14.916859
5932 1978 1 0.4238 30.733017 30.654836 17.571471
5933 1978 2 -0.8476 30.000617 31.031343 18.138775
5934 1978 1 0.4238 29.123317 30.65089 17.846202
5935 1979 1 0.4238 35.394341 19.487059 31.658159
5936 1979 2 -0.8476 36.038195 20.247128 31.746182
5937 1979 1 0.4238 36.924483 19.89945 32.052144
5938 1980 1 0.4238 36.609657 22.220346 1.589441
5939 1980 2 -0.8476 36.60683 21.937826 2.548698
5940 1980 1 0.4238 37.114249 22.604925 3.094138
5941 1981 1 0.4238 3.846308 47.760868 29.666121
5942 1981 2 -0.8476 4.125086 47.671655 30.622323
5943 1981 1 0.4238 5.118879 47.760372 30.689443
5944 1982 1 0.4238 41.959126 12.522509 30.318475
5945 1982 2 -0.8476 41.950781 11.528778 30.206987
5946 1982 1 0.4238 41.043821 11.234825 29.905301
5947 1983 1 0.4238 38.534082 21.307658 10.130106
5948 1983 2 -0.8476 39.451975 21.540501 9.808768
5949 1983 1 0.4238 39.993977 20.705416 9.714608
5950 1984 1 0.4238 33.778514 47.762355 42.30623
5951 1984 2 -0.8476 34.275208 46.89443 42.306842
5952 1984 1 0.4238 33.622612 46.136917 42.289769
5953 1985 1 0.4238 7.126169 10.229878 46.018782
5954 1985 2 -0.8476 7.211084 11.032244 46.609543
5955 1985 1 0.4238 7.440204 10.739825 47.53798
5956 1986 1 0.4238 20.198127 1.502031 33.645284
5957 1986 2 -0.8476 20.791271 1.888748 34.351423
5958 1986 1 0.4238 21.709445 1.502386 34.263786
5959 1987 1 0.4238 23.168896 2.420126 47.762145
5960 1987 2 -0.8476 23.033199 3.410877 47.762784
5961 1987 1 0.4238 22.735833 3.707159 46.855156
5962 1988 1 0.4238 22.585483 24.321426 11.29187
5963 1988 2 -0.8476 22.153353 23.561255 11.777053
5964 1988 1 0.4238 22.810081 22.813921 11.878052
5965 1989 1 0.4238 41.215735 21.177814 4.535904
5966 1989 2 -0.8476 42.061081 20.802988 4.155253
5967 1989 1 0.4238 42.831579 21.383067 4.419525
5968 1990 1 0.4238 11.535047 28.469267 39.717834
5969 1990 2 -0.8476 10.978072 28.250217 40.518956
5970 1990 1 0.4238 10.105544 27.86206 40.222261
5971 1991 1 0.4238 45.267912 36.801599 4.69433
5972 1991 2 -0.8476 45.598724 37.507943 4.068517
5973 1991 1 0.4238 44.82097 37.937584 3.609707
5974 1992 1 0.4238 33.408717 7.418968 4.487243
5975 1992 2 -0.8476 32.516255 7.643044 4.878781
5976 1992 1 0.4238 32.463385 8.627519 5.04615
5977 1993 1 0.4238 1.501954 32.689873 20.822758
5978 1993 2 -0.8476 1.507878 31.708854 20.62894
5979 1993 1 0.4238 2.450049 31.37376 20.634111
5980 1994 1 0.4238 32.339262 37.127292 2.454518
5981 1994 2 -0.8476 32.960359 36.67604 3.095307
5982 1994 1 0.4238 33.230197 35.78623 2.727305
5983 1995 1 0.4238 41.227583 35.241339 22.864141
5984 1995 2 -0.8476 40.478126 35.261763 23.525879
5985 1995 1 0.4238 39.735033 34.673914 23.206119
5986 1996 1 0.4238 25.55451 39.446701 14.997538
5987 1996 2 -0.8476 25.174317 38.678511 15.512646
5988 1996 1 0.4238 24.911521 37.950269 14.879715
5989 1997 1 0.4238 20.731743 3.121111 19.726182
5990 1997 2 -0.8476 21.287075 2.301529 19.585148
5991 1997 1 0.4238 20.691094 1.500373 19.530782
5992 1998 1 0.4238 22.006485 41.605846 41.592713
5993 1998 2 -0.8476 21.089566 41.673031 41.98609
5994 1998 1 0.4238 20.497173 42.186133 41.364964
5995 1999 1 0.4238 13.719758 45.358594 47.762192
5996 1999 2 -0.8476 14.488939 44.719564 47.76277
5997 1999 1 0.4238 14.142851 43.781389 47.755662
5998 2000 1 0.4238 29.914369 16.907822 4.219859
5999 2000 2 -0.8476 29.230507 17.606863 4.010875
6000 2000 1 0.4238 28.690066 17.799807 4.829835
6001 2001 1 0.4238 9.964282 28.034799 10.009416
6002 2001 2 -0.8476 10.395919 27.508746 10.74219
6003 2001 1 0.4238 9.863284 26.680481 10.916196
6004 2002 1 0.4238 31.984116 1.500263 27.385001
6005 2002 2 -0.8476 31.17684 2.077211 27.260757
6006 2002 1 0.4238 30.362524 1.500819 27.192483
6007 2003 1 0.4238 38.201398 34.269414 41.55385
6008 2003 2 -0.8476 38.767671 34.926153 42.051875
6009 2003 1 0.4238 39.267218 35.497045 41.400312
6010 2004 1 0.4238 3.956269 10.119502 37.664715
6011 2004 2 -0.8476 3.888159 9.145327 37.879989
6012 2004 1 0.4238 4.795122 8.789618 38.105577
6013 2005 1 0.4238 4.794886 44.196577 8.368818
6014 2005 2 -0.8476 5.597209 44.105958 8.958789
6015 2005 1 0.4238 5.748789 43.140184 9.169271
6016 2006 1 0.4238 35.367207 19.76596 22.895624
6017 2006 2 -0.8476 34.700539 19.292908 23.471624
6018 2006 1 0.4238 34.032096 19.951396 23.817425
6019 2007 1 0.4238 9.189175 19.758377 3.607459
6020 2007 2 -0.8476 9.580271 19.041037 4.184059
6021 2007 1 0.4238 10.243271 19.444651 4.814556
6022 2008 1 0.4238 11.555489 7.988387 47.759597
6023 2008 2 -0.8476 12.030564 8.868332 47.760112
6024 2008 1 0.4238 13.018537 8.71372 47.762358
6025 2009 1 0.4238 44.880818 8.309417 36.431992
6026 2009 2 -0.8476 44.254019 7.8987 37.094137
6027 2009 1 0.4238 43.339896 7.836357 36.693524
6028 2010 1 0.4238 46.138794 24.079705 27.229569
6029 2010 2 -0.8476 46.797482 23.689581 27.872945
6030 2010 1 0.4238 47.67631 23.561178 27.41341
6031 2011 1 0.4238 29.836722 29.570422 45.63436
6032 2011 2 -0.8476 30.681728 29.34468 46.119133
6033 2011 1 0.4238 31.398081 29.126445 45.456402
6034 2012 1 0.4238 2.85406 35.890013 27.464627
6035 2012 2 -0.8476 3.504931 36.378884 28.045464
6036 2012 1 0.4238 3.459504 36.015559 28.976018
6037 2013 1 0.4238 4.265435 9.402251 45.924999
6038 2013 2 -0.8476 4.440437 10.121393 46.597464
6039 2013 1 0.4238 4.134404 11.000664 46.232463
6040 2014 1 0.4238 7.200338 47.762799 46.387981
6041 2014 2 -0.8476 7.074617 46.925363 46.91986
6042 2014 1 0.4238 6.57965 47.136918 47.762625
6043 2015 1 0.4238 28.650919 1.504102 25.041583
6044 2015 2 -0.8476 28.788469 1.507164 24.051093
6045 2015 1 0.4238 27.900491 1.501046 23.591247
6046 2016 1 0.4238 31.469074 26.558807 30.856347
6047 2016 2 -0.8476 31.189602 27.128264 31.629402
6048 2016 1 0.4238 31.507708 28.065305 31.485311
6049 2017 1 0.4238 47.762535 43.902904 1.500004
6050 2017 2 -0.8476 47.762787 42.991632 1.91181
6051 2017 1 0.4238 47.202073 42.999871 2.739778
6052 2018 1 0.4238 36.38164 1.501184 8.587349
6053 2018 2 -0.8476 37.360773 1.601677 8.763983
6054 2018 1 0.4238 37.860693 1.568757 7.898538
6055 2019 1 0.4238 1.500626 12.524194 44.415834
6056 2019 2 -0.8476 2.06973 11.731519 44.197233
6057 2019 1 0.4238 1.500322 11.011722 43.800162
6058 2020 1 0.4238 41.267419 37.89465 23.584815
6059 2020 2 -0.8476 41.819397 38.727576 23.624233
6060 2020 1 0.4238 42.776462 38.485926 23.784332
6061 2021 1 0.4238 10.650806 9.040371 8.161736
6062 2021 2 -0.8476 10.199728 8.446261 8.82774
6063 2021 1 0.4238 10.790389 7.665583 9.03185
6064 2022 1 0.4238 24.07294 21.438396 14.039518
6065 2022 2 -0.8476 25.031052 21.665833 13.865464
6066 2022 1 0.4238 25.165565 21.81501 12.885846
6067 2023 1 0.4238 20.186266 40.277551 44.19481
6068 2023 2 -0.8476 19.32159 40.755827 44.348397
6069 2023 1 0.4238 18.594247 40.087583 44.504674
6070 2024 1 0.4238 41.412341 26.95277 3.803763
6071 2024 2 -0.8476 41.657204 27.919727 3.874731
6072 2024 1 0.4238 40.844733 28.452857 4.110662
6073 2025 1 0.4238 45.321105 43.260222 15.561436
6074 2025 2 -0.8476 45.546609 42.530831 14.915575
6075 2025 1 0.4238 45.274952 42.806376 13.99347
6076 2026 1 0.4238 25.314863 47.762116 8.940118
6077 2026 2 -0.8476 25.642747 47.741326 9.884607
6078 2026 1 0.4238 25.622889 46.800783 10.2237
6079 2027 1 0.4238 41.100324 18.004313 4.218518
6080 2027 2 -0.8476 40.834613 17.040263 4.216429
6081 2027 1 0.4238 41.550755 16.49809 3.776898
6082 2028 1 0.4238 47.762796 15.310132 1.500352
6083 2028 2 -0.8476 46.771012 15.438056 1.500307
6084 2028 1 0.4238 46.561046 16.415764 1.500029
6085 2029 1 0.4238 44.719624 12.920707 6.244617
6086 2029 2 -0.8476 45.523101 13.491387 6.414178
6087 2029 1 0.4238 45.231577 14.427646 6.61022
6088 2030 1 0.4238 36.744214 47.762411 5.27276
6089 2030 2 -0.8476 37.694772 47.736817 4.963269
6090 2030 1 0.4238 37.720722 47.761915 3.963921
6091 2031 1 0.4238 29.349285 1.68257 10.022816
6092 2031 2 -0.8476 28.371516 1.500315 9.919133
6093 2031 1 0.4238 27.873955 2.366563 9.873883
6094 2032 1 0.4238 31.710804 4.473204 31.724698
6095 2032 2 -0.8476 32.115811 3.572223 31.569129
6096 2032 1 0.4238 31.394557 2.916704 31.345327
6097 2033 1 0.4238 26.660705 6.6638 25.197339
6098 2033 2 -0.8476 25.972661 7.383394 25.291034
6099 2033 1 0.4238 25.250759 7.24461 24.613098
6100 2034 1 0.4238 34.113373 28.881641 7.869987
6101 2034 2 -0.8476 34.965014 29.405767 7.869291
6102 2034 1 0.4238 34.754722 30.383405 7.868236
6103 2035 1 0.4238 18.469328 31.526635 24.619192
6104 2035 2 -0.8476 19.058927 32.240681 24.996699
6105 2035 1 0.4238 19.896347 31.827096 25.354014
6106 2036 1 0.4238 9.012893 11.813655 42.483506
6107 2036 2 -0.8476 8.278608 12.158165 41.898579
6108 2036 1 0.4238 7.400118 12.038615 42.361138
6109 2037 1 0.4238 43.913445 45.405047 21.298839
6110 2037 2 -0.8476 43.082072 44.859667 21.19216
6111 2037 1 0.4238 42.291835 45.394699 21.490932
6112 2038 1 0.4238 31.889304 6.046238 22.327334
6113 2038 2 -0.8476 32.152551 5.4116 23.053926
6114 2038 1 0.4238 33.08159 5.620989 23.358957
6115 2039 1 0.4238 8.421885 47.667449 42.756535
6116 2039 2 -0.8476 7.62632 47.762707 43.354869
6117 2039 1 0.4238 7.458088 46.896886 43.826093
6118 2040 1 0.4238 39.51416 16.172162 23.012797
6119 2040 2 -0.8476 40.482114 16.263201 22.778755
6120 2040 1 0.4238 40.808654 15.409523 22.373039
6121 2041 1 0.4238 6.016262 6.920838 8.684963
6122 2041 2 -0.8476 5.548169 6.542742 9.48367
6123 2041 1 0.4238 6.225292 6.230106 10.149826
6124 2042 1 0.4238 21.904523 47.762791 44.918823
6125 2042 2 -0.8476 22.507208 47.041133 45.259382
6126 2042 1 0.4238 22.64346 46.355565 44.544238
6127 2043 1 0.4238 20.678816 47.761452 15.064789
6128 2043 2 -0.8476 19.899039 47.229442 15.394809
6129 2043 1 0.4238 19.39806 47.760926 16.077848
6130 2044 1 0.4238 35.166386 32.254719 28.708369
6131 2044 2 -0.8476 34.57824 31.940045 29.453396
6132 2044 1 0.4238 34.2522 32.727752 29.976096
6133 2045 1 0.4238 24.666918 10.586734 33.481556
6134 2045 2 -0.8476 25.562901 10.984515 33.679
6135 2045 1 0.4238 25.462196 11.964748 33.8493
6136 2046 1 0.4238 20.015711 35.147567 36.947771
6137 2046 2 -0.8476 19.439202 35.796012 37.444918
6138 2046 1 0.4238 19.932027 36.658186 37.562305
6139 2047 1 0.4238 36.78076 40.089205 32.636449
6140 2047 2 -0.8476 37.271366 40.880628 32.271817
6141 2047 1 0.4238 36.979238 41.705704 32.75546
6142 2048 1 0.4238 33.373784 42.928529 42.849126
6143 2048 2 -0.8476 32.481836 42.532646 42.630714
6144 2048 1 0.4238 32.483842 41.559406 42.860497
6145 2049 1 0.4238 39.545429 5.488552 1.500875
6146 2049 2 -0.8476 39.434838 6.482404 1.506176
6147 2049 1 0.4238 38.460944 6.709403 1.507269
6148 2050 1 0.4238 17.935885 5.213979 39.765758
6149 2050 2 -0.8476 18.116275 4.230559 39.784323
6150 2050 1 0.4238 17.524501 3.795892 40.463195
6151 2051 1 0.4238 28.466237 3.76459 47.627588
6152 2051 2 -0.8476 29.395008 3.418173 47.759415
6153 2051 1 0.4238 29.380465 2.418285 47.762767
6154 2052 1 0.4238 26.453908 40.894161 39.809661
6155 2052 2 -0.8476 27.395399 40.583827 39.941146
6156 2052 1 0.4238 27.503796 40.232678 40.871169
6157 2053 1 0.4238 31.321011 14.253774 4.580438
6158 2053 2 -0.8476 31.193696 13.262497 4.614507
6159 2053 1 0.4238 32.086266 12.812705 4.646228
6160 2054 1 0.4238 23.947486 41.77717 7.037251
6161 2054 2 -0.8476 24.363843 42.505048 6.49242
6162 2054 1 0.4238 25.094837 42.939013 7.019032
6163 2055 1 0.4238 41.333551 29.825614 46.017212
6164 2055 2 -0.8476 41.337229 28.945104 46.491224
6165 2055 1 0.4238 41.759155 29.05293 47.39142
6166 2056 1 0.4238 9.896471 33.291117 1.500015
6167 2056 2 -0.8476 10.253897 32.35758 1.527482
6168 2056 1 0.4238 9.492799 31.708968 1.52188
6169 2057 1 0.4238 18.182153 19.436583 28.913322
6170 2057 2 -0.8476 17.627768 20.251542 28.7445
6171 2057 1 0.4238 18.223905 21.013879 28.492584
6172 2058 1 0.4238 28.079432 45.289038 17.764923
6173 2058 2 -0.8476 28.987536 45.342306 18.180268
6174 2058 1 0.4238 29.684831 45.280037 17.466195
6175 2059 1 0.4238 19.167884 43.775955 43.198668
6176 2059 2 -0.8476 18.283947 43.308976 43.17444
6177 2059 1 0.4238 17.971025 43.139055 44.108895
6178 2060 1 0.4238 15.096758 22.330275 32.549981
6179 2060 2 -0.8476 14.727663 23.179504 32.172385
6180 2060 1 0.4238 15.114998 23.959135 32.664469
6181 2061 1 0.4238 47.762426 18.3986 19.727095
6182 2061 2 -0.8476 47.762131 19.398599 19.728087
6183 2061 1 0.4238 47.762415 19.732847 18.785601
6184 2062 1 0.4238 38.550084 36.44791 13.703067
6185 2062 2 -0.8476 37.555402 36.530958 13.763989
6186 2062 1 0.4238 37.15495 35.629123 13.926259
6187 2063 1 0.4238 22.495014 9.760875 16.705222
6188 2063 2 -0.8476 23.409116 10.127108 16.531182
6189 2063 1 0.4238 23.930365 9.474741 15.980984
6190 2064 1 0.4238 33.212946 5.198011 38.426312
6191 2064 2 -0.8476 33.078798 4.275579 38.064204
6192 2064 1 0.4238 32.118177 4.015524 38.162063
6193 2065 1 0.4238 18.742462 31.204955 47.759142
6194 2065 2 -0.8476 19.495849 31.862529 47.761649
6195 2065 1 0.4238 19.126991 32.792014 47.762186
6196 2066 1 0.4238 43.222548 41.508694 15.971604
6197 2066 2 -0.8476 43.365518 40.651606 15.47667
6198 2066 1 0.4238 43.421404 40.838414 14.495865
6199 2067 1 0.4238 26.291344 46.163838 37.500974
6200 2067 2 -0.8476 26.276331 47.057176 37.05184
6201 2067 1 0.4238 26.043107 47.762777 37.720969
6202 2068 1 0.4238 37.840367 23.906468 9.541513
6203 2068 2 -0.8476 37.294929 24.207557 10.323716
6204 2068 1 0.4238 37.437116 25.186183 10.472289
6205 2069 1 0.4238 22.85672 43.000388 16.86942
6206 2069 2 -0.8476 21.983711 42.600895 16.589669
6207 2069 1 0.4238 22.133142 41.666543 16.266165
6208 2070 1 0.4238 16.503615 16.270274 33.487651
6209 2070 2 -0.8476 17.309831 16.780562 33.787021
6210 2070 1 0.4238 17.709748 17.260139 33.00595
6211 2071 1 0.4238 39.388588 5.337355 8.702501
6212 2071 2 -0.8476 39.392922 4.876754 7.814904
6213 2071 1 0.4238 39.329496 3.888235 7.952043
6214 2072 1 0.4238 8.484013 42.969165 13.905133
6215 2072 2 -0.8476 9.022462 42.126797 13.927245
6216 2072 1 0.4238 8.468591 41.368073 13.584368
6217 2073 1 0.4238 27.479647 47.762244 5.861437
6218 2073 2 -0.8476 26.531272 47.460111 5.764999
6219 2073 1 0.4238 26.173556 47.761841 4.881258
6220 2074 1 0.4238 10.245459 24.812272 17.059488
6221 2074 2 -0.8476 10.524492 24.002924 17.576301
6222 2074 1 0.4238 9.957536 23.224168 17.307787
6223 2075 1 0.4238 1.500533 9.913596 40.605457
6224 2075 2 -0.8476 1.950498 9.740266 39.729393
6225 2075 1 0.4238 1.500489 8.974937 39.269215
6226 2076 1 0.4238 26.084949 5.174465 21.297094
6227 2076 2 -0.8476 25.584547 5.681526 21.998869
6228 2076 1 0.4238 25.586559 5.159987 22.852094
6229 2077 1 0.4238 36.624884 35.36882 47.759656
6230 2077 2 -0.8476 37.365954 35.941106 47.408511
6231 2077 1 0.4238 38.240371 35.607203 47.76051
6232 2078 1 0.4238 31.030956 44.723395 32.58257
6233 2078 2 -0.8476 31.153783 43.731891 32.539763
6234 2078 1 0.4238 32.129494 43.515203 32.571936
6235 2079 1 0.4238 9.100933 13.896912 9.383552
6236 2079 2 -0.8476 8.154027 14.21721 9.411439
6237 2079 1 0.4238 7.539606 13.433494 9.50241
6238 2080 1 0.4238 6.643634 6.259875 1.500726
6239 2080 2 -0.8476 7.631233 6.416869 1.500995
6240 2080 1 0.4238 8.108429 5.538072 1.501231
6241 2081 1 0.4238 18.736838 24.870041 22.440772
6242 2081 2 -0.8476 18.784896 24.804259 21.444096
6243 2081 1 0.4238 19.255762 25.607535 21.079359
6244 2082 1 0.4238 30.909583 10.901859 9.299373
6245 2082 2 -0.8476 31.302765 11.433599 8.549266
6246 2082 1 0.4238 30.686467 11.405913 7.762241
6247 2083 1 0.4238 12.586934 12.752375 28.491614
6248 2083 2 -0.8476 12.208436 11.827078 28.515336
6249 2083 1 0.4238 11.210136 11.876027 28.546976
6250 2084 1 0.4238 38.641582 36.325937 5.876077
6251 2084 2 -0.8476 37.803084 36.016239 6.324417
6252 2084 1 0.4238 37.946316 35.10245 6.704516
6253 2085 1 0.4238 1.502964 7.391632 34.116594
6254 2085 2 -0.8476 1.50431 6.392059 34.087404
6255 2085 1 0.4238 2.442608 6.05733 34.174312
6256 2086 1 0.4238 16.810004 11.443 43.064456
6257 2086 2 -0.8476 16.334569 10.737918 43.590594
6258 2086 1 0.4238 15.396809 11.033526 43.77286
6259 2087 1 0.4238 34.422108 23.444768 3.266145
6260 2087 2 -0.8476 34.637795 23.102194 4.180542
6261 2087 1 0.4238 34.336678 23.766278 4.864881
6262 2088 1 0.4238 27.255167 40.750634 34.160335
6263 2088 2 -0.8476 26.971626 41.35777 34.902622
6264 2088 1 0.4238 26.368496 42.068283 34.540125
6265 2089 1 0.4238 40.352071 19.351486 18.27093
6266 2089 2 -0.8476 40.128636 19.778859 17.394899
6267 2089 1 0.4238 40.795874 20.496144 17.194165
6268 2090 1 0.4238 39.445515 39.209559 45.242662
6269 2090 2 -0.8476 39.905613 39.719577 44.515894
6270 2090 1 0.4238 39.257925 39.903977 43.776641
6271 2091 1 0.4238 3.815999 23.7343 8.164518
6272 2091 2 -0.8476 4.026319 24.233118 9.005319
6273 2091 1 0.4238 4.948649 24.614725 8.944634
6274 2092 1 0.4238 18.406155 22.357395 19.904159
6275 2092 2 -0.8476 19.126359 22.215244 20.583201
6276 2092 1 0.4238 18.716473 21.925833 21.448206
6277 2093 1 0.4238 19.947453 20.560128 41.3034
6278 2093 2 -0.8476 19.798839 20.610074 42.291033
6279 2093 1 0.4238 19.441455 21.513187 42.529072
6280 2094 1 0.4238 36.960356 7.686482 29.077949
6281 2094 2 -0.8476 37.816635 7.993385 28.6625
6282 2094 1 0.4238 38.342546 8.518178 29.331835
6283 2095 1 0.4238 22.934201 39.206304 1.502554
6284 2095 2 -0.8476 22.475545 40.094915 1.500591
6285 2095 1 0.4238 23.160466 40.823532 1.500993
6286 2096 1 0.4238 42.083498 36.027526 1.50076
6287 2096 2 -0.8476 43.067873 35.851445 1.500947
6288 2096 1 0.4238 43.56199 36.72084 1.501121
6289 2097 1 0.4238 10.609185 6.851585 27.81106
6290 2097 2 -0.8476 10.543922 6.274952 28.625453
6291 2097 1 0.4238 11.145008 6.635909 29.338478
6292 2098 1 0.4238 46.589479 28.678009 15.209654
6293 2098 2 -0.8476 45.809969 28.068039 15.352131
6294 2098 1 0.4238 45.463891 27.757104 14.466948
6295 2099 1 0.4238 10.302967 31.190827 5.540286
6296 2099 2 -0.8476 9.499957 31.326557 6.12059
6297 2099 1 0.4238 8.908611 30.522068 6.064842
6298 2100 1 0.4238 24.213243 2.037004 12.316852
6299 2100 2 -0.8476 24.857029 1.500083 11.771642
6300 2100 1 0.4238 25.631668 2.075196 11.508622
6301 2101 1 0.4238 1.500272 10.057907 2.906129
6302 2101 2 -0.8476 1.502394 9.145593 2.496643
6303 2101 1 0.4238 1.500273 9.227571 1.500011
6304 2102 1 0.4238 35.698859 4.340983 39.229514
6305 2102 2 -0.8476 36.67374 4.184478 39.07104
6306 2102 1 0.4238 36.792909 3.365629 38.509538
6307 2103 1 0.4238 5.123678 5.959813 33.614471
6308 2103 2 -0.8476 5.917094 6.54734 33.773543
6309 2103 1 0.4238 6.401265 6.694345 32.911007
6310 2104 1 0.4238 8.056676 4.651392 47.762761
6311 2104 2 -0.8476 7.205735 4.765372 47.250015
6312 2104 1 0.4238 6.917818 5.722172 47.290471
6313 2105 1 0.4238 43.591034 23.615979 18.067688
6314 2105 2 -0.8476 43.159304 23.345473 18.928174
6315 2105 1 0.4238 42.45773 22.656323 18.746886
6316 2106 1 0.4238 21.958934 26.086605 20.920332
6317 2106 2 -0.8476 21.963751 26.987887 20.487125
6318 2106 1 0.4238 21.231843 27.03488 19.807345
6319 2107 1 0.4238 8.271873 7.658296 31.192329
6320 2107 2 -0.8476 7.686582 7.216899 30.51218
6321 2107 1 0.4238 7.87498 7.603245 29.609272
6322 2108 1 0.4238 26.029171 5.126574 14.630356
6323 2108 2 -0.8476 26.072785 4.54442 13.818448
6324 2108 1 0.4238 25.145416 4.322303 13.517365
6325 2109 1 0.4238 6.895967 23.340022 39.358946
6326 2109 2 -0.8476 6.128157 22.730459 39.161711
6327 2109 1 0.4238 5.270702 23.239589 39.236256
6328 2110 1 0.4238 4.469258 8.496908 25.724026
6329 2110 2 -0.8476 5.289379 9.062372 25.8115
6330 2110 1 0.4238 5.054212 9.923035 26.263115
6331 2111 1 0.4238 38.945126 42.627488 43.984147
6332 2111 2 -0.8476 39.80265 42.645356 43.470013
6333 2111 1 0.4238 40.552765 42.351876 44.062631
6334 2112 1 0.4238 40.412514 7.17917 42.930301
6335 2112 2 -0.8476 40.180935 7.61694 42.06155
6336 2112 1 0.4238 39.962032 8.579523 42.221285
6337 2113 1 0.4238 32.955839 7.632672 28.226696
6338 2113 2 -0.8476 33.765273 7.073502 28.047406
6339 2113 1 0.4238 34.575373 7.659118 28.019245
6340 2114 1 0.4238 41.532569 44.512271 5.990994
6341 2114 2 -0.8476 41.980884 45.399715 6.098031
6342 2114 1 0.4238 41.928103 45.905798 5.237163
6343 2115 1 0.4238 34.895315 45.009178 12.48126
6344 2115 2 -0.8476 35.841877 44.764892 12.691841
6345 2115 1 0.4238 35.900755 43.782782 12.870707
6346 2116 1 0.4238 3.317491 2.896979 41.08589
6347 2116 2 -0.8476 2.911521 1.996096 41.23951
6348 2116 1 0.4238 1.995541 2.104746 41.625741
6349 2117 1 0.4238 31.785731 21.726714 39.962909
6350 2117 2 -0.8476 32.701917 22.081458 39.776471
6351 2117 1 0.4238 32.842604 22.927739 40.290295
6352 2118 1 0.4238 17.703694 22.233515 45.135434
6353 2118 2 -0.8476 18.33657 21.460459 45.178474
6354 2118 1 0.4238 19.273487 21.800766 45.258329
6355 2119 1 0.4238 12.684505 36.208085 40.927896
6356 2119 2 -0.8476 13.674431 36.326606 41.005358
6357 2119 1 0.4238 14.109555 35.432934 41.114981
6358 2120 1 0.4238 37.318008 29.919215 40.759459
6359 2120 2 -0.8476 37.755268 30.807256 40.901542
6360 2120 1 0.4238 37.952735 31.227094 40.015685
6361 2121 1 0.4238 37.593278 14.700846 1.643766
6362 2121 2 -0.8476 36.941846 13.95585 1.500179
6363 2121 1 0.4238 36.009909 14.316944 1.533379
6364 2122 1 0.4238 40.071135 42.971681 8.614747
6365 2122 2 -0.8476 39.578809 42.115837 8.77332
6366 2122 1 0.4238 38.627065 42.220415 8.484797
6367 2123 1 0.4238 46.706429 34.120689 25.012404
6368 2123 2 -0.8476 46.986007 33.94029 24.069381
6369 2123 1 0.4238 46.277346 33.40656 23.607935
6370 2124 1 0.4238 16.245367 43.869015 31.269786
6371 2124 2 -0.8476 15.292408 44.053172 31.029047
6372 2124 1 0.4238 14.893772 44.677943 31.700426
6373 2125 1 0.4238 15.794507 7.475098 47.519217
6374 2125 2 -0.8476 16.771957 7.31728 47.659523
6375 2125 1 0.4238 17.239898 8.195021 47.76249
6376 2126 1 0.4238 18.9348 44.035293 47.761994
6377 2126 2 -0.8476 18.985026 45.034031 47.762016
6378 2126 1 0.4238 18.060141 45.414277 47.762051
6379 2127 1 0.4238 11.936469 45.324529 17.678593
6380 2127 2 -0.8476 11.174589 45.188172 17.045389
6381 2127 1 0.4238 11.454428 44.562809 16.316959
6382 2128 1 0.4238 5.145568 20.799265 6.064466
6383 2128 2 -0.8476 4.579369 20.403673 6.787602
6384 2128 1 0.4238 4.242876 21.132581 7.383812
6385 2129 1 0.4238 29.773575 3.727406 18.665165
6386 2129 2 -0.8476 30.092994 3.856398 19.603958
6387 2129 1 0.4238 30.661105 4.677897 19.652831
6388 2130 1 0.4238 41.906424 9.066941 2.216976
6389 2130 2 -0.8476 42.577607 8.877668 1.500255
6390 2130 1 0.4238 43.02158 8.000387 1.682641
6391 2131 1 0.4238 12.145988 1.506898 4.017294
6392 2131 2 -0.8476 11.38184 1.500066 3.372288
6393 2131 1 0.4238 10.518994 1.510692 3.877643
6394 2132 1 0.4238 4.218314 11.291879 40.212095
6395 2132 2 -0.8476 4.890604 10.551593 40.21401
6396 2132 1 0.4238 5.812641 10.938693 40.214698
6397 2133 1 0.4238 15.492385 35.119998 29.205815
6398 2133 2 -0.8476 14.509685 35.052666 29.033283
6399 2133 1 0.4238 14.342399 35.069811 28.047524
6400 2134 1 0.4238 2.080975 45.591034 25.329432
6401 2134 2 -0.8476 1.500741 46.246599 24.846149
6402 2134 1 0.4238 1.500585 47.11737 25.337836
6403 2135 1 0.4238 2.614809 11.148216 23.494416
6404 2135 2 -0.8476 3.395456 10.722139 23.037198
6405 2135 1 0.4238 3.595535 9.842777 23.469276
6406 2136 1 0.4238 10.383907 47.509593 18.279425
6407 2136 2 -0.8476 10.156395 47.753951 19.222043
6408 2136 1 0.4238 9.162688 47.761733 19.333786
6409 2137 1 0.4238 5.955557 35.260131 22.342939
6410 2137 2 -0.8476 5.452669 34.659534 21.721339
6411 2137 1 0.4238 5.580344 34.971916 20.780002
6412 2138 1 0.4238 21.972178 20.253205 31.334286
6413 2138 2 -0.8476 21.857099 20.780081 32.176402
6414 2138 1 0.4238 22.234466 21.697452 32.049815
6415 2139 1 0.4238 12.779639 26.451542 12.44381
6416 2139 2 -0.8476 13.313777 25.79671 12.978499
6417 2139 1 0.4238 13.419459 26.136878 13.912906
6418 2140 1 0.4238 18.786552 22.802649 47.743223
6419 2140 2 -0.8476 17.789501 22.8784 47.755513
6420 2140 1 0.4238 17.528626 23.84375 47.762105
6421 2141 1 0.4238 47.762535 19.632463 11.577651
6422 2141 2 -0.8476 46.783515 19.454589 11.677047
6423 2141 1 0.4238 46.440372 19.924003 12.490621
6424 2142 1 0.4238 34.284896 16.500617 41.535032
6425 2142 2 -0.8476 34.9103 17.122219 42.006712
6426 2142 1 0.4238 35.549633 16.59236 42.56394
6427 2143 1 0.4238 35.655596 16.776936 31.272186
6428 2143 2 -0.8476 34.692957 16.50896 31.311109
6429 2143 1 0.4238 34.232837 17.023144 32.034921
6430 2144 1 0.4238 15.152912 3.793388 5.544591
6431 2144 2 -0.8476 14.240592 3.972878 5.176549
6432 2144 1 0.4238 14.317139 4.546021 4.360677
6433 2145 1 0.4238 25.86528 11.59336 29.972337
6434 2145 2 -0.8476 25.41072 11.405141 30.84294
6435 2145 1 0.4238 24.514687 11.848992 30.853913
6436 2146 1 0.4238 27.730463 2.488092 20.051128
6437 2146 2 -0.8476 28.009988 1.539372 20.198767
6438 2146 1 0.4238 28.99695 1.503244 20.355613
6439 2147 1 0.4238 28.543028 33.338384 17.800236
6440 2147 2 -0.8476 27.551471 33.39022 17.919094
6441 2147 1 0.4238 27.228721 32.568718 18.389165
6442 2148 1 0.4238 21.828895 20.809437 16.947916
6443 2148 2 -0.8476 22.238629 21.463693 17.583579
6444 2148 1 0.4238 23.214668 21.268488 17.679716
6445 2149 1 0.4238 34.5752 47.761948 7.337695
6446 2149 2 -0.8476 34.909414 47.75195 8.280139
6447 2149 1 0.4238 34.132349 47.761956 8.90948
6448 2150 1 0.4238 39.825524 26.871117 43.755529
6449 2150 2 -0.8476 40.161044 26.784758 44.693595
6450 2150 1 0.4238 39.867099 25.907591 45.073298
6451 2151 1 0.4238 46.172057 33.769454 47.762249
6452 2151 2 -0.8476 46.753106 32.955586 47.761297
6453 2151 1 0.4238 47.714092 33.232132 47.756013
6454 2152 1 0.4238 47.762648 7.207852 20.329189
6455 2152 2 -0.8476 46.799996 7.463379 20.239703
6456 2152 1 0.4238 46.224899 6.723338 20.588417
6457 2153 1 0.4238 19.85663 22.729409 16.680775
6458 2153 2 -0.8476 19.441609 22.11332 17.350247
6459 2153 1 0.4238 19.117918 21.28786 16.887819
6460 2154 1 0.4238 23.212797 19.947869 23.005508
6461 2154 2 -0.8476 22.884904 19.11268 22.563981
6462 2154 1 0.4238 21.925724 19.226924 22.30529
6463 2155 1 0.4238 25.017256 37.498928 20.340926
6464 2155 2 -0.8476 24.216118 37.034817 19.963064
6465 2155 1 0.4238 23.900657 36.33733 20.606489
6466 2156 1 0.4238 43.274434 4.879379 43.557771
6467 2156 2 -0.8476 43.573166 5.722508 43.110678
6468 2156 1 0.4238 43.023439 6.488872 43.44307
6469 2157 1 0.4238 12.857277 44.28445 43.616118
6470 2157 2 -0.8476 12.896278 44.356361 44.612767
6471 2157 1 0.4238 13.572575 45.046259 44.870958
6472 2158 1 0.4238 39.232961 23.135694 22.72939
6473 2158 2 -0.8476 40.141598 23.046375 23.137314
6474 2158 1 0.4238 40.301274 22.092035 23.389775
6475 2159 1 0.4238 10.655705 9.101515 17.052159
6476 2159 2 -0.8476 11.012195 9.68964 17.778124
6477 2159 1 0.4238 11.997027 9.811672 17.654784
6478 2160 1 0.4238 1.521327 40.00409 38.888987
6479 2160 2 -0.8476 1.500209 40.775881 39.524513
6480 2160 1 0.4238 2.18457 40.637051 40.240318
6481 2161 1 0.4238 18.540021 35.255081 29.729994
6482 2161 2 -0.8476 19.199224 35.533359 30.428574
6483 2161 1 0.4238 20.121889 35.511969 30.043567
6484 2162 1 0.4238 1.799934 15.188233 47.753209
6485 2162 2 -0.8476 2.196376 15.042703 46.846757
6486 2162 1 0.4238 1.500302 14.667006 46.234931
6487 2163 1 0.4238 29.960573 47.761536 26.065273
6488 2163 2 -0.8476 30.672821 47.760487 25.363346
6489 2163 1 0.4238 30.894573 46.817562 25.114914
6490 2164 1 0.4238 4.002723 21.618494 2.843163
6491 2164 2 -0.8476 4.249251 20.950518 2.141
6492 2164 1 0.4238 4.895974 21.363963 1.500053
6493 2165 1 0.4238 43.911009 5.660263 15.437985
6494 2165 2 -0.8476 44.265122 5.550175 16.366685
6495 2165 1 0.4238 43.68354 4.912467 16.871751
6496 2166 1 0.4238 35.426001 23.88472 30.488286
6497 2166 2 -0.8476 36.078551 23.127188 30.470272
6498 2166 1 0.4238 37.002245 23.486064 30.336118
6499 2167 1 0.4238 5.719593 3.904778 11.551538
6500 2167 2 -0.8476 6.595039 3.586478 11.187836
6501 2167 1 0.4238 7.329672 4.175894 11.523846
6502 2168 1 0.4238 47.757985 29.71593 22.659393
6503 2168 2 -0.8476 47.762765 30.609119 22.209736
6504 2168 1 0.4238 47.755818 30.482935 21.217754
6505 2169 1 0.4238 14.134686 38.015912 12.797763
6506 2169 2 -0.8476 14.793054 37.2717 12.685064
6507 2169 1 0.4238 14.303427 36.416164 12.516769
6508 2170 1 0.4238 17.284005 37.163331 31.539688
6509 2170 2 -0.8476 16.983124 37.896239 32.149866
6510 2170 1 0.4238 16.275509 38.438092 31.696353
6511 2171 1 0.4238 28.165067 31.855295 13.171927
6512 2171 2 -0.8476 27.376249 31.385166 12.776016
6513 2171 1 0.4238 27.18345 30.556776 13.301941
6514 2172 1 0.4238 18.182736 9.596782 1.50001
6515 2172 2 -0.8476 17.229018 9.297439 1.528578
6516 2172 1 0.4238 16.628426 10.096978 1.523474
6517 2173 1 0.4238 42.136415 27.422302 6.536292
6518 2173 2 -0.8476 43.131899 27.408638 6.44235
6519 2173 1 0.4238 43.473294 28.346185 6.375602
6520 2174 1 0.4238 14.596873 15.843381 23.187924
6521 2174 2 -0.8476 14.850605 16.650474 23.721048
6522 2174 1 0.4238 14.494698 17.470909 23.273593
6523 2175 1 0.4238 41.478718 43.903476 39.449985
6524 2175 2 -0.8476 41.4703 44.725605 38.880747
6525 2175 1 0.4238 42.392951 44.903615 38.538654
6526 2176 1 0.4238 27.553918 19.754859 42.909192
6527 2176 2 -0.8476 27.434089 20.727526 42.710296
6528 2176 1 0.4238 26.675681 20.845701 42.069319
6529 2177 1 0.4238 5.573786 22.410242 41.840409
6530 2177 2 -0.8476 5.943832 22.53495 42.761014
6531 2177 1 0.4238 5.210172 22.429364 43.432277
6532 2178 1 0.4238 43.525587 2.410174 14.153707
6533 2178 2 -0.8476 43.175822 1.513901 13.881018
6534 2178 1 0.4238 42.180772 1.500373 13.979466
6535 2179 1 0.4238 33.85121 44.54057 5.172012
6536 2179 2 -0.8476 33.407988 44.472845 6.065861
6537 2179 1 0.4238 32.959466 43.582941 6.148928
6538 2180 1 0.4238 36.566062 28.925735 17.274701
6539 2180 2 -0.8476 36.868934 29.878766 17.275571
6540 2180 1 0.4238 36.278384 30.416732 16.674037
6541 2181 1 0.4238 13.651814 16.746705 10.892898
6542 2181 2 -0.8476 13.504786 17.197236 11.773468
6543 2181 1 0.4238 14.350265 17.170549 12.30681
6544 2182 1 0.4238 44.574554 44.584999 12.016924
6545 2182 2 -0.8476 45.300685 45.272522 12.023744
6546 2182 1 0.4238 45.723572 45.301706 12.929456
6547 2183 1 0.4238 8.93413 33.97749 42.612711
6548 2183 2 -0.8476 8.298995 34.748983 42.575262
6549 2183 1 0.4238 7.830515 34.752456 41.691794
6550 2184 1 0.4238 1.51725 34.323893 3.190412
6551 2184 2 -0.8476 1.500136 33.471483 3.713006
6552 2184 1 0.4238 1.517991 33.679648 4.690937
6553 2185 1 0.4238 13.022101 46.891903 42.958
6554 2185 2 -0.8476 12.611149 47.762379 43.228904
6555 2185 1 0.4238 11.617917 47.659568 43.282937
6556 2186 1 0.4238 6.881726 45.312852 19.024147
6557 2186 2 -0.8476 7.288563 45.098638 18.136117
6558 2186 1 0.4238 8.171198 45.561384 18.053518
6559 2187 1 0.4238 14.662781 3.525437 38.097953
6560 2187 2 -0.8476 15.194231 4.11002 37.484908
6561 2187 1 0.4238 16.002657 4.449492 37.965746
6562 2188 1 0.4238 2.168078 18.712739 11.121634
6563 2188 2 -0.8476 1.576147 17.907003 11.101469
6564 2188 1 0.4238 1.50022 17.572617 10.162097
6565 2189 1 0.4238 46.092152 44.775801 9.437941
6566 2189 2 -0.8476 46.80111 45.207544 8.880288
6567 2189 1 0.4238 47.63919 44.664022 8.927252
6568 2190 1 0.4238 27.512545 7.685456 47.76158
6569 2190 2 -0.8476 28.246127 7.256943 47.234101
6570 2190 1 0.4238 28.639729 6.503897 47.761356
6571 2191 1 0.4238 44.983917 42.873821 21.213755
6572 2191 2 -0.8476 45.589014 43.123019 21.969902
6573 2191 1 0.4238 45.040148 43.372108 22.767838
6574 2192 1 0.4238 43.50824 18.52525 16.358006
6575 2192 2 -0.8476 43.005728 18.861181 17.154644
6576 2192 1 0.4238 42.732107 18.087842 17.726552
6577 2193 1 0.4238 10.421876 31.082385 12.777651
6578 2193 2 -0.8476 10.992668 30.998328 11.960871
6579 2193 1 0.4238 10.915156 30.071282 11.594025
6580 2194 1 0.4238 29.121716 5.803824 27.170417
6581 2194 2 -0.8476 28.245315 5.32446 27.216586
6582 2194 1 0.4238 28.399121 4.373935 27.486483
6583 2195 1 0.4238 33.218785 24.858929 24.051833
6584 2195 2 -0.8476 32.603301 24.900853 23.2648
6585 2195 1 0.4238 31.759101 25.368708 23.526407
6586 2196 1 0.4238 24.063257 21.837725 4.171299
6587 2196 2 -0.8476 24.659854 21.116966 3.818343
6588 2196 1 0.4238 24.184608 20.238346 3.864893
6589 2197 1 0.4238 26.235462 25.711635 32.415746
6590 2197 2 -0.8476 26.878435 25.334895 33.082569
6591 2197 1 0.4238 26.903537 24.339004 32.995562
6592 2198 1 0.4238 17.759813 47.762556 38.517761
6593 2198 2 -0.8476 17.382835 47.739378 39.443693
6594 2198 1 0.4238 17.564059 46.846121 39.855091
6595 2199 1 0.4238 27.189866 36.084627 3.668944
6596 2199 2 -0.8476 27.603629 36.993307 3.724626
6597 2199 1 0.4238 26.892738 37.672669 3.906564
6598 2200 1 0.4238 21.33888 6.436375 19.966851
6599 2200 2 -0.8476 20.561341 5.809404 19.918474
6600 2200 1 0.4238 20.287931 5.545478 20.843455
6601 2201 1 0.4238 37.690839 20.288831 18.559558
6602 2201 2 -0.8476 37.17505 20.724098 17.821652
6603 2201 1 0.4238 36.796707 20.020937 17.219638
6604 2202 1 0.4238 6.106476 13.892641 29.488131
6605 2202 2 -0.8476 5.6888 13.020834 29.232201
6606 2202 1 0.4238 4.860564 13.191958 28.69859
6607 2203 1 0.4238 43.989506 44.147506 44.886368
6608 2203 2 -0.8476 43.576912 43.47359 45.499233
6609 2203 1 0.4238 42.58126 43.562048 45.470068
6610 2204 1 0.4238 9.295209 33.039715 14.346244
6611 2204 2 -0.8476 8.93859 32.829285 15.256487
6612 2204 1 0.4238 8.672243 31.866205 15.295671
6613 2205 1 0.4238 9.700938 34.380726 39.191164
6614 2205 2 -0.8476 10.067828 34.509101 40.112528
6615 2205 1 0.4238 10.100913 35.485698 40.325043
6616 2206 1 0.4238 27.926816 1.5018 31.511515
6617 2206 2 -0.8476 27.219904 2.075823 31.098269
6618 2206 1 0.4238 26.46475 1.500407 30.7842
6619 2207 1 0.4238 40.757802 7.721943 8.720463
6620 2207 2 -0.8476 41.272258 8.570757 8.598601
6621 2207 1 0.4238 42.15443 8.367758 8.173673
6622 2208 1 0.4238 3.237435 43.624614 2.223781
6623 2208 2 -0.8476 2.612584 43.970749 1.523957
6624 2208 1 0.4238 1.790695 43.401607 1.500015
6625 2209 1 0.4238 17.011732 11.619786 32.500236
6626 2209 2 -0.8476 17.590305 11.635156 31.68475
6627 2209 1 0.4238 18.134792 10.797258 31.646532
6628 2210 1 0.4238 22.686169 40.85346 25.859784
6629 2210 2 -0.8476 22.408987 41.793403 26.058976
6630 2210 1 0.4238 21.572469 41.785224 26.606854
6631 2211 1 0.4238 44.987868 15.073266 29.344892
6632 2211 2 -0.8476 44.546307 14.194112 29.165696
6633 2211 1 0.4238 43.567206 14.336368 29.020355
6634 2212 1 0.4238 9.720048 16.559972 18.611424
6635 2212 2 -0.8476 9.035293 15.848331 18.454334
6636 2212 1 0.4238 9.075147 15.178035 19.195357
6637 2213 1 0.4238 13.170295 44.213005 25.231058
6638 2213 2 -0.8476 13.837079 43.663166 25.734125
6639 2213 1 0.4238 14.223196 42.969191 25.126415
6640 2214 1 0.4238 15.666134 34.096664 10.155963
6641 2214 2 -0.8476 14.893125 34.460597 10.675587
6642 2214 1 0.4238 14.253258 34.908729 10.051288
6643 2215 1 0.4238 46.290425 1.50084 37.694707
6644 2215 2 -0.8476 46.898467 1.995877 37.074044
6645 2215 1 0.4238 47.762732 1.500192 36.988353
6646 2216 1 0.4238 8.034779 9.190748 10.838806
6647 2216 2 -0.8476 7.352748 8.734872 10.266958
6648 2216 1 0.4238 6.435921 8.98699 10.576581
6649 2217 1 0.4238 23.104774 22.312879 47.762786
6650 2217 2 -0.8476 22.320494 21.69282 47.74201
6651 2217 1 0.4238 21.474199 22.225498 47.748158
6652 2218 1 0.4238 10.232539 25.188699 29.171812
6653 2218 2 -0.8476 10.953917 24.611244 28.789504
6654 2218 1 0.4238 11.717836 25.184512 28.493211
6655 2219 1 0.4238 36.438643 43.290842 43.070519
6656 2219 2 -0.8476 36.709565 44.253369 43.058586
6657 2219 1 0.4238 35.892344 44.829492 43.043356
6658 2220 1 0.4238 20.696425 30.88345 16.658785
6659 2220 2 -0.8476 21.452066 30.849588 17.312895
6660 2220 1 0.4238 22.299907 30.627251 16.83151
6661 2221 1 0.4238 10.847124 3.420643 29.101513
6662 2221 2 -0.8476 10.23176 3.800466 28.410817
6663 2221 1 0.4238 9.317668 3.412682 28.529388
6664 2222 1 0.4238 9.604772 39.992633 33.020087
6665 2222 2 -0.8476 10.552167 40.303671 33.095567
6666 2222 1 0.4238 10.720134 41.02637 32.425125
6667 2223 1 0.4238 45.985904 9.006762 1.500056
6668 2223 2 -0.8476 45.980881 8.006816 1.509114
6669 2223 1 0.4238 46.92196 7.668697 1.502434
6670 2224 1 0.4238 32.080518 30.821114 1.501375
6671 2224 2 -0.8476 32.876156 31.135962 2.018899
6672 2224 1 0.4238 33.709119 30.940638 1.501191
6673 2225 1 0.4238 1.51844 41.221535 19.429473
6674 2225 2 -0.8476 1.500145 40.6713 20.264283
6675 2225 1 0.4238 1.606258 39.705163 20.029082
6676 2226 1 0.4238 41.142773 47.260291 25.112433
6677 2226 2 -0.8476 41.938468 47.758133 24.767436
6678 2226 1 0.4238 42.656664 47.761965 25.463266
6679 2227 1 0.4238 25.934492 15.421774 9.036949
6680 2227 2 -0.8476 26.713491 16.012227 9.247959
6681 2227 1 0.4238 26.417965 16.967558 9.245347
6682 2228 1 0.4238 14.706788 36.151647 31.630455
6683 2228 2 -0.8476 13.751988 36.44757 31.602391
6684 2228 1 0.4238 13.712936 37.446728 31.58983
6685 2229 1 0.4238 19.100777 29.376841 37.956071
6686 2229 2 -0.8476 19.507877 29.679406 37.094256
6687 2229 1 0.4238 18.815087 29.659864 36.373382
6688 2230 1 0.4238 26.796083 17.809209 32.162212
6689 2230 2 -0.8476 27.68663 17.415711 31.933988
6690 2230 1 0.4238 27.645613 16.42103 32.028475
6691 2231 1 0.4238 10.399901 5.125152 23.615014
6692 2231 2 -0.8476 10.04303 6.057657 23.670495
6693 2231 1 0.4238 9.890838 6.411752 22.747753
6694 2232 1 0.4238 17.838354 1.500346 47.753759
6695 2232 2 -0.8476 16.838809 1.529623 47.761073
6696 2232 1 0.4238 16.533242 2.481793 47.7621
6697 2233 1 0.4238 36.086197 40.735837 18.314532
6698 2233 2 -0.8476 37.017394 40.374211 18.268723
6699 2233 1 0.4238 37.64796 41.108191 18.016413
6700 2234 1 0.4238 37.915982 1.607168 43.595752
6701 2234 2 -0.8476 38.908465 1.500102 43.655029
6702 2234 1 0.4238 39.300903 1.515624 42.735381
6703 2235 1 0.4238 14.249382 4.213371 17.375515
6704 2235 2 -0.8476 15.193001 4.303925 17.057109
6705 2235 1 0.4238 15.523532 5.227284 17.252445
6706 2236 1 0.4238 18.911117 39.335566 16.363782
6707 2236 2 -0.8476 19.006405 40.20246 16.853083
6708 2236 1 0.4238 18.266754 40.291754 17.520123
6709 2237 1 0.4238 34.07338 17.657236 44.584861
6710 2237 2 -0.8476 34.78282 17.444142 45.256639
6711 2237 1 0.4238 34.813631 18.165078 45.948954
6712 2238 1 0.4238 30.020754 6.528146 5.180584
6713 2238 2 -0.8476 29.114615 6.87341 5.424929
6714 2238 1 0.4238 28.9397 7.727003 4.934231
6715 2239 1 0.4238 20.859894 24.915502 41.157315
6716 2239 2 -0.8476 21.016657 25.526638 41.933162
6717 2239 1 0.4238 20.256464 26.172009 42.008014
6718 2240 1 0.4238 36.004797 9.287505 35.445328
6719 2240 2 -0.8476 36.246091 8.41808 35.014194
6720 2240 1 0.4238 36.41178 8.564316 34.038918
6721 2241 1 0.4238 36.980173 35.409176 16.66137
6722 2241 2 -0.8476 37.510816 36.242904 16.814072
6723 2241 1 0.4238 36.888571 37.011934 16.960374
6724 2242 1 0.4238 17.766443 37.452386 34.758373
6725 2242 2 -0.8476 18.604827 37.221403 34.264653
6726 2242 1 0.4238 19.266069 36.821632 34.899429
6727 2243 1 0.4238 9.983353 36.784441 7.18091
6728 2243 2 -0.8476 9.942798 37.754892 7.418777
6729 2243 1 0.4238 9.834245 37.851306 8.40818
6730 2244 1 0.4238 22.977061 26.513761 40.277676
6731 2244 2 -0.8476 23.775112 26.19811 40.790978
6732 2244 1 0.4238 24.213109 26.977648 41.238728
6733 2245 1 0.4238 22.431432 38.722195 42.335363
6734 2245 2 -0.8476 21.472353 38.807671 42.065434
6735 2245 1 0.4238 20.918627 38.164568 42.5944
6736 2246 1 0.4238 4.286868 15.552083 29.919906
6737 2246 2 -0.8476 3.482479 14.97287 29.78773
6738 2246 1 0.4238 2.68452 15.547256 29.60513
6739 2247 1 0.4238 24.629078 28.288615 19.506939
6740 2247 2 -0.8476 23.746797 28.608222 19.161349
6741 2247 1 0.4238 23.811947 28.765428 18.175935
6742 2248 1 0.4238 27.621203 1.592622 27.588955
6743 2248 2 -0.8476 26.689661 1.504346 27.941711
6744 2248 1 0.4238 26.344955 2.406246 28.202008
6745 2249 1 0.4238 25.345637 11.395874 44.941056
6746 2249 2 -0.8476 26.023547 12.121271 45.060373
6747 2249 1 0.4238 25.5634 13.009051 45.070918
6748 2250 1 0.4238 30.932328 11.952528 27.878681
6749 2250 2 -0.8476 30.783384 10.977526 28.043569
6750 2250 1 0.4238 30.96778 10.769965 29.004254
6751 2251 1 0.4238 13.854211 37.860417 17.583444
6752 2251 2 -0.8476 13.171526 37.169027 17.819919
6753 2251 1 0.4238 12.255583 37.535121 17.655532
6754 2252 1 0.4238 43.781241 30.604037 37.584226
6755 2252 2 -0.8476 43.721372 29.752734 38.105474
6756 2252 1 0.4238 44.518132 29.182573 37.905252
6757 2253 1 0.4238 12.540001 11.381377 31.208236
6758 2253 2 -0.8476 12.800121 11.285189 32.169009
6759 2253 1 0.4238 13.471331 11.988031 32.404573
6760 2254 1 0.4238 38.413945 40.93834 29.481973
6761 2254 2 -0.8476 39.081161 40.7607 30.205345
6762 2254 1 0.4238 39.040037 39.796488 30.467269
6763 2255 1 0.4238 45.68769 9.08678 44.383976
6764 2255 2 -0.8476 44.97816 8.545937 43.93225
6765 2255 1 0.4238 45.404997 7.886969 43.312919
6766 2256 1 0.4238 23.503908 30.179019 43.106105
6767 2256 2 -0.8476 24.25732 30.672797 42.671877
6768 2256 1 0.4238 24.617612 30.130568 41.912814
6769 2257 1 0.4238 19.409238 33.694295 10.441106
6770 2257 2 -0.8476 19.191441 34.591857 10.05777
6771 2257 1 0.4238 18.316089 34.545274 9.576533
6772 2258 1 0.4238 17.407608 14.738728 40.025602
6773 2258 2 -0.8476 17.650798 14.486047 39.089113
6774 2258 1 0.4238 18.249184 15.186234 38.699664
6775 2259 1 0.4238 29.298524 2.999279 7.621805
6776 2259 2 -0.8476 28.813125 3.53757 6.932871
6777 2259 1 0.4238 29.440975 4.200066 6.524333
6778 2260 1 0.4238 33.307502 38.633326 47.689854
6779 2260 2 -0.8476 33.564104 38.597038 46.724019
6780 2260 1 0.4238 33.003471 39.242824 46.205704
6781 2261 1 0.4238 16.84202 22.069008 35.665082
6782 2261 2 -0.8476 16.485444 22.90586 35.249714
6783 2261 1 0.4238 15.486841 22.863189 35.218549
6784 2262 1 0.4238 1.502744 26.410719 36.078258
6785 2262 2 -0.8476 1.518548 26.708161 35.123649
6786 2262 1 0.4238 1.501473 25.907527 34.524739
6787 2263 1 0.4238 32.733817 46.85525 32.419421
6788 2263 2 -0.8476 32.819485 47.662073 31.834871
6789 2263 1 0.4238 33.769777 47.760204 31.539381
6790 2264 1 0.4238 47.762714 47.761749 13.518987
6791 2264 2 -0.8476 46.763271 47.756153 13.551893
6792 2264 1 0.4238 46.461124 47.762162 14.505136
6793 2265 1 0.4238 26.166454 25.019064 47.762376
6794 2265 2 -0.8476 25.260331 25.442078 47.762395
6795 2265 1 0.4238 24.559484 24.728766 47.762464
6796 2266 1 0.4238 44.571949 39.876105 1.500306
6797 2266 2 -0.8476 45.539876 40.127334 1.500325
6798 2266 1 0.4238 45.625636 41.12365 1.500234
6799 2267 1 0.4238 17.687592 45.151142 36.596918
6800 2267 2 -0.8476 18.459294 45.500992 37.128031
6801 2267 1 0.4238 18.968127 46.164328 36.579328
6802 2268 1 0.4238 5.396023 29.013017 5.880353
6803 2268 2 -0.8476 6.221228 28.523772 6.162624
6804 2268 1 0.4238 6.819265 28.394812 5.371599
6805 2269 1 0.4238 35.120871 20.397383 4.284155
6806 2269 2 -0.8476 35.460418 19.460652 4.199043
6807 2269 1 0.4238 35.767811 19.135009 5.093172
6808 2270 1 0.4238 42.373779 1.501033 31.721655
6809 2270 2 -0.8476 43.244582 1.771057 32.132496
6810 2270 1 0.4238 43.256878 1.50096 33.09525
6811 2271 1 0.4238 41.11501 21.778177 12.109558
6812 2271 2 -0.8476 40.422598 21.117269 12.398982
6813 2271 1 0.4238 40.795135 20.191911 12.328791
6814 2272 1 0.4238 35.415952 35.490555 29.857258
6815 2272 2 -0.8476 35.536622 34.961999 29.01698
6816 2272 1 0.4238 36.028489 35.514045 28.343695
6817 2273 1 0.4238 1.501097 14.75082 38.035206
6818 2273 2 -0.8476 1.50047 14.06846 37.30419
6819 2273 1 0.4238 2.082009 14.383141 36.553998
6820 2274 1 0.4238 35.956732 20.84199 14.733159
6821 2274 2 -0.8476 35.773214 20.14081 14.044198
6822 2274 1 0.4238 34.785712 20.051509 13.914332
6823 2275 1 0.4238 13.456648 16.70377 35.699529
6824 2275 2 -0.8476 14.37731 16.563798 35.335127
6825 2275 1 0.4238 15.020302 17.159891 35.815995
6826 2276 1 0.4238 47.762788 31.936472 36.782558
6827 2276 2 -0.8476 46.998048 31.412776 37.157945
6828 2276 1 0.4238 46.139417 31.881626 36.950743
6829 2277 1 0.4238 16.642626 26.444418 40.028123
6830 2277 2 -0.8476 15.768514 26.429464 40.513618
6831 2277 1 0.4238 15.656223 25.547213 40.97081
6832 2278 1 0.4238 15.93144 13.869029 11.26608
6833 2278 2 -0.8476 15.227322 14.322746 11.812302
6834 2278 1 0.4238 15.652035 14.766435 12.601453
6835 2279 1 0.4238 33.094355 35.834614 47.762688
6836 2279 2 -0.8476 32.597596 35.476239 46.972246
6837 2279 1 0.4238 32.845474 36.000072 46.157289
6838 2280 1 0.4238 8.157946 25.536565 31.110728
6839 2280 2 -0.8476 8.094081 26.313391 30.484259
6840 2280 1 0.4238 7.653874 26.021495 29.635134
6841 2281 1 0.4238 28.601873 18.347493 21.68902
6842 2281 2 -0.8476 27.618372 18.485158 21.571658
6843 2281 1 0.4238 27.159867 17.597329 21.532496
6844 2282 1 0.4238 38.097721 24.263705 19.898649
6845 2282 2 -0.8476 37.297927 24.856636 19.805042
6846 2282 1 0.4238 37.596796 25.804616 19.695449
6847 2283 1 0.4238 13.733675 45.727813 35.614786
6848 2283 2 -0.8476 14.242066 45.488406 34.787609
6849 2283 1 0.4238 13.609926 45.420771 34.015712
6850 2284 1 0.4238 17.116597 22.617006 3.367834
6851 2284 2 -0.8476 17.905396 23.231641 3.372249
6852 2284 1 0.4238 17.593125 24.173818 3.49386
6853 2285 1 0.4238 10.812468 30.960284 21.48651
6854 2285 2 -0.8476 10.652059 31.810282 21.98828
6855 2285 1 0.4238 11.018199 32.580117 21.465505
6856 2286 1 0.4238 10.951296 7.984633 31.435239
6857 2286 2 -0.8476 10.832687 8.482537 32.294322
6858 2286 1 0.4238 11.712318 8.858279 32.585983
6859 2287 1 0.4238 15.703284 32.602833 31.499569
6860 2287 2 -0.8476 16.371449 32.304251 30.818097
6861 2287 1 0.4238 16.892847 33.093742 30.494295
6862 2288 1 0.4238 14.084482 8.303524 37.978827
6863 2288 2 -0.8476 13.968308 7.541496 37.34179
6864 2288 1 0.4238 14.554215 6.780926 37.621515
6865 2289 1 0.4238 45.884402 30.219186 44.088768
6866 2289 2 -0.8476 45.521976 29.7275 43.297002
6867 2289 1 0.4238 45.187286 30.384347 42.621329
6868 2290 1 0.4238 20.658065 8.670261 18.436836
6869 2290 2 -0.8476 20.933084 9.482273 18.951619
6870 2290 1 0.4238 21.841958 9.337063 19.342594
6871 2291 1 0.4238 47.76189 15.989318 25.558902
6872 2291 2 -0.8476 47.186479 16.545787 24.959532
6873 2291 1 0.4238 47.761036 17.174654 24.43569
6874 2292 1 0.4238 29.837468 25.490775 45.453537
6875 2292 2 -0.8476 30.28481 26.385049 45.440947
6876 2292 1 0.4238 29.849615 26.965779 44.752937
6877 2293 1 0.4238 17.639333 10.914655 23.61663
6878 2293 2 -0.8476 17.655545 10.018196 23.1738
6879 2293 1 0.4238 17.109114 10.049914 22.336897
6880 2294 1 0.4238 23.263448 35.165691 44.638212
6881 2294 2 -0.8476 22.663249 34.371404 44.732391
6882 2294 1 0.4238 23.009485 33.776109 45.457473
6883 2295 1 0.4238 22.709514 40.167446 47.711491
6884 2295 2 -0.8476 23.272424 39.341666 47.746403
6885 2295 1 0.4238 22.680936 38.535514 47.762533
6886 2296 1 0.4238 17.154881 15.392673 36.154699
6887 2296 2 -0.8476 16.419776 14.792797 35.838834
6888 2296 1 0.4238 16.086536 14.242429 36.604371
6889 2297 1 0.4238 31.447075 29.54139 41.73872
6890 2297 2 -0.8476 30.874224 28.765654 42.003439
6891 2297 1 0.4238 31.250288 28.338948 42.825934
6892 2298 1 0.4238 6.547778 23.263505 45.686364
6893 2298 2 -0.8476 7.227568 23.696623 46.278221
6894 2298 1 0.4238 8.054773 23.13523 46.302104
6895 2299 1 0.4238 47.761669 40.422496 6.825285
6896 2299 2 -0.8476 47.184461 39.606682 6.861046
6897 2299 1 0.4238 47.76197 38.791021 6.895403
6898 2300 1 0.4238 27.831926 12.005891 36.013438
6899 2300 2 -0.8476 27.367929 11.401217 35.366077
6900 2300 1 0.4238 26.763512 10.779919 35.864744
6901 2301 1 0.4238 35.366768 3.597657 18.995538
6902 2301 2 -0.8476 36.001304 3.569371 19.767915
6903 2301 1 0.4238 35.767612 2.80066 20.363291
6904 2302 1 0.4238 1.500231 22.546613 4.6857
6905 2302 2 -0.8476 2.471209 22.443467 4.901485
6906 2302 1 0.4238 2.651326 21.501717 5.185498
6907 2303 1 0.4238 34.122996 19.956835 16.581443
6908 2303 2 -0.8476 33.906326 18.997399 16.401061
6909 2303 1 0.4238 34.748279 18.498468 16.195679
6910 2304 1 0.4238 47.318025 34.775884 21.493331
6911 2304 2 -0.8476 47.762414 34.066713 20.945979
6912 2304 1 0.4238 47.294921 33.194191 21.087945
6913 2305 1 0.4238 34.894328 17.594664 28.745137
6914 2305 2 -0.8476 34.564485 18.367048 29.287933
6915 2305 1 0.4238 33.625516 18.584772 29.021598
6916 2306 1 0.4238 16.642235 42.932637 33.957688
6917 2306 2 -0.8476 15.678238 43.18416 33.87139
6918 2306 1 0.4238 15.150567 42.386635 33.578957
6919 2307 1 0.4238 13.636796 24.836741 44.318876
6920 2307 2 -0.8476 13.084656 24.073645 44.65477
6921 2307 1 0.4238 12.245366 24.426275 45.068585
6922 2308 1 0.4238 20.203742 6.426677 1.500228
6923 2308 2 -0.8476 20.57102 7.356788 1.500451
6924 2308 1 0.4238 21.570361 7.320531 1.502178
6925 2309 1 0.4238 13.796518 41.204341 21.535581
6926 2309 2 -0.8476 14.631937 41.492904 22.003349
6927 2309 1 0.4238 15.409544 40.975259 21.64646
6928 2310 1 0.4238 43.110557 27.160045 33.170682
6929 2310 2 -0.8476 42.860947 28.110896 33.353924
6930 2310 1 0.4238 42.832007 28.263465 34.341793
6931 2311 1 0.4238 1.500681 2.077409 4.573661
6932 2311 2 -0.8476 1.988317 1.500043 5.228535
6933 2311 1 0.4238 2.961522 1.729597 5.215219
6934 2312 1 0.4238 38.700612 31.162945 9.822331
6935 2312 2 -0.8476 37.990538 30.501778 10.064516
6936 2312 1 0.4238 37.426598 30.873436 10.801972
6937 2313 1 0.4238 27.829352 11.980522 1.50052
6938 2313 2 -0.8476 26.882212 11.659703 1.501005
6939 2313 1 0.4238 26.868988 10.659807 1.5068
6940 2314 1 0.4238 16.738012 15.631593 3.159733
6941 2314 2 -0.8476 16.268637 15.419638 2.30255
6942 2314 1 0.4238 16.845022 15.689737 1.5313
6943 2315 1 0.4238 42.619089 36.293049 4.167093
6944 2315 2 -0.8476 41.860815 35.641804 4.197111
6945 2315 1 0.4238 41.049323 36.092023 4.569647
6946 2316 1 0.4238 23.546012 39.032307 8.571399
6947 2316 2 -0.8476 23.114314 39.756897 9.10862
6948 2316 1 0.4238 23.811586 40.404505 9.415894
6949 2317 1 0.4238 43.594104 17.102365 42.479021
6950 2317 2 -0.8476 42.830335 17.253181 43.106644
6951 2317 1 0.4238 42.932868 18.144481 43.548313
6952 2318 1 0.4238 35.552554 33.064669 16.818602
6953 2318 2 -0.8476 34.861696 33.719158 17.125782
6954 2318 1 0.4238 33.999632 33.240416 17.292069
6955 2319 1 0.4238 47.761197 9.045706 42.570223
6956 2319 2 -0.8476 47.36804 9.949076 42.398907
6957 2319 1 0.4238 47.762027 10.610532 43.037068
6958 2320 1 0.4238 37.177083 31.705731 3.098389
6959 2320 2 -0.8476 36.693324 31.344003 2.301439
6960 2320 1 0.4238 36.905785 31.903487 1.500292
6961 2321 1 0.4238 14.458873 17.423751 29.216617
6962 2321 2 -0.8476 15.385477 17.772062 29.0749
6963 2321 1 0.4238 15.341095 18.724821 28.774433
6964 2322 1 0.4238 44.978421 42.623415 47.74334
6965 2322 2 -0.8476 45.746876 41.983804 47.762694
6966 2322 1 0.4238 45.400408 41.045902 47.745401
6967 2323 1 0.4238 47.762608 18.665061 33.485585
6968 2323 2 -0.8476 47.18648 19.397926 33.123666
6969 2323 1 0.4238 47.761894 20.165083 32.84017
6970 2324 1 0.4238 2.607132 9.075209 13.299395
6971 2324 2 -0.8476 1.649239 9.080652 13.01232
6972 2324 1 0.4238 1.501133 8.363012 12.331838
6973 2325 1 0.4238 45.784069 31.485277 19.592654
6974 2325 2 -0.8476 45.419976 31.607267 18.669315
6975 2325 1 0.4238 44.50197 32.000285 18.722243
6976 2326 1 0.4238 6.049368 36.944614 24.514344
6977 2326 2 -0.8476 5.681458 37.859133 24.682558
6978 2326 1 0.4238 6.435422 38.507574 24.787736
6979 2327 1 0.4238 22.590041 14.787213 41.55753
6980 2327 2 -0.8476 22.778032 14.283084 42.400449
6981 2327 1 0.4238 22.540194 14.850884 43.188507
6982 2328 1 0.4238 21.890592 38.965339 16.933887
6983 2328 2 -0.8476 22.876873 38.836275 17.036807
6984 2328 1 0.4238 23.115076 38.848448 18.007946
6985 2329 1 0.4238 7.00723 20.360623 20.322286
6986 2329 2 -0.8476 6.551293 19.667294 20.880332
6987 2329 1 0.4238 6.890972 19.719051 21.819448
6988 2330 1 0.4238 32.647512 5.809725 47.762029
6989 2330 2 -0.8476 33.591056 6.140928 47.756781
6990 2330 1 0.4238 33.593257 7.140884 47.747643
6991 2331 1 0.4238 35.111331 47.760708 27.479251
6992 2331 2 -0.8476 35.578896 47.746127 28.363089
6993 2331 1 0.4238 34.933614 47.474449 29.077093
6994 2332 1 0.4238 43.08724 4.212112 35.963931
6995 2332 2 -0.8476 42.281623 3.78548 35.552877
6996 2332 1 0.4238 41.456155 4.138999 35.992907
6997 2333 1 0.4238 33.613416 22.228164 15.118276
6998 2333 2 -0.8476 33.32082 22.808757 15.878077
6999 2333 1 0.4238 33.78039 23.694775 15.816699
7000 2334 1 0.4238 29.435216 36.600754 35.634455
7001 2334 2 -0.8476 30.151127 37.250365 35.890341
7002 2334 1 0.4238 29.876139 37.740762 36.717319
7003 2335 1 0.4238 29.189907 47.681194 15.756361
7004 2335 2 -0.8476 28.827051 47.755517 16.685237
7005 2335 1 0.4238 27.827583 47.761401 16.653169
7006 2336 1 0.4238 42.501825 3.596051 8.330062
7007 2336 2 -0.8476 41.921319 4.270576 8.786164
7008 2336 1 0.4238 41.526215 3.866757 9.611284
7009 2337 1 0.4238 38.594981 35.36564 27.367447
7010 2337 2 -0.8476 38.848311 34.585696 26.795162
7011 2337 1 0.4238 39.114912 34.910707 25.887808
7012 2338 1 0.4238 31.882314 41.245294 17.505805
7013 2338 2 -0.8476 32.71366 41.207015 18.060241
7014 2338 1 0.4238 33.164166 40.324548 17.92498
7015 2339 1 0.4238 46.782861 45.311416 20.383562
7016 2339 2 -0.8476 47.734446 45.009015 20.438694
7017 2339 1 0.4238 47.762674 44.015199 20.546084
7018 2340 1 0.4238 24.438905 32.743909 12.555502
7019 2340 2 -0.8476 24.358685 32.41337 11.615125
7020 2340 1 0.4238 24.895125 31.576104 11.509213
7021 2341 1 0.4238 41.831124 19.878843 23.955293
7022 2341 2 -0.8476 41.987973 19.39451 23.094583
7023 2341 1 0.4238 41.260575 19.621552 22.447015
7024 2342 1 0.4238 45.694871 39.416825 16.805214
7025 2342 2 -0.8476 45.307284 38.812689 16.108941
7026 2342 1 0.4238 45.238528 37.884273 16.474065
7027 2343 1 0.4238 3.87329 7.968348 40.562722
7028 2343 2 -0.8476 4.085429 7.462268 41.398712
7029 2343 1 0.4238 4.555269 6.611519 41.163177
7030 2344 1 0.4238 42.045549 11.576705 10.06364
7031 2344 2 -0.8476 41.266382 10.958085 9.962601
7032 2344 1 0.4238 40.417947 11.487374 9.965866
7033 2345 1 0.4238 35.860903 26.628963 15.937965
7034 2345 2 -0.8476 36.343216 25.910913 15.436189
7035 2345 1 0.4238 35.701518 25.437187 14.833026
7036 2346 1 0.4238 4.021422 5.77235 7.109434
7037 2346 2 -0.8476 3.771927 6.731015 6.972632
7038 2346 1 0.4238 4.474656 7.183205 6.423362
7039 2347 1 0.4238 25.349798 39.516512 6.342523
7040 2347 2 -0.8476 26.312299 39.259045 6.25706
7041 2347 1 0.4238 26.526366 38.543864 6.92241
7042 2348 1 0.4238 39.549581 29.528118 17.778609
7043 2348 2 -0.8476 39.715894 28.763493 18.401256
7044 2348 1 0.4238 38.971057 28.100977 18.321937
7045 2349 1 0.4238 1.500824 35.959824 6.546099
7046 2349 2 -0.8476 1.501041 36.741458 5.922362
7047 2349 1 0.4238 1.500328 36.413918 4.977525
7048 2350 1 0.4238 14.410415 25.465917 17.551725
7049 2350 2 -0.8476 15.215237 25.526252 18.142168
7050 2350 1 0.4238 15.079465 24.953135 18.950315
7051 2351 1 0.4238 12.641902 8.954857 1.501167
7052 2351 2 -0.8476 13.536692 9.401344 1.500911
7053 2351 1 0.4238 14.255893 8.706542 1.500434
7054 2352 1 0.4238 8.29202 46.503345 24.597647
7055 2352 2 -0.8476 8.499884 47.177373 23.888789
7056 2352 1 0.4238 7.70257 47.762635 23.741282
7057 2353 1 0.4238 41.115279 13.731672 46.682125
7058 2353 2 -0.8476 41.899884 13.127847 46.541443
7059 2353 1 0.4238 41.721355 12.525049 45.763779
7060 2354 1 0.4238 10.778711 15.28786 16.40356
7061 2354 2 -0.8476 11.084321 16.049046 15.831547
7062 2354 1 0.4238 10.312744 16.396069 15.298402
7063 2355 1 0.4238 29.886502 20.976482 3.413925
7064 2355 2 -0.8476 29.972152 20.072208 2.995652
7065 2355 1 0.4238 30.860831 19.67882 3.231222
7066 2356 1 0.4238 45.003869 44.120192 3.951671
7067 2356 2 -0.8476 44.120597 44.580013 4.043295
7068 2356 1 0.4238 43.389655 43.897748 4.058719
7069 2357 1 0.4238 25.6254 43.913434 24.87737
7070 2357 2 -0.8476 24.825805 43.669322 25.426057
7071 2357 1 0.4238 24.968834 42.77149 25.842518
7072 2358 1 0.4238 32.383644 39.561105 15.390956
7073 2358 2 -0.8476 32.969717 38.761813 15.258096
7074 2358 1 0.4238 33.043608 38.256108 16.117632
7075 2359 1 0.4238 27.839722 36.280342 41.505326
7076 2359 2 -0.8476 27.191355 36.280527 42.266655
7077 2359 1 0.4238 27.687471 36.163529 43.126992
7078 2360 1 0.4238 41.459071 23.611519 15.635401
7079 2360 2 -0.8476 40.903248 22.780277 15.645342
7080 2360 1 0.4238 41.085279 22.247692 14.818772
7081 2361 1 0.4238 32.753453 20.9311 6.131672
7082 2361 2 -0.8476 32.193324 20.350815 5.540465
7083 2361 1 0.4238 32.711181 19.533313 5.288446
7084 2362 1 0.4238 2.229033 17.691186 20.10879
7085 2362 2 -0.8476 1.500241 18.239096 19.698111
7086 2362 1 0.4238 1.501519 18.10624 18.706977
7087 2363 1 0.4238 15.421848 32.547781 28.235917
7088 2363 2 -0.8476 14.973794 31.671351 28.059513
7089 2363 1 0.4238 15.393871 30.962293 28.625879
7090 2364 1 0.4238 25.429151 45.789712 30.140285
7091 2364 2 -0.8476 25.834217 45.283381 30.901566
7092 2364 1 0.4238 25.198429 45.276935 31.673403
7093 2365 1 0.4238 41.364678 13.520012 1.504125
7094 2365 2 -0.8476 40.427261 13.868123 1.5124
7095 2365 1 0.4238 40.442864 14.867925 1.500079
7096 2366 1 0.4238 13.416833 42.996393 35.623073
7097 2366 2 -0.8476 13.290468 42.005129 35.660859
7098 2366 1 0.4238 12.368751 41.798899 35.989351
7099 2367 1 0.4238 2.427208 28.290969 27.425994
7100 2367 2 -0.8476 1.500496 28.612858 27.619882
7101 2367 1 0.4238 1.502139 29.610335 27.690841
7102 2368 1 0.4238 18.629138 35.72737 20.78682
7103 2368 2 -0.8476 18.85218 36.041153 21.709746
7104 2368 1 0.4238 18.07246 36.53838 22.090277
7105 2369 1 0.4238 5.064696 19.783117 42.699168
7106 2369 2 -0.8476 4.081458 19.673905 42.845166
7107 2369 1 0.4238 3.866153 18.703226 42.952064
7108 2370 1 0.4238 37.197568 4.063833 16.997436
7109 2370 2 -0.8476 36.364011 4.296823 16.496538
7110 2370 1 0.4238 36.006682 5.168741 16.831316
7111 2371 1 0.4238 11.698105 5.191343 26.051097
7112 2371 2 -0.8476 12.2224 6.042536 26.075297
7113 2371 1 0.4238 11.895733 6.655777 25.356114
7114 2372 1 0.4238 43.012476 20.504474 39.953271
7115 2372 2 -0.8476 43.971757 20.417888 40.222127
7116 2372 1 0.4238 44.13856 19.495131 40.569541
7117 2373 1 0.4238 1.501124 36.961177 37.568575
7118 2373 2 -0.8476 1.981446 36.771539 38.424921
7119 2373 1 0.4238 1.50191 36.049174 38.923151
7120 2374 1 0.4238 43.37428 40.368911 39.784596
7121 2374 2 -0.8476 44.145952 41.004749 39.769332
7122 2374 1 0.4238 43.803878 41.944363 39.779882
7123 2375 1 0.4238 23.68946 17.211801 40.868249
7124 2375 2 -0.8476 23.77776 18.154778 40.547318
7125 2375 1 0.4238 24.350886 18.671141 41.183633
7126 2376 1 0.4238 37.094174 26.751861 31.745024
7127 2376 2 -0.8476 36.803657 25.806358 31.892078
7128 2376 1 0.4238 37.535978 25.299556 32.346892
7129 2377 1 0.4238 43.466999 37.518436 21.304672
7130 2377 2 -0.8476 42.524012 37.803576 21.133005
7131 2377 1 0.4238 41.973152 37.004914 20.89074
7132 2378 1 0.4238 21.540327 9.340933 27.285861
7133 2378 2 -0.8476 20.573729 9.593414 27.241781
7134 2378 1 0.4238 20.015448 8.765886 27.182458
7135 2379 1 0.4238 25.262054 4.099744 31.947751
7136 2379 2 -0.8476 24.423646 4.613476 32.129826
7137 2379 1 0.4238 24.655215 5.558771 32.35959
7138 2380 1 0.4238 42.398888 37.848511 38.372968
7139 2380 2 -0.8476 43.095012 37.336639 38.876354
7140 2380 1 0.4238 43.956364 37.844491 38.863761
7141 2381 1 0.4238 17.812679 1.500689 38.993752
7142 2381 2 -0.8476 17.260666 2.051185 38.367464
7143 2381 1 0.4238 16.500134 1.501271 38.022232
7144 2382 1 0.4238 44.073447 24.090127 47.760682
7145 2382 2 -0.8476 44.75094 23.354598 47.76093
7146 2382 1 0.4238 44.283289 22.470686 47.762534
7147 2383 1 0.4238 29.022692 18.365655 15.286385
7148 2383 2 -0.8476 28.025511 18.294641 15.310617
7149 2383 1 0.4238 27.697222 17.915627 14.445415
7150 2384 1 0.4238 29.340295 21.506385 8.507558
7151 2384 2 -0.8476 29.778132 22.244669 7.994493
7152 2384 1 0.4238 30.597712 21.894778 7.54077
7153 2385 1 0.4238 38.648271 21.171686 15.543784
7154 2385 2 -0.8476 38.699028 20.64726 14.693842
7155 2385 1 0.4238 39.476357 20.01954 14.735416
7156 2386 1 0.4238 40.160292 46.945176 37.963016
7157 2386 2 -0.8476 40.736215 47.76264 37.954974
7158 2386 1 0.4238 41.698855 47.492336 37.971085
7159 2387 1 0.4238 27.774364 14.775819 47.335114
7160 2387 2 -0.8476 27.432238 14.646752 46.404366
7161 2387 1 0.4238 27.992947 13.964822 45.93471
7162 2388 1 0.4238 7.256255 34.183307 37.685796
7163 2388 2 -0.8476 7.148688 33.18911 37.687396
7164 2388 1 0.4238 8.049951 32.756375 37.708992
7165 2389 1 0.4238 4.909761 21.681823 11.171088
7166 2389 2 -0.8476 4.354608 21.852337 10.357006
7167 2389 1 0.4238 3.867284 21.016333 10.10479
7168 2390 1 0.4238 15.92112 31.420773 47.762608
7169 2390 2 -0.8476 16.150072 31.037543 46.867781
7170 2390 1 0.4238 16.502575 31.761884 46.275268
7171 2391 1 0.4238 9.51681 21.589644 12.501691
7172 2391 2 -0.8476 10.251885 20.917647 12.411774
7173 2391 1 0.4238 9.935271 20.149836 11.854799
7174 2392 1 0.4238 45.278526 38.916703 32.084259
7175 2392 2 -0.8476 44.885652 38.76812 31.17675
7176 2392 1 0.4238 45.072999 39.562082 30.598369
7177 2393 1 0.4238 14.26377 28.098305 18.338667
7178 2393 2 -0.8476 15.112636 28.178595 18.861143
7179 2393 1 0.4238 14.89749 28.294649 19.830804
7180 2394 1 0.4238 3.728696 45.368175 32.130919
7181 2394 2 -0.8476 4.726998 45.375253 32.073102
7182 2394 1 0.4238 5.113646 45.086077 32.948819
7183 2395 1 0.4238 34.675125 47.753508 17.533027
7184 2395 2 -0.8476 35.649417 47.762643 17.307925
7185 2395 1 0.4238 36.009251 46.830438 17.346817
7186 2396 1 0.4238 8.327981 1.502056 10.887108
7187 2396 2 -0.8476 9.094888 2.076603 11.173027
7188 2396 1 0.4238 9.894914 1.502364 11.34683
7189 2397 1 0.4238 26.348781 29.29316 17.224241
7190 2397 2 -0.8476 26.415908 28.314191 17.416891
7191 2397 1 0.4238 27.343748 27.99831 17.218564
7192 2398 1 0.4238 47.762722 17.511641 9.826189
7193 2398 2 -0.8476 47.463175 16.745159 10.394324
7194 2398 1 0.4238 47.76271 16.892002 11.337041
7195 2399 1 0.4238 33.611484 30.401171 17.537302
7196 2399 2 -0.8476 34.010101 29.618438 18.01525
7197 2399 1 0.4238 33.517978 28.786159 17.760054
7198 2400 1 0.4238 5.252073 40.598617 12.41324
7199 2400 2 -0.8476 6.108664 40.229373 12.05281
7200 2400 1 0.4238 6.522243 39.623091 12.732055
7201 2401 1 0.4238 36.161351 27.722274 39.577492
7202 2401 2 -0.8476 35.592075 26.900291 39.593885
7203 2401 1 0.4238 35.633154 26.44857 38.702672
7204 2402 1 0.4238 38.659954 20.139885 45.26844
7205 2402 2 -0.8476 39.609872 19.954502 45.016868
7206 2402 1 0.4238 39.642534 19.178248 44.387295
7207 2403 1 0.4238 31.688165 6.158147 11.927751
7208 2403 2 -0.8476 31.338041 6.235092 10.994213
7209 2403 1 0.4238 32.076987 6.054386 10.345134
7210 2404 1 0.4238 31.665658 47.762748 14.562165
7211 2404 2 -0.8476 31.821318 46.785976 14.709432
7212 2404 1 0.4238 31.723958 46.575892 15.682255
7213 2405 1 0.4238 5.187729 40.185363 3.746438
7214 2405 2 -0.8476 5.479551 41.125922 3.920187
7215 2405 1 0.4238 4.684969 41.732344 3.890333
7216 2406 1 0.4238 14.005146 26.697024 28.690587
7217 2406 2 -0.8476 13.949457 27.684007 28.539712
7218 2406 1 0.4238 14.681266 28.140378 29.045856
7219 2407 1 0.4238 20.433502 17.242486 6.166937
7220 2407 2 -0.8476 19.89683 16.403072 6.081112
7221 2407 1 0.4238 20.084283 15.80637 6.861373
7222 2408 1 0.4238 29.86857 45.424458 28.494769
7223 2408 2 -0.8476 30.168481 45.475862 27.542188
7224 2408 1 0.4238 31.156418 45.32826 27.49536
7225 2409 1 0.4238 19.372605 14.239511 29.679734
7226 2409 2 -0.8476 19.106483 13.333481 29.35066
7227 2409 1 0.4238 18.122772 13.207843 29.47922
7228 2410 1 0.4238 24.378411 45.16554 5.573642
7229 2410 2 -0.8476 23.569375 44.765357 5.14316
7230 2410 1 0.4238 22.797149 45.393903 5.235874
7231 2411 1 0.4238 10.227219 9.327756 42.668269
7232 2411 2 -0.8476 10.223924 9.624032 43.623366
7233 2411 1 0.4238 11.048297 9.288529 44.079268
7234 2412 1 0.4238 20.897373 10.493089 30.945284
7235 2412 2 -0.8476 20.777972 10.608877 29.959213
7236 2412 1 0.4238 20.84884 11.578839 29.726507
7237 2413 1 0.4238 29.412402 21.56003 27.757875
7238 2413 2 -0.8476 29.27764 20.859352 27.05724
7239 2413 1 0.4238 30.080558 20.264295 27.02217
7240 2414 1 0.4238 21.870411 19.411309 25.344653
7241 2414 2 -0.8476 21.704404 18.479109 25.666281
7242 2414 1 0.4238 21.65048 17.860668 24.882302
7243 2415 1 0.4238 22.828918 37.837075 45.122323
7244 2415 2 -0.8476 22.173257 38.590286 45.069584
7245 2415 1 0.4238 22.665661 39.460562 45.057022
7246 2416 1 0.4238 19.653072 32.821975 30.365013
7247 2416 2 -0.8476 19.99533 31.89256 30.503026
7248 2416 1 0.4238 20.994687 31.906829 30.535895
7249 2417 1 0.4238 20.722169 6.714871 40.021023
7250 2417 2 -0.8476 20.266243 7.544287 40.343823
7251 2417 1 0.4238 19.409281 7.669641 39.84392
7252 2418 1 0.4238 44.5393 30.350879 14.461207
7253 2418 2 -0.8476 45.085499 30.346494 13.623563
7254 2418 1 0.4238 45.129764 31.272904 13.249659
7255 2419 1 0.4238 36.531038 18.562309 1.511934
7256 2419 2 -0.8476 35.546839 18.739371 1.510684
7257 2419 1 0.4238 35.385733 19.72626 1.500977
7258 2420 1 0.4238 30.081712 42.750141 27.190222
7259 2420 2 -0.8476 30.603787 42.691415 28.041098
7260 2420 1 0.4238 31.579459 42.631964 27.830078
7261 2421 1 0.4238 45.694943 5.607751 12.156362
7262 2421 2 -0.8476 45.430005 5.391949 13.096169
7263 2421 1 0.4238 44.864079 4.567513 13.101982
7264 2422 1 0.4238 5.782348 28.302736 21.6345
7265 2422 2 -0.8476 4.971173 28.603194 22.136218
7266 2422 1 0.4238 4.822162 28.000804 22.920387
7267 2423 1 0.4238 44.294631 20.775054 13.93723
7268 2423 2 -0.8476 43.873666 19.869378 13.98762
7269 2423 1 0.4238 42.884979 19.967226 14.101302
7270 2424 1 0.4238 46.599992 17.009486 7.374565
7271 2424 2 -0.8476 46.027287 17.660916 6.876923
7272 2424 1 0.4238 45.314507 17.166156 6.379775
7273 2425 1 0.4238 47.762235 36.558659 28.15111
7274 2425 2 -0.8476 47.190382 35.806759 27.82304
7275 2425 1 0.4238 47.760967 35.136658 27.348279
7276 2426 1 0.4238 27.196652 33.807537 23.810779
7277 2426 2 -0.8476 27.620453 32.918499 23.983997
7278 2426 1 0.4238 27.167761 32.219842 23.429969
7279 2427 1 0.4238 1.504702 15.344092 2.271965
7280 2427 2 -0.8476 1.500009 15.921282 3.088562
7281 2427 1 0.4238 1.501971 15.343773 3.904943
7282 2428 1 0.4238 25.777909 22.230301 44.309806
7283 2428 2 -0.8476 24.981204 22.263413 43.706345
7284 2428 1 0.4238 24.183307 22.571715 44.224331
7285 2429 1 0.4238 33.288227 40.023203 12.835786
7286 2429 2 -0.8476 33.490212 39.121429 12.453681
7287 2429 1 0.4238 32.656233 38.729663 12.065095
7288 2430 1 0.4238 13.480013 9.755679 45.274391
7289 2430 2 -0.8476 13.849891 8.833877 45.158322
7290 2430 1 0.4238 14.833453 8.844248 45.338593
7291 2431 1 0.4238 15.813513 46.520204 15.067471
7292 2431 2 -0.8476 16.149504 47.462051 15.061559
7293 2431 1 0.4238 17.063558 47.487327 14.656756
7294 2432 1 0.4238 26.548026 37.500024 22.743254
7295 2432 2 -0.8476 26.654745 36.585938 22.352028
7296 2432 1 0.4238 25.834579 36.045358 22.539381
7297 2433 1 0.4238 38.618818 20.337962 1.500195
7298 2433 2 -0.8476 39.459795 20.878096 1.532017
7299 2433 1 0.4238 40.105601 20.452346 2.165792
7300 2434 1 0.4238 41.489942 41.203997 46.593107
7301 2434 2 -0.8476 41.469031 41.492669 47.550306
7302 2434 1 0.4238 42.301927 42.00377 47.762581
7303 2435 1 0.4238 26.303408 20.963393 10.237919
7304 2435 2 -0.8476 27.284689 21.11886 10.351571
7305 2435 1 0.4238 27.43855 22.050024 10.682116
7306 2436 1 0.4238 25.838164 20.434554 20.802745
7307 2436 2 -0.8476 25.806393 20.418093 19.803386
7308 2436 1 0.4238 26.58981 19.904503 19.453412
7309 2437 1 0.4238 47.761548 26.034472 37.383684
7310 2437 2 -0.8476 47.475148 25.72169 36.478067
7311 2437 1 0.4238 47.761495 26.387821 35.789391
7312 2438 1 0.4238 17.92369 43.924889 1.501453
7313 2438 2 -0.8476 18.126603 44.904086 1.500849
7314 2438 1 0.4238 19.117439 45.039155 1.500805
7315 2439 1 0.4238 21.578542 28.406345 4.017828
7316 2439 2 -0.8476 22.049947 27.661975 3.544869
7317 2439 1 0.4238 21.380106 26.988137 3.233013
7318 2440 1 0.4238 12.505538 27.409772 25.122147
7319 2440 2 -0.8476 12.779898 27.247371 26.069962
7320 2440 1 0.4238 12.851629 26.263236 26.232238
7321 2441 1 0.4238 29.095952 46.828024 7.884024
7322 2441 2 -0.8476 28.929637 47.762706 8.198204
7323 2441 1 0.4238 28.207612 47.758281 8.890056
7324 2442 1 0.4238 12.544262 1.500251 15.532522
7325 2442 2 -0.8476 12.193064 2.063948 14.784922
7326 2442 1 0.4238 11.633717 1.50046 14.176966
7327 2443 1 0.4238 7.526488 27.391561 23.561774
7328 2443 2 -0.8476 7.387453 26.755632 24.320894
7329 2443 1 0.4238 6.531095 26.257277 24.185647
7330 2444 1 0.4238 10.485199 31.790523 18.886204
7331 2444 2 -0.8476 10.02156 32.545325 18.422187
7332 2444 1 0.4238 9.877615 33.295352 19.06774
7333 2445 1 0.4238 47.761504 19.71465 7.404577
7334 2445 2 -0.8476 47.184361 20.531246 7.413375
7335 2445 1 0.4238 47.759988 21.345437 7.489172
7336 2446 1 0.4238 23.024747 45.173966 7.96731
7337 2446 2 -0.8476 23.830469 45.060103 8.548556
7338 2446 1 0.4238 23.56078 45.127851 9.509117
7339 2447 1 0.4238 45.174022 46.761324 16.704041
7340 2447 2 -0.8476 44.892994 47.709078 16.85499
7341 2447 1 0.4238 43.894513 47.762648 16.86784
7342 2448 1 0.4238 39.199841 34.008744 14.793085
7343 2448 2 -0.8476 40.072162 34.213966 14.349306
7344 2448 1 0.4238 39.981671 34.086826 13.361558
7345 2449 1 0.4238 13.738245 15.538631 15.325816
7346 2449 2 -0.8476 14.156872 16.435224 15.181343
7347 2449 1 0.4238 13.45395 17.090674 14.905144
7348 2450 1 0.4238 19.576404 41.769483 28.498098
7349 2450 2 -0.8476 19.910442 40.939433 28.94468
7350 2450 1 0.4238 20.880617 41.045557 29.162616
7351 2451 1 0.4238 37.674025 46.817853 42.414682
7352 2451 2 -0.8476 38.00948 47.759896 42.419774
7353 2451 1 0.4238 39.000034 47.761726 42.282664
7354 2452 1 0.4238 4.662367 1.505436 8.255112
7355 2452 2 -0.8476 4.484163 1.502341 9.239101
7356 2452 1 0.4238 5.352477 1.505666 9.735103
7357 2453 1 0.4238 32.041115 16.028487 45.465679
7358 2453 2 -0.8476 31.171146 16.509598 45.357576
7359 2453 1 0.4238 30.441118 15.845796 45.195016
7360 2454 1 0.4238 1.500588 36.451354 45.087743
7361 2454 2 -0.8476 2.078745 35.64997 45.241101
7362 2454 1 0.4238 1.502909 34.855677 45.434778
7363 2455 1 0.4238 13.964984 31.126377 14.48013
7364 2455 2 -0.8476 14.937266 31.278756 14.657464
7365 2455 1 0.4238 15.455015 30.463143 14.399176
7366 2456 1 0.4238 3.196927 20.291669 19.048441
7367 2456 2 -0.8476 3.825923 19.542804 18.839716
7368 2456 1 0.4238 4.761784 19.893457 18.804973
7369 2457 1 0.4238 9.836766 23.378405 14.565295
7370 2457 2 -0.8476 8.838998 23.329597 14.519711
7371 2457 1 0.4238 8.443465 23.999374 15.148162
7372 2458 1 0.4238 20.46096 16.561976 22.770882
7373 2458 2 -0.8476 21.293817 16.010623 22.819437
7374 2458 1 0.4238 22.03261 16.47945 22.335303
7375 2459 1 0.4238 27.347431 13.575283 33.271961
7376 2459 2 -0.8476 26.737213 14.235868 32.834625
7377 2459 1 0.4238 26.6872 14.045188 31.854248
7378 2460 1 0.4238 42.434549 24.983555 45.413337
7379 2460 2 -0.8476 43.035227 25.772216 45.544481
7380 2460 1 0.4238 42.541604 26.488889 46.037142
7381 2461 1 0.4238 26.938061 25.646327 11.54845
7382 2461 2 -0.8476 26.089105 25.922236 11.999168
7383 2461 1 0.4238 26.277298 26.147879 12.955028
7384 2462 1 0.4238 6.002194 1.545089 12.546468
7385 2462 2 -0.8476 5.057959 1.527782 12.217652
7386 2462 1 0.4238 4.433607 1.500442 12.998316
7387 2463 1 0.4238 3.782483 31.789272 26.440241
7388 2463 2 -0.8476 3.743481 31.039477 27.10076
7389 2463 1 0.4238 4.082613 31.357298 27.986186
7390 2464 1 0.4238 38.188818 5.394357 29.970947
7391 2464 2 -0.8476 38.033416 4.537428 29.479496
7392 2464 1 0.4238 37.662356 3.854744 30.108985
7393 2465 1 0.4238 46.858695 34.534375 36.804957
7394 2465 2 -0.8476 47.762775 34.900636 37.025167
7395 2465 1 0.4238 47.760378 35.892609 36.898735
7396 2466 1 0.4238 44.803631 34.487883 26.595062
7397 2466 2 -0.8476 43.837441 34.499501 26.852634
7398 2466 1 0.4238 43.613191 35.382168 27.265683
7399 2467 1 0.4238 15.507322 26.997299 26.311754
7400 2467 2 -0.8476 16.224368 27.35726 26.90864
7401 2467 1 0.4238 16.508131 26.647969 27.553919
7402 2468 1 0.4238 13.588301 23.384488 3.996277
7403 2468 2 -0.8476 14.376468 22.965672 3.545293
7404 2468 1 0.4238 14.477709 22.021797 3.859698
7405 2469 1 0.4238 5.441533 47.729074 12.36743
7406 2469 2 -0.8476 6.117056 47.168585 12.846512
7407 2469 1 0.4238 6.775334 47.762565 13.308959
7408 2470 1 0.4238 44.115421 40.843539 23.327305
7409 2470 2 -0.8476 44.867886 40.57918 22.724055
7410 2470 1 0.4238 44.520443 39.985285 21.998402
7411 2471 1 0.4238 25.096931 27.17265 35.283699
7412 2471 2 -0.8476 25.273507 27.430145 34.33369
7413 2471 1 0.4238 24.42421 27.37139 33.809055
7414 2472 1 0.4238 3.281696 3.161841 26.380689
7415 2472 2 -0.8476 4.067889 2.956873 25.797689
7416 2472 1 0.4238 4.904085 3.282143 26.239247
7417 2473 1 0.4238 23.660043 47.759761 34.872357
7418 2473 2 -0.8476 24.366903 47.702654 34.167313
7419 2473 1 0.4238 25.269309 47.754021 34.595128
7420 2474 1 0.4238 36.499421 30.730544 21.788929
7421 2474 2 -0.8476 35.953162 31.512782 22.088436
7422 2474 1 0.4238 36.53629 32.156206 22.584388
7423 2475 1 0.4238 11.375297 8.450177 37.532789
7424 2475 2 -0.8476 10.521533 7.969499 37.732876
7425 2475 1 0.4238 9.833365 8.626513 38.040701
7426 2476 1 0.4238 15.052909 32.57573 25.164789
7427 2476 2 -0.8476 14.142304 32.418524 25.546999
7428 2476 1 0.4238 13.857038 33.221814 26.069827
7429 2477 1 0.4238 29.837513 36.581192 1.501649
7430 2477 2 -0.8476 29.150545 37.307862 1.506824
7431 2477 1 0.4238 29.606702 38.197742 1.512578
7432 2478 1 0.4238 14.961784 10.321568 20.641288
7433 2478 2 -0.8476 15.460143 9.898535 19.884531
7434 2478 1 0.4238 14.974293 10.071061 19.027685
7435 2479 1 0.4238 21.035657 39.236872 38.281306
7436 2479 2 -0.8476 20.478544 39.278264 39.11071
7437 2479 1 0.4238 20.80178 40.024654 39.69245
7438 2480 1 0.4238 35.436191 17.437696 13.362646
7439 2480 2 -0.8476 35.116852 16.800667 14.064228
7440 2480 1 0.4238 35.817175 16.105651 14.227015
7441 2481 1 0.4238 21.839065 18.586367 4.222991
7442 2481 2 -0.8476 22.641513 18.046029 4.476196
7443 2481 1 0.4238 22.960237 17.529945 3.681167
7444 2482 1 0.4238 26.226479 1.50059 3.83619
7445 2482 2 -0.8476 26.845216 1.579774 4.617788
7446 2482 1 0.4238 27.781879 1.703651 4.290197
7447 2483 1 0.4238 15.374326 2.303388 29.074259
7448 2483 2 -0.8476 15.969317 1.500215 29.104254
7449 2483 1 0.4238 16.918192 1.79259 29.223225
7450 2484 1 0.4238 30.938714 1.504935 16.663745
7451 2484 2 -0.8476 31.052049 1.500044 15.6702
7452 2484 1 0.4238 32.026534 1.506653 15.44585
7453 2485 1 0.4238 12.190346 18.526158 40.657058
7454 2485 2 -0.8476 11.790523 19.410386 40.898478
7455 2485 1 0.4238 12.37172 20.145458 40.549367
7456 2486 1 0.4238 6.454988 30.532072 37.444562
7457 2486 2 -0.8476 5.799972 29.806006 37.653805
7458 2486 1 0.4238 5.243784 29.615572 36.844862
7459 2487 1 0.4238 36.168643 47.762772 44.503316
7460 2487 2 -0.8476 36.292341 47.316558 45.389652
7461 2487 1 0.4238 36.638646 46.388839 45.25033
7462 2488 1 0.4238 4.60608 12.397714 4.919353
7463 2488 2 -0.8476 3.716811 12.083039 5.251287
7464 2488 1 0.4238 3.201998 11.680329 4.494457
7465 2489 1 0.4238 32.71759 23.453891 30.292244
7466 2489 2 -0.8476 32.739212 24.126477 31.031947
7467 2489 1 0.4238 32.906568 23.660904 31.900989
7468 2490 1 0.4238 5.658382 5.178761 43.340281
7469 2490 2 -0.8476 5.102029 5.032014 44.158166
7470 2490 1 0.4238 5.520251 5.503221 44.934731
7471 2491 1 0.4238 38.692852 14.727833 20.754628
7472 2491 2 -0.8476 38.882493 13.83876 20.337991
7473 2491 1 0.4238 39.624018 13.388808 20.835669
7474 2492 1 0.4238 1.501057 4.150119 23.917283
7475 2492 2 -0.8476 2.030036 4.743095 24.524375
7476 2492 1 0.4238 1.500675 4.930225 25.351877
7477 2493 1 0.4238 37.124033 27.548645 8.154347
7478 2493 2 -0.8476 37.824771 26.855199 8.321977
7479 2493 1 0.4238 37.603982 26.026933 7.806976
7480 2494 1 0.4238 26.876229 32.052439 32.269287
7481 2494 2 -0.8476 27.542407 32.69797 32.642779
7482 2494 1 0.4238 27.210519 33.632237 32.51242
7483 2495 1 0.4238 1.526265 12.784604 17.096779
7484 2495 2 -0.8476 1.50003 12.701173 18.092947
7485 2495 1 0.4238 1.504168 11.733897 18.34664
7486 2496 1 0.4238 25.987983 20.336048 36.668763
7487 2496 2 -0.8476 26.914945 19.970962 36.58243
7488 2496 1 0.4238 26.883351 18.971783 36.607755
7489 2497 1 0.4238 35.310753 26.10839 28.874751
7490 2497 2 -0.8476 36.158558 26.550806 29.167148
7491 2497 1 0.4238 36.922708 25.916195 29.051636
7492 2498 1 0.4238 16.953163 24.770736 25.595214
7493 2498 2 -0.8476 17.045872 24.695875 24.602339
7494 2498 1 0.4238 16.203056 25.008653 24.164354
7495 2499 1 0.4238 33.039871 22.313924 22.44137
7496 2499 2 -0.8476 34.016768 22.212697 22.253153
7497 2499 1 0.4238 34.467971 23.100191 22.346808
7498 2500 1 0.4238 5.509499 8.768889 1.502162
7499 2500 2 -0.8476 6.342208 8.941288 2.028351
7500 2500 1 0.4238 6.953148 9.532108 1.501394
7501 2501 1 0.4238 5.12139 28.120916 31.314246
7502 2501 2 -0.8476 5.78976 27.404088 31.512836
7503 2501 1 0.4238 5.441729 26.52464 31.188112
7504 2502 1 0.4238 34.118477 4.469964 26.452078
7505 2502 2 -0.8476 34.580926 5.195579 25.942545
7506 2502 1 0.4238 34.988248 4.813002 25.113254
7507 2503 1 0.4238 40.81382 27.1801 20.498772
7508 2503 2 -0.8476 39.942222 27.398947 20.937433
7509 2503 1 0.4238 40.064627 28.178658 21.551491
7510 2504 1 0.4238 43.67278 14.554021 18.653793
7511 2504 2 -0.8476 44.143944 13.855366 18.115381
7512 2504 1 0.4238 45.132393 13.986956 18.190552
7513 2505 1 0.4238 18.219817 27.730182 29.41339
7514 2505 2 -0.8476 18.213914 28.724763 29.309598
7515 2505 1 0.4238 17.270001 29.046578 29.235688
7516 2506 1 0.4238 28.475602 18.08809 27.783846
7517 2506 2 -0.8476 27.818676 18.532087 27.17449
7518 2506 1 0.4238 27.072579 17.898393 26.970109
7519 2507 1 0.4238 43.997862 29.540632 1.500041
7520 2507 2 -0.8476 44.980994 29.357749 1.502603
7521 2507 1 0.4238 45.481041 30.22357 1.520143
7522 2508 1 0.4238 26.01888 4.049142 18.603295
7523 2508 2 -0.8476 26.779417 3.974467 17.95831
7524 2508 1 0.4238 26.420875 3.848147 17.033382
7525 2509 1 0.4238 39.52474 23.865534 42.442804
7526 2509 2 -0.8476 38.884648 24.402859 42.991953
7527 2509 1 0.4238 38.008885 23.923308 43.047346
7528 2510 1 0.4238 3.412871 36.564194 8.423975
7529 2510 2 -0.8476 3.958767 37.390305 8.563754
7530 2510 1 0.4238 4.114961 37.839413 7.684035
7531 2511 1 0.4238 21.38845 42.236335 23.000775
7532 2511 2 -0.8476 21.247668 41.44169 23.5913
7533 2511 1 0.4238 20.410623 41.56642 24.124026
7534 2512 1 0.4238 37.527626 34.371255 21.293368
7535 2512 2 -0.8476 37.220613 34.861086 22.109339
7536 2512 1 0.4238 37.508443 35.817064 22.052245
7537 2513 1 0.4238 3.648781 22.209356 13.654467
7538 2513 2 -0.8476 3.797324 23.009534 14.235544
7539 2513 1 0.4238 3.34036 22.872674 15.114436
7540 2514 1 0.4238 19.318108 41.430936 37.853276
7541 2514 2 -0.8476 19.534778 42.301424 38.295209
7542 2514 1 0.4238 18.802047 42.957841 38.115703
7543 2515 1 0.4238 45.56794 16.841348 19.194779
7544 2515 2 -0.8476 45.298104 17.33519 18.368154
7545 2515 1 0.4238 45.091274 16.680353 17.641236
7546 2516 1 0.4238 28.319415 25.29248 30.672129
7547 2516 2 -0.8476 27.684596 24.581015 30.370762
7548 2516 1 0.4238 28.124716 23.686524 30.449366
7549 2517 1 0.4238 37.73147 37.484379 40.281132
7550 2517 2 -0.8476 36.976014 37.080113 39.765519
7551 2517 1 0.4238 36.975518 36.0888 39.897044
7552 2518 1 0.4238 11.821578 39.263994 4.805791
7553 2518 2 -0.8476 11.758471 40.200078 4.459723
7554 2518 1 0.4238 10.983235 40.271873 3.832145
7555 2519 1 0.4238 36.689982 27.998257 21.47485
7556 2519 2 -0.8476 37.353829 28.312886 20.796384
7557 2519 1 0.4238 36.870007 28.675968 20.000087
7558 2520 1 0.4238 10.047142 39.702919 35.731001
7559 2520 2 -0.8476 10.660825 39.586526 36.511927
7560 2520 1 0.4238 10.269566 38.920431 37.146934
7561 2521 1 0.4238 40.281143 16.892664 33.901383
7562 2521 2 -0.8476 41.127046 17.343771 34.1859
7563 2521 1 0.4238 41.68745 16.701778 34.709151
7564 2522 1 0.4238 26.201617 7.393556 5.349548
7565 2522 2 -0.8476 25.593471 6.998774 6.038247
7566 2522 1 0.4238 25.987512 6.146157 6.381431
7567 2523 1 0.4238 9.716572 6.136572 3.816894
7568 2523 2 -0.8476 8.93648 6.758741 3.882955
7569 2523 1 0.4238 8.409985 6.546911 4.70632
7570 2524 1 0.4238 13.802994 13.382729 41.702825
7571 2524 2 -0.8476 14.609432 13.110708 41.177791
7572 2524 1 0.4238 14.79379 12.13959 41.329258
7573 2525 1 0.4238 29.510359 47.147441 39.554944
7574 2525 2 -0.8476 29.605754 47.760969 38.771054
7575 2525 1 0.4238 28.756612 47.761447 38.242889
7576 2526 1 0.4238 24.497523 45.08105 12.339331
7577 2526 2 -0.8476 24.391596 44.092428 12.446136
7578 2526 1 0.4238 23.609921 43.780675 11.905956
7579 2527 1 0.4238 17.810701 45.413463 18.595604
7580 2527 2 -0.8476 18.136367 46.112595 17.959085
7581 2527 1 0.4238 17.422326 46.31057 17.287556
7582 2528 1 0.4238 26.730941 36.721736 35.150278
7583 2528 2 -0.8476 25.976527 37.376685 35.193906
7584 2528 1 0.4238 26.341389 38.296087 35.340789
7585 2529 1 0.4238 22.030109 35.461769 11.812847
7586 2529 2 -0.8476 22.534934 34.698505 12.21606
7587 2529 1 0.4238 21.891089 33.995297 12.517659
7588 2530 1 0.4238 28.105808 24.38829 23.10996
7589 2530 2 -0.8476 27.265182 24.274567 22.580418
7590 2530 1 0.4238 26.902974 23.353559 22.723765
7591 2531 1 0.4238 43.267796 1.504908 3.598425
7592 2531 2 -0.8476 42.348479 1.882556 3.487789
7593 2531 1 0.4238 41.74576 1.503682 4.190059
7594 2532 1 0.4238 47.757964 5.793684 29.874965
7595 2532 2 -0.8476 47.762675 5.5965 30.85532
7596 2532 1 0.4238 46.881035 5.206548 31.121116
7597 2533 1 0.4238 33.934879 45.067816 27.432662
7598 2533 2 -0.8476 34.523218 44.265809 27.535819
7599 2533 1 0.4238 34.161674 43.678084 28.259604
7600 2534 1 0.4238 32.612565 9.647711 26.325957
7601 2534 2 -0.8476 33.577493 9.395352 26.398272
7602 2534 1 0.4238 34.012316 9.942189 27.113742
7603 2535 1 0.4238 3.760595 6.744583 46.641246
7604 2535 2 -0.8476 3.509744 6.308239 47.505352
7605 2535 1 0.4238 4.215405 5.648018 47.762549
7606 2536 1 0.4238 2.565855 27.211344 13.885199
7607 2536 2 -0.8476 3.326874 26.931935 13.299724
7608 2536 1 0.4238 3.770696 26.126171 13.691854
7609 2537 1 0.4238 11.558733 12.6337 22.907881
7610 2537 2 -0.8476 11.896836 11.708583 23.080637
7611 2537 1 0.4238 11.175444 11.046637 22.877118
7612 2538 1 0.4238 14.632922 7.78628 13.402398
7613 2538 2 -0.8476 15.502914 7.297565 13.467755
7614 2538 1 0.4238 16.0498 7.479817 12.650627
7615 2539 1 0.4238 24.724027 37.10667 1.503276
7616 2539 2 -0.8476 25.590704 36.607805 1.501292
7617 2539 1 0.4238 25.409239 35.624408 1.500171
7618 2540 1 0.4238 43.877435 1.500447 35.774016
7619 2540 2 -0.8476 44.794141 1.517268 35.374806
7620 2540 1 0.4238 45.029475 2.45513 35.119791
7621 2541 1 0.4238 47.758216 40.959622 15.86277
7622 2541 2 -0.8476 47.762766 41.823383 16.366652
7623 2541 1 0.4238 47.757775 41.636249 17.348974
7624 2542 1 0.4238 15.68218 25.775018 1.52053
7625 2542 2 -0.8476 15.132416 24.939704 1.523705
7626 2542 1 0.4238 15.736409 24.143067 1.500024
7627 2543 1 0.4238 19.095396 41.477038 4.52579
7628 2543 2 -0.8476 19.258394 41.049161 5.414808
7629 2543 1 0.4238 18.885243 40.121397 5.411623
7630 2544 1 0.4238 35.732705 14.362766 12.101674
7631 2544 2 -0.8476 35.713686 15.227225 11.59933
7632 2544 1 0.4238 36.617361 15.653886 11.635822
7633 2545 1 0.4238 25.569999 4.772389 27.047425
7634 2545 2 -0.8476 24.82608 5.395418 26.805722
7635 2545 1 0.4238 24.348738 5.047418 25.998851
7636 2546 1 0.4238 15.607923 2.746975 32.018599
7637 2546 2 -0.8476 15.704812 1.75781 32.128891
7638 2546 1 0.4238 15.452781 1.500166 33.061682
7639 2547 1 0.4238 10.338595 26.010375 13.630159
7640 2547 2 -0.8476 10.285643 26.090429 14.625542
7641 2547 1 0.4238 9.434175 26.549986 14.878145
7642 2548 1 0.4238 4.367698 12.445569 9.334102
7643 2548 2 -0.8476 5.088288 12.296279 10.011199
7644 2548 1 0.4238 5.617204 11.485101 9.761724
7645 2549 1 0.4238 15.481917 15.363555 7.321607
7646 2549 2 -0.8476 15.278012 15.867399 8.16099
7647 2549 1 0.4238 14.48788 15.454499 8.613987
7648 2550 1 0.4238 25.392069 42.067644 22.853271
7649 2550 2 -0.8476 24.909673 41.292276 23.260824
7650 2550 1 0.4238 24.000899 41.584412 23.558792
7651 2551 1 0.4238 9.917398 3.489873 1.794045
7652 2551 2 -0.8476 9.709969 2.556809 1.500165
7653 2551 1 0.4238 8.72099 2.411127 1.526574
7654 2552 1 0.4238 19.109128 16.627603 45.007499
7655 2552 2 -0.8476 18.395035 15.964688 45.232477
7656 2552 1 0.4238 18.810829 15.07072 45.39962
7657 2553 1 0.4238 3.835971 43.591934 34.870829
7658 2553 2 -0.8476 4.43757 42.835251 34.614881
7659 2553 1 0.4238 3.995432 41.967048 34.840129
7660 2554 1 0.4238 11.410184 20.156899 2.051523
7661 2554 2 -0.8476 11.860441 20.85925 1.500187
7662 2554 1 0.4238 12.684402 21.174969 1.970728
7663 2555 1 0.4238 1.501043 23.886328 25.068495
7664 2555 2 -0.8476 1.625131 22.925945 24.818963
7665 2555 1 0.4238 1.500856 22.819137 23.832481
7666 2556 1 0.4238 5.498873 10.735655 43.860571
7667 2556 2 -0.8476 5.086068 10.643562 42.954419
7668 2556 1 0.4238 4.13758 10.34132 43.049394
7669 2557 1 0.4238 20.259834 13.165271 38.167493
7670 2557 2 -0.8476 20.095306 12.178966 38.155921
7671 2557 1 0.4238 20.969938 11.695553 38.119457
7672 2558 1 0.4238 14.308238 29.066261 40.701142
7673 2558 2 -0.8476 14.240664 30.063657 40.726313
7674 2558 1 0.4238 13.277557 30.332115 40.745156
7675 2559 1 0.4238 47.748464 33.96019 40.540584
7676 2559 2 -0.8476 47.762339 33.784797 39.556183
7677 2559 1 0.4238 47.759003 32.798152 39.393334
7678 2560 1 0.4238 27.228113 21.765951 47.430553
7679 2560 2 -0.8476 26.439881 22.284102 47.762532
7680 2560 1 0.4238 25.758921 22.358256 47.033976
7681 2561 1 0.4238 27.19825 40.961601 26.729727
7682 2561 2 -0.8476 27.432138 41.932888 26.773298
7683 2561 1 0.4238 27.669848 42.259843 25.858643
7684 2562 1 0.4238 41.441827 1.500573 6.918664
7685 2562 2 -0.8476 40.563316 1.502424 7.396383
7686 2562 1 0.4238 40.720901 1.505174 8.383884
7687 2563 1 0.4238 37.394577 45.688185 28.476587
7688 2563 2 -0.8476 36.629094 45.307427 28.995295
7689 2563 1 0.4238 36.923024 45.117184 29.931998
7690 2564 1 0.4238 46.351273 41.792158 34.661314
7691 2564 2 -0.8476 46.039493 40.973751 35.144019
7692 2564 1 0.4238 46.701579 40.732803 35.853657
7693 2565 1 0.4238 27.895995 22.821331 39.927298
7694 2565 2 -0.8476 28.791174 22.655789 39.513475
7695 2565 1 0.4238 29.053339 21.701482 39.65689
7696 2566 1 0.4238 15.088231 34.004146 16.027598
7697 2566 2 -0.8476 14.953397 33.296933 16.721623
7698 2566 1 0.4238 15.789752 32.756534 16.813702
7699 2567 1 0.4238 13.444499 47.762073 20.370092
7700 2567 2 -0.8476 12.843711 47.371771 19.67244
7701 2567 1 0.4238 13.071415 47.76195 18.780302
7702 2568 1 0.4238 45.476272 10.835502 39.878195
7703 2568 2 -0.8476 45.131105 11.628864 39.376761
7704 2568 1 0.4238 45.178476 12.438955 39.961148
7705 2569 1 0.4238 35.128156 1.501407 25.505536
7706 2569 2 -0.8476 34.442754 1.774956 26.180366
7707 2569 1 0.4238 34.74598 1.501367 27.093165
7708 2570 1 0.4238 5.894233 12.688955 20.571363
7709 2570 2 -0.8476 6.127219 13.406522 19.914998
7710 2570 1 0.4238 7.083478 13.308453 19.639405
7711 2571 1 0.4238 40.795739 5.782202 30.754665
7712 2571 2 -0.8476 40.801502 5.744251 31.753928
7713 2571 1 0.4238 41.570144 5.183511 32.061758
7714 2572 1 0.4238 35.68739 15.08987 46.335887
7715 2572 2 -0.8476 34.791618 15.119781 46.779393
7716 2572 1 0.4238 34.901458 14.974114 47.76261
7717 2573 1 0.4238 26.631162 21.700236 32.271925
7718 2573 2 -0.8476 25.976596 20.952522 32.383578
7719 2573 1 0.4238 25.052686 21.327159 32.46127
7720 2574 1 0.4238 4.435158 1.502819 1.500389
7721 2574 2 -0.8476 3.766984 2.079234 1.970802
7722 2574 1 0.4238 3.107376 1.501004 2.450976
7723 2575 1 0.4238 5.842247 11.257026 18.224321
7724 2575 2 -0.8476 5.18893 10.733673 18.771384
7725 2575 1 0.4238 4.303491 11.198416 18.767847
7726 2576 1 0.4238 1.50084 43.540197 17.953129
7727 2576 2 -0.8476 1.931863 44.176257 17.313093
7728 2576 1 0.4238 1.500562 44.088967 16.415118
7729 2577 1 0.4238 1.501064 31.968495 46.003195
7730 2577 2 -0.8476 1.872381 31.162858 45.541596
7731 2577 1 0.4238 1.504466 30.335923 45.96682
7732 2578 1 0.4238 27.263754 10.447878 12.398985
7733 2578 2 -0.8476 27.976716 11.085374 12.106949
7734 2578 1 0.4238 27.557186 11.862556 11.637927
7735 2579 1 0.4238 14.272033 39.570166 3.539725
7736 2579 2 -0.8476 14.390172 38.638485 3.883257
7737 2579 1 0.4238 14.503676 38.661366 4.876531
7738 2580 1 0.4238 47.762482 19.331198 44.561144
7739 2580 2 -0.8476 47.184947 18.796446 45.177986
7740 2580 1 0.4238 47.761485 18.232656 45.769378
7741 2581 1 0.4238 42.50181 37.893229 16.214004
7742 2581 2 -0.8476 42.294669 38.091795 15.256056
7743 2581 1 0.4238 43.112859 37.943734 14.7005
7744 2582 1 0.4238 41.22201 15.290853 19.658281
7745 2582 2 -0.8476 41.428391 16.08317 19.084137
7746 2582 1 0.4238 41.103886 15.914004 18.153504
7747 2583 1 0.4238 32.206634 9.794659 18.930219
7748 2583 2 -0.8476 33.16845 9.521983 18.953864
7749 2583 1 0.4238 33.735456 10.317987 19.165713
7750 2584 1 0.4238 32.884005 6.472781 43.49816
7751 2584 2 -0.8476 32.445802 6.083825 44.308524
7752 2584 1 0.4238 32.935951 6.381494 45.12776
7753 2585 1 0.4238 13.345462 42.784243 38.363484
7754 2585 2 -0.8476 14.075757 43.418096 38.618238
7755 2585 1 0.4238 14.059495 44.2087 38.006128
7756 2586 1 0.4238 27.370671 44.282382 28.622813
7757 2586 2 -0.8476 26.474122 43.862683 28.481202
7758 2586 1 0.4238 25.952214 44.40543 27.823146
7759 2587 1 0.4238 23.943015 34.943576 33.544243
7760 2587 2 -0.8476 24.933182 34.809028 33.505954
7761 2587 1 0.4238 25.358652 35.592009 33.052175
7762 2588 1 0.4238 5.715577 22.059002 22.658655
7763 2588 2 -0.8476 5.654252 22.321374 21.695638
7764 2588 1 0.4238 5.531888 23.311487 21.627072
7765 2589 1 0.4238 30.953287 11.9411 37.503993
7766 2589 2 -0.8476 30.241972 12.622793 37.33275
7767 2589 1 0.4238 30.438693 13.102162 36.477469
7768 2590 1 0.4238 13.251825 19.416859 13.45014
7769 2590 2 -0.8476 13.069327 19.970422 12.637574
7770 2590 1 0.4238 13.860476 19.936923 12.026868
7771 2591 1 0.4238 3.008907 20.422728 16.308023
7772 2591 2 -0.8476 2.453886 19.606297 16.467367
7773 2591 1 0.4238 1.500177 19.873367 16.605616
7774 2592 1 0.4238 38.04347 1.502707 5.156117
7775 2592 2 -0.8476 37.977047 1.509663 4.15835
7776 2592 1 0.4238 38.895572 1.500897 3.763083
7777 2593 1 0.4238 7.314813 31.639684 23.666504
7778 2593 2 -0.8476 6.906701 31.030689 22.986379
7779 2593 1 0.4238 7.215744 30.093783 23.149781
7780 2594 1 0.4238 33.439053 15.302734 29.181828
7781 2594 2 -0.8476 32.487084 15.339004 28.877792
7782 2594 1 0.4238 32.14019 16.271443 28.978891
7783 2595 1 0.4238 15.766605 29.179006 36.383408
7784 2595 2 -0.8476 16.194354 28.898705 35.52407
7785 2595 1 0.4238 15.751471 28.068022 35.1867
7786 2596 1 0.4238 24.125692 24.546845 13.558675
7787 2596 2 -0.8476 23.357569 25.139581 13.800855
7788 2596 1 0.4238 23.639533 26.096366 13.729734
7789 2597 1 0.4238 33.92156 35.409018 24.667041
7790 2597 2 -0.8476 32.936517 35.578034 24.633509
7791 2597 1 0.4238 32.449128 34.705134 24.611206
7792 2598 1 0.4238 18.824917 26.533102 15.999683
7793 2598 2 -0.8476 19.09426 25.827531 15.344226
7794 2598 1 0.4238 19.869411 25.311903 15.709284
7795 2599 1 0.4238 36.426168 5.508048 35.524484
7796 2599 2 -0.8476 36.246898 5.002268 36.368314
7797 2599 1 0.4238 35.284904 5.105802 36.620997
7798 2600 1 0.4238 39.05853 45.310332 5.098918
7799 2600 2 -0.8476 38.842226 45.335016 6.074932
7800 2600 1 0.4238 38.719145 44.40189 6.412759
7801 2601 1 0.4238 39.631149 31.08122 23.04934
7802 2601 2 -0.8476 38.751361 30.727646 23.367077
7803 2601 1 0.4238 38.843736 29.757811 23.592658
7804 2602 1 0.4238 47.760708 5.768017 44.421524
7805 2602 2 -0.8476 47.742255 6.683741 44.02014
7806 2602 1 0.4238 47.760632 7.367746 44.749386
7807 2603 1 0.4238 1.500063 1.501843 18.897278
7808 2603 2 -0.8476 2.468598 1.723534 18.784174
7809 2603 1 0.4238 2.961892 1.500924 19.62507
7810 2604 1 0.4238 1.501292 9.581268 36.587848
7811 2604 2 -0.8476 1.629604 10.526411 36.287445
7812 2604 1 0.4238 1.501436 11.143288 37.063998
7813 2605 1 0.4238 38.655756 18.712134 20.594501
7814 2605 2 -0.8476 39.295178 18.192144 21.160849
7815 2605 1 0.4238 40.092706 17.93663 20.61435
7816 2606 1 0.4238 41.555529 44.650891 47.743577
7817 2606 2 -0.8476 40.658646 44.208706 47.735021
7818 2606 1 0.4238 39.942773 44.906387 47.762738
7819 2607 1 0.4238 15.792087 43.449689 3.603248
7820 2607 2 -0.8476 16.438416 44.191859 3.780566
7821 2607 1 0.4238 16.110758 45.030339 3.345145
7822 2608 1 0.4238 39.09146 19.304254 34.474579
7823 2608 2 -0.8476 39.671166 20.054172 34.155886
7824 2608 1 0.4238 39.11604 20.877478 34.037558
7825 2609 1 0.4238 10.837771 13.388363 32.182957
7826 2609 2 -0.8476 10.168824 13.625425 31.478463
7827 2609 1 0.4238 10.637003 13.754985 30.60438
7828 2610 1 0.4238 11.860287 19.411938 29.905179
7829 2610 2 -0.8476 12.160027 18.926886 29.083667
7830 2610 1 0.4238 12.725408 19.534265 28.525603
7831 2611 1 0.4238 35.299503 1.500158 44.689693
7832 2611 2 -0.8476 35.174177 1.747419 43.728883
7833 2611 1 0.4238 34.24962 1.500174 43.438945
7834 2612 1 0.4238 15.040778 38.389238 34.279433
7835 2612 2 -0.8476 15.07934 37.411524 34.073066
7836 2612 1 0.4238 15.04866 36.889492 34.92544
7837 2613 1 0.4238 21.948117 7.761303 32.392746
7838 2613 2 -0.8476 22.295138 7.191721 33.137832
7839 2613 1 0.4238 23.049615 7.663317 33.594298
7840 2614 1 0.4238 27.943151 9.707273 29.623872
7841 2614 2 -0.8476 28.324401 8.89627 30.067631
7842 2614 1 0.4238 27.580342 8.325695 30.415224
7843 2615 1 0.4238 5.17957 16.564911 38.547631
7844 2615 2 -0.8476 4.990032 16.295265 37.603509
7845 2615 1 0.4238 4.345614 15.53061 37.598229
7846 2616 1 0.4238 15.418802 43.112782 9.881683
7847 2616 2 -0.8476 16.211506 42.775674 10.389598
7848 2616 1 0.4238 16.792011 43.546647 10.651543
7849 2617 1 0.4238 10.271668 42.726355 38.449469
7850 2617 2 -0.8476 10.343493 41.777302 38.142648
7851 2617 1 0.4238 9.917998 41.175417 38.818435
7852 2618 1 0.4238 38.876306 38.90977 16.868452
7853 2618 2 -0.8476 38.290871 39.222816 16.120609
7854 2618 1 0.4238 38.483153 38.685476 15.299455
7855 2619 1 0.4238 23.160186 23.527176 40.57424
7856 2619 2 -0.8476 23.373468 22.551185 40.530077
7857 2619 1 0.4238 24.190916 22.363665 41.0747
7858 2620 1 0.4238 45.12656 35.102509 15.729771
7859 2620 2 -0.8476 45.138146 34.886032 16.70599
7860 2620 1 0.4238 44.331808 34.341208 16.936177
7861 2621 1 0.4238 26.679349 13.373806 24.655515
7862 2621 2 -0.8476 25.801467 12.899671 24.722731
7863 2621 1 0.4238 25.064578 13.571592 24.797006
7864 2622 1 0.4238 24.392797 16.783017 38.244982
7865 2622 2 -0.8476 24.846182 17.447275 37.650673
7866 2622 1 0.4238 24.375419 18.327241 37.714233
7867 2623 1 0.4238 9.043382 16.261445 40.647399
7868 2623 2 -0.8476 8.428822 16.956656 41.020224
7869 2623 1 0.4238 7.596234 16.996372 40.467758
7870 2624 1 0.4238 31.220508 13.646673 23.081453
7871 2624 2 -0.8476 31.725294 14.471545 22.826939
7872 2624 1 0.4238 32.289002 14.282565 22.022875
7873 2625 1 0.4238 1.501943 3.015352 44.860563
7874 2625 2 -0.8476 1.52683 2.042711 45.09154
7875 2625 1 0.4238 1.501857 1.500011 44.251986
7876 2626 1 0.4238 25.985815 40.442021 43.153783
7877 2626 2 -0.8476 25.290639 40.631238 42.460294
7878 2626 1 0.4238 24.3827 40.582758 42.876583
7879 2627 1 0.4238 33.911091 6.928914 17.095154
7880 2627 2 -0.8476 33.782286 7.457778 16.256279
7881 2627 1 0.4238 33.915228 8.429549 16.451181
7882 2628 1 0.4238 24.627504 1.501015 22.032268
7883 2628 2 -0.8476 25.624495 1.578196 22.03954
7884 2628 1 0.4238 25.883901 2.543674 22.063186
7885 2629 1 0.4238 38.424694 27.892974 11.068844
7886 2629 2 -0.8476 38.085165 28.246286 11.940562
7887 2629 1 0.4238 38.711777 28.946201 12.283308
7888 2630 1 0.4238 44.362596 12.388069 11.400202
7889 2630 2 -0.8476 45.179882 11.868765 11.649936
7890 2630 1 0.4238 45.6802 11.61607 10.82179
7891 2631 1 0.4238 1.500209 6.530129 16.236897
7892 2631 2 -0.8476 1.500803 6.555717 15.237224
7893 2631 1 0.4238 2.410831 6.811358 14.910887
7894 2632 1 0.4238 16.602855 25.820426 13.004237
7895 2632 2 -0.8476 15.961188 25.0541 12.972488
7896 2632 1 0.4238 16.468714 24.198351 12.871934
7897 2633 1 0.4238 42.786314 10.0362 34.429415
7898 2633 2 -0.8476 43.240715 10.206455 35.30379
7899 2633 1 0.4238 43.61055 11.135517 35.31189
7900 2634 1 0.4238 18.036342 44.035466 29.11562
7901 2634 2 -0.8476 17.729738 44.979254 29.239146
7902 2634 1 0.4238 18.158246 45.562001 28.548649
7903 2635 1 0.4238 20.913703 47.760954 26.320797
7904 2635 2 -0.8476 21.867003 47.586401 26.567274
7905 2635 1 0.4238 22.453184 47.761151 25.776165
7906 2636 1 0.4238 26.399192 40.76238 8.557999
7907 2636 2 -0.8476 27.31329 40.418831 8.773406
7908 2636 1 0.4238 27.911251 41.185742 9.006404
7909 2637 1 0.4238 39.437416 17.905084 47.165549
7910 2637 2 -0.8476 40.236534 17.974645 47.762684
7911 2637 1 0.4238 40.739521 17.110469 47.748416
7912 2638 1 0.4238 27.264983 17.049724 11.860306
7913 2638 2 -0.8476 27.757906 17.904233 11.696477
7914 2638 1 0.4238 27.102286 18.639704 11.525465
7915 2639 1 0.4238 47.761903 33.815252 44.586457
7916 2639 2 -0.8476 47.758481 32.921862 45.035726
7917 2639 1 0.4238 47.761958 32.200494 44.343183
7918 2640 1 0.4238 15.61923 7.652877 30.138967
7919 2640 2 -0.8476 15.747467 8.603678 29.856951
7920 2640 1 0.4238 16.544973 8.98528 30.324247
7921 2641 1 0.4238 21.102801 27.15283 45.472431
7922 2641 2 -0.8476 20.605388 26.503912 44.896682
7923 2641 1 0.4238 19.740207 26.912006 44.605271
7924 2642 1 0.4238 31.211665 24.809042 33.737145
7925 2642 2 -0.8476 30.378447 25.052791 33.240826
7926 2642 1 0.4238 30.350163 24.556619 32.373063
7927 2643 1 0.4238 46.644695 39.066632 28.152301
7928 2643 2 -0.8476 46.783068 40.052652 28.245129
7929 2643 1 0.4238 47.762458 40.24866 28.293866
7930 2644 1 0.4238 9.019537 31.37488 43.495739
7931 2644 2 -0.8476 8.657808 30.907068 44.302154
7932 2644 1 0.4238 8.771453 31.49158 45.105541
7933 2645 1 0.4238 31.196481 24.501099 16.301943
7934 2645 2 -0.8476 30.967579 25.190437 15.614617
7935 2645 1 0.4238 30.741918 26.052152 16.069065
7936 2646 1 0.4238 19.987805 8.30897 47.713531
7937 2646 2 -0.8476 20.009094 9.308744 47.7136
7938 2646 1 0.4238 20.957584 9.621931 47.76135
7939 2647 1 0.4238 12.650545 4.702916 15.192957
7940 2647 2 -0.8476 13.510024 4.882746 14.714461
7941 2647 1 0.4238 13.921825 5.720739 15.072494
7942 2648 1 0.4238 12.964749 26.180502 2.945316
7943 2648 2 -0.8476 13.227069 26.795007 2.201292
7944 2648 1 0.4238 12.911332 27.721283 2.407016
7945 2649 1 0.4238 8.80871 12.433612 1.500007
7946 2649 2 -0.8476 9.46658 13.186742 1.501867
7947 2649 1 0.4238 8.975796 14.058022 1.500921
7948 2650 1 0.4238 30.469215 29.918851 21.747854
7949 2650 2 -0.8476 30.439127 30.888156 21.503838
7950 2650 1 0.4238 29.94613 31.394781 22.211147
7951 2651 1 0.4238 4.193399 42.460418 23.699486
7952 2651 2 -0.8476 5.125961 42.589827 23.362468
7953 2651 1 0.4238 5.776122 42.250003 24.042034
7954 2652 1 0.4238 45.644647 22.521984 15.575336
7955 2652 2 -0.8476 45.218204 23.243173 15.029411
7956 2652 1 0.4238 44.841937 23.94272 15.636912
7957 2653 1 0.4238 1.500163 13.668235 40.612735
7958 2653 2 -0.8476 2.076558 13.032266 40.099597
7959 2653 1 0.4238 1.500555 12.444528 39.531455
7960 2654 1 0.4238 4.041836 29.400574 1.501905
7961 2654 2 -0.8476 4.670921 28.623238 1.501522
7962 2654 1 0.4238 4.147718 27.77103 1.501102
7963 2655 1 0.4238 20.146586 25.329984 32.413224
7964 2655 2 -0.8476 20.8576 25.669983 33.028741
7965 2655 1 0.4238 21.397154 24.901061 33.371729
7966 2656 1 0.4238 38.013209 32.454256 35.21658
7967 2656 2 -0.8476 37.847521 31.608346 35.723516
7968 2656 1 0.4238 38.701437 31.29693 36.140465
7969 2657 1 0.4238 25.927516 18.881403 16.988391
7970 2657 2 -0.8476 25.377875 19.716795 16.992235
7971 2657 1 0.4238 24.949367 19.83797 16.09686
7972 2658 1 0.4238 23.120377 20.357503 36.074088
7973 2658 2 -0.8476 23.604241 20.981721 35.460714
7974 2658 1 0.4238 23.290162 20.837129 34.522393
7975 2659 1 0.4238 25.849466 37.897122 44.212171
7976 2659 2 -0.8476 25.137243 37.434632 43.684118
7977 2659 1 0.4238 25.027642 37.890946 42.801075
7978 2660 1 0.4238 31.014335 44.673643 11.423139
7979 2660 2 -0.8476 31.36067 44.399037 12.320158
7980 2660 1 0.4238 30.858454 43.595478 12.639645
7981 2661 1 0.4238 16.322849 36.698612 9.532106
7982 2661 2 -0.8476 16.424827 36.738821 10.52608
7983 2661 1 0.4238 17.391262 36.84982 10.757771
7984 2662 1 0.4238 10.604248 9.12758 24.468814
7985 2662 2 -0.8476 10.204655 9.508179 25.302763
7986 2662 1 0.4238 9.646402 10.304919 25.071335
7987 2663 1 0.4238 36.687107 18.715053 8.853972
7988 2663 2 -0.8476 37.507075 18.142665 8.849162
7989 2663 1 0.4238 38.319266 18.724228 8.803017
7990 2664 1 0.4238 12.617713 3.048886 1.500232
7991 2664 2 -0.8476 13.512257 2.601908 1.501951
7992 2664 1 0.4238 13.388999 1.609544 1.506459
7993 2665 1 0.4238 12.13778 27.940039 32.514289
7994 2665 2 -0.8476 12.981482 28.074524 31.994596
7995 2665 1 0.4238 12.856538 27.734689 31.062447
7996 2666 1 0.4238 22.652166 44.621106 46.657633
7997 2666 2 -0.8476 22.322807 44.662059 47.600949
7998 2666 1 0.4238 21.679375 43.913715 47.762124
7999 2667 1 0.4238 23.839927 22.283448 1.500183
8000 2667 2 -0.8476 22.922322 21.886348 1.517894
8001 2667 1 0.4238 22.990589 20.888742 1.506894
8002 2668 1 0.4238 41.067238 30.391063 38.437524
8003 2668 2 -0.8476 40.150084 30.789277 38.4216
8004 2668 1 0.4238 40.220127 31.785957 38.380084
8005 2669 1 0.4238 31.037763 38.709049 7.6363
8006 2669 2 -0.8476 30.36016 39.443741 7.669182
8007 2669 1 0.4238 29.441874 39.049078 7.700675
8008 2670 1 0.4238 43.01483 15.94146 7.259626
8009 2670 2 -0.8476 42.849875 15.763425 6.289526
8010 2670 1 0.4238 41.998553 15.24929 6.185053
8011 2671 1 0.4238 7.731533 39.71704 29.803136
8012 2671 2 -0.8476 8.363644 40.473548 29.970861
8013 2671 1 0.4238 9.236828 40.11206 30.297778
8014 2672 1 0.4238 2.783803 6.775521 21.272175
8015 2672 2 -0.8476 2.473712 5.920057 21.686935
8016 2672 1 0.4238 1.499974 5.988646 21.904027
8017 2673 1 0.4238 37.497541 32.737143 44.861545
8018 2673 2 -0.8476 37.465508 33.098238 43.929566
8019 2673 1 0.4238 36.520781 33.091477 43.601778
8020 2674 1 0.4238 43.760476 20.470225 1.504106
8021 2674 2 -0.8476 42.767257 20.35398 1.502494
8022 2674 1 0.4238 42.545803 19.378811 1.500734
8023 2675 1 0.4238 4.97895 11.291675 2.434647
8024 2675 2 -0.8476 4.578076 11.35302 1.52057
8025 2675 1 0.4238 3.715255 10.847911 1.500423
8026 2676 1 0.4238 8.885816 42.019947 3.506469
8027 2676 2 -0.8476 8.358519 42.183521 4.340256
8028 2676 1 0.4238 7.744847 42.960435 4.199503
8029 2677 1 0.4238 40.757143 12.390993 16.449595
8030 2677 2 -0.8476 41.694378 12.736265 16.400828
8031 2677 1 0.4238 41.70189 13.712089 16.619258
8032 2678 1 0.4238 1.500401 21.172699 45.026698
8033 2678 2 -0.8476 1.908103 21.323604 44.126139
8034 2678 1 0.4238 1.500286 22.134964 43.707353
8035 2679 1 0.4238 47.760315 14.867898 5.73908
8036 2679 2 -0.8476 47.732658 15.728094 5.229868
8037 2679 1 0.4238 46.953467 15.719521 4.60314
8038 2680 1 0.4238 33.311743 36.242774 41.397567
8039 2680 2 -0.8476 33.310796 35.918822 40.451494
8040 2680 1 0.4238 34.232876 35.995194 40.072107
8041 2681 1 0.4238 33.731877 17.331977 3.995642
8042 2681 2 -0.8476 32.763832 17.084782 4.037871
8043 2681 1 0.4238 32.561066 16.683012 4.93088
8044 2682 1 0.4238 47.761287 22.595575 5.044033
8045 2682 2 -0.8476 47.362622 22.443925 4.139562
8046 2682 1 0.4238 47.760397 21.621105 3.733677
8047 2683 1 0.4238 2.463386 41.844884 25.742638
8048 2683 2 -0.8476 1.517835 42.129418 25.900667
8049 2683 1 0.4238 1.504398 43.073952 26.228806
8050 2684 1 0.4238 10.114992 5.910823 35.956058
8051 2684 2 -0.8476 9.568922 5.085749 36.101178
8052 2684 1 0.4238 8.744524 5.128117 35.536756
8053 2685 1 0.4238 42.290944 35.769954 43.723441
8054 2685 2 -0.8476 41.9682 34.824352 43.764337
8055 2685 1 0.4238 41.330687 34.65693 43.012309
8056 2686 1 0.4238 26.468439 46.256978 1.506628
8057 2686 2 -0.8476 26.252679 47.233412 1.501755
8058 2686 1 0.4238 27.101372 47.762296 1.500453
8059 2687 1 0.4238 1.506452 22.961307 18.71864
8060 2687 2 -0.8476 1.500062 22.206993 18.062158
8061 2687 1 0.4238 1.510897 22.574405 17.132162
8062 2688 1 0.4238 14.47081 37.12232 38.075774
8063 2688 2 -0.8476 13.991603 37.75906 38.679862
8064 2688 1 0.4238 14.621535 38.478083 38.973446
8065 2689 1 0.4238 39.137307 43.509681 30.203567
8066 2689 2 -0.8476 39.091324 43.589233 29.207797
8067 2689 1 0.4238 40.01014 43.499433 28.823465
8068 2690 1 0.4238 17.071145 12.919508 1.500843
8069 2690 2 -0.8476 16.07988 12.791455 1.532414
8070 2690 1 0.4238 15.805394 12.542313 2.461169
8071 2691 1 0.4238 22.308941 25.291738 8.73439
8072 2691 2 -0.8476 21.472663 25.755221 8.441434
8073 2691 1 0.4238 20.682214 25.178409 8.647534
8074 2692 1 0.4238 4.185519 12.377019 25.386718
8075 2692 2 -0.8476 5.030934 12.639381 25.851949
8076 2692 1 0.4238 5.476668 13.375846 25.343088
8077 2693 1 0.4238 17.808626 14.068239 47.751498
8078 2693 2 -0.8476 16.827678 14.262186 47.762749
8079 2693 1 0.4238 16.606164 14.903024 47.027727
8080 2694 1 0.4238 9.158351 18.152617 23.679251
8081 2694 2 -0.8476 9.042617 17.495757 22.934173
8082 2694 1 0.4238 8.959764 16.573796 23.312489
8083 2695 1 0.4238 36.826098 22.599618 24.552991
8084 2695 2 -0.8476 37.665738 22.935299 24.979985
8085 2695 1 0.4238 38.250337 22.160369 25.220247
8086 2696 1 0.4238 4.185467 39.596221 36.220323
8087 2696 2 -0.8476 3.341786 39.248353 35.811433
8088 2696 1 0.4238 2.619492 39.229373 36.502758
8089 2697 1 0.4238 47.001814 47.7628 43.895193
8090 2697 2 -0.8476 47.450205 47.759295 44.789023
8091 2697 1 0.4238 47.76278 46.83347 45.001493
8092 2698 1 0.4238 7.924347 10.843701 3.678742
8093 2698 2 -0.8476 8.458256 9.999091 3.718439
8094 2698 1 0.4238 7.940403 9.300295 4.211908
8095 2699 1 0.4238 21.419692 16.333594 27.589252
8096 2699 2 -0.8476 20.509801 16.24274 27.99403
8097 2699 1 0.4238 19.986946 17.079213 27.829913
8098 2700 1 0.4238 33.475412 47.628205 45.032832
8099 2700 2 -0.8476 33.170914 46.704887 45.266851
8100 2700 1 0.4238 33.883854 46.047155 45.023732
8101 2701 1 0.4238 16.928995 41.820693 36.455269
8102 2701 2 -0.8476 15.942036 41.719334 36.330221
8103 2701 1 0.4238 15.510891 41.538491 37.214194
8104 2702 1 0.4238 4.845149 36.890449 37.114932
8105 2702 2 -0.8476 4.750543 36.906921 36.119553
8106 2702 1 0.4238 3.92187 36.413499 35.855289
8107 2703 1 0.4238 45.930591 24.383895 20.655797
8108 2703 2 -0.8476 46.146584 24.21861 21.6181
8109 2703 1 0.4238 47.094811 24.481199 21.796739
8110 2704 1 0.4238 33.493376 47.731799 47.736377
8111 2704 2 -0.8476 32.497419 47.762271 47.651872
8112 2704 1 0.4238 32.125184 46.840732 47.762352
8113 2705 1 0.4238 23.645 1.501538 30.577138
8114 2705 2 -0.8476 23.841014 2.022189 31.408102
8115 2705 1 0.4238 23.537701 1.50217 32.20659
8116 2706 1 0.4238 3.3419 22.343485 28.455307
8117 2706 2 -0.8476 3.801613 22.489053 27.579251
8118 2706 1 0.4238 3.25666 23.110183 27.016025
8119 2707 1 0.4238 5.566903 29.832334 13.461303
8120 2707 2 -0.8476 5.191417 28.949678 13.178589
8121 2707 1 0.4238 5.745845 28.212491 13.564807
8122 2708 1 0.4238 47.735351 29.549744 40.985665
8123 2708 2 -0.8476 47.762652 30.120116 41.806598
8124 2708 1 0.4238 47.733519 31.084464 41.543569
8125 2709 1 0.4238 40.902337 44.831328 18.905668
8126 2709 2 -0.8476 40.558683 45.02566 17.986898
8127 2709 1 0.4238 40.411218 46.009711 17.887414
8128 2710 1 0.4238 13.059182 33.179594 39.735707
8129 2710 2 -0.8476 12.64068 33.977775 39.302391
8130 2710 1 0.4238 12.259557 33.714422 38.416168
8131 2711 1 0.4238 23.039057 2.96109 14.627025
8132 2711 2 -0.8476 22.19276 2.475233 14.408566
8133 2711 1 0.4238 22.386552 1.500137 14.300714
8134 2712 1 0.4238 17.80398 37.216931 24.741495
8135 2712 2 -0.8476 18.488071 36.628952 25.17312
8136 2712 1 0.4238 18.523376 35.751709 24.694373
8137 2713 1 0.4238 21.62881 1.500909 3.783158
8138 2713 2 -0.8476 21.688699 1.725662 4.755732
8139 2713 1 0.4238 21.469188 2.69218 4.888607
8140 2714 1 0.4238 10.208835 35.787158 31.162148
8141 2714 2 -0.8476 11.125018 35.637433 31.533889
8142 2714 1 0.4238 11.128804 35.856778 32.509529
8143 2715 1 0.4238 23.288406 37.767233 10.999282
8144 2715 2 -0.8476 23.847189 37.525436 11.792564
8145 2715 1 0.4238 23.343852 37.734457 12.630992
8146 2716 1 0.4238 41.542304 32.782992 24.054847
8147 2716 2 -0.8476 42.040133 31.916229 24.084645
8148 2716 1 0.4238 42.364514 31.750004 25.015852
8149 2717 1 0.4238 6.607057 1.500241 35.366648
8150 2717 2 -0.8476 7.497562 1.909972 35.168856
8151 2717 1 0.4238 7.875358 1.501302 34.338039
8152 2718 1 0.4238 10.470487 21.30621 37.728548
8153 2718 2 -0.8476 10.038256 22.202497 37.827771
8154 2718 1 0.4238 9.109238 22.08743 38.179461
8155 2719 1 0.4238 22.306653 4.414224 17.928027
8156 2719 2 -0.8476 22.792593 4.037205 17.139536
8157 2719 1 0.4238 23.727132 4.392673 17.122793
8158 2720 1 0.4238 46.897578 9.553875 25.879654
8159 2720 2 -0.8476 47.674694 8.96114 25.668099
8160 2720 1 0.4238 47.761404 8.866451 24.676376
8161 2721 1 0.4238 31.61865 22.958357 26.312982
8162 2721 2 -0.8476 31.112363 22.410332 25.647143
8163 2721 1 0.4238 31.389879 22.66967 24.722087
8164 2722 1 0.4238 3.984728 1.500031 33.259307
8165 2722 2 -0.8476 4.340086 2.137012 33.943396
8166 2722 1 0.4238 4.192947 3.076058 33.632685
8167 2723 1 0.4238 44.242481 8.07274 39.833341
8168 2723 2 -0.8476 43.695884 8.783314 40.276417
8169 2723 1 0.4238 43.758724 8.68165 41.269249
8170 2724 1 0.4238 30.115734 3.704872 22.349447
8171 2724 2 -0.8476 29.151312 3.490562 22.194656
8172 2724 1 0.4238 28.667537 4.31809 21.909774
8173 2725 1 0.4238 8.754204 5.072375 13.761821
8174 2725 2 -0.8476 9.362476 4.291286 13.902907
8175 2725 1 0.4238 9.733887 3.994863 13.023028
8176 2726 1 0.4238 24.762787 22.964667 20.738806
8177 2726 2 -0.8476 24.439711 23.676225 20.114861
8178 2726 1 0.4238 23.793049 23.279676 19.463265
8179 2727 1 0.4238 12.3259 45.698997 7.788905
8180 2727 2 -0.8476 12.822354 45.178749 8.483797
8181 2727 1 0.4238 13.736782 44.957753 8.144707
8182 2728 1 0.4238 1.500642 7.903074 31.415428
8183 2728 2 -0.8476 1.529742 6.969871 31.057258
8184 2728 1 0.4238 1.500688 6.995315 30.058004
8185 2729 1 0.4238 23.870919 9.667313 35.666942
8186 2729 2 -0.8476 24.252322 10.025252 36.51924
8187 2729 1 0.4238 23.508652 10.319745 37.11943
8188 2730 1 0.4238 16.149976 40.547272 27.81032
8189 2730 2 -0.8476 17.136894 40.708289 27.802217
8190 2730 1 0.4238 17.615855 39.837189 27.693682
8191 2731 1 0.4238 20.708103 17.150866 1.501675
8192 2731 2 -0.8476 20.688161 18.150667 1.50111
8193 2731 1 0.4238 21.624142 18.502715 1.500746
8194 2732 1 0.4238 32.245806 25.431991 12.171394
8195 2732 2 -0.8476 32.112182 25.112349 13.109463
8196 2732 1 0.4238 32.843552 24.474852 13.351737
8197 2733 1 0.4238 1.912384 26.017753 44.928984
8198 2733 2 -0.8476 1.507378 25.860663 44.028266
8199 2733 1 0.4238 1.500871 24.880103 43.832154
8200 2734 1 0.4238 5.073207 28.783453 27.939727
8201 2734 2 -0.8476 5.390891 28.082656 28.578445
8202 2734 1 0.4238 4.681001 27.387304 28.69044
8203 2735 1 0.4238 44.190647 8.732885 25.341209
8204 2735 2 -0.8476 43.740085 8.846844 26.226651
8205 2735 1 0.4238 43.291158 7.991362 26.484751
8206 2736 1 0.4238 43.674279 47.762219 3.978786
8207 2736 2 -0.8476 44.249046 47.254592 4.620625
8208 2736 1 0.4238 45.095204 47.762019 4.783521
8209 2737 1 0.4238 37.65956 24.21677 17.155698
8210 2737 2 -0.8476 37.824802 23.673911 16.332291
8211 2737 1 0.4238 36.960159 23.292246 16.005602
8212 2738 1 0.4238 15.596232 30.488238 9.304206
8213 2738 2 -0.8476 14.65911 30.772185 9.101285
8214 2738 1 0.4238 14.591288 31.767837 9.165139
8215 2739 1 0.4238 10.362992 14.20839 42.419189
8216 2739 2 -0.8476 11.320213 14.435553 42.239954
8217 2739 1 0.4238 11.384832 14.961334 41.391792
8218 2740 1 0.4238 32.368456 3.074986 47.760839
8219 2740 2 -0.8476 33.282185 2.671477 47.713079
8220 2740 1 0.4238 33.965737 3.399503 47.6608
8221 2741 1 0.4238 35.784899 25.103614 25.007678
8222 2741 2 -0.8476 36.474601 25.305817 25.702965
8223 2741 1 0.4238 36.16811 26.075929 26.26242
8224 2742 1 0.4238 17.417616 40.775775 25.067639
8225 2742 2 -0.8476 16.514062 41.193487 25.163064
8226 2742 1 0.4238 15.963579 40.985383 24.354572
8227 2743 1 0.4238 16.480292 47.596699 11.972659
8228 2743 2 -0.8476 16.029748 47.762703 11.095474
8229 2743 1 0.4238 16.694622 47.663225 10.355172
8230 2744 1 0.4238 45.456333 2.873826 2.774977
8231 2744 2 -0.8476 45.273673 2.339762 1.949501
8232 2744 1 0.4238 44.452469 2.691291 1.500001
8233 2745 1 0.4238 28.968578 13.261909 29.067614
8234 2745 2 -0.8476 28.050576 12.897236 28.911772
8235 2745 1 0.4238 28.118233 11.966554 28.552255
8236 2746 1 0.4238 30.848592 32.088884 46.075179
8237 2746 2 -0.8476 31.296906 32.932828 45.780609
8238 2746 1 0.4238 32.203388 32.719129 45.416435
8239 2747 1 0.4238 30.631369 20.875858 20.966795
8240 2747 2 -0.8476 30.268015 20.132574 20.405098
8241 2747 1 0.4238 29.412314 20.425048 19.978209
8242 2748 1 0.4238 17.005918 22.109463 26.284416
8243 2748 2 -0.8476 17.776792 21.99023 25.658687
8244 2748 1 0.4238 17.43333 21.83571 24.732319
8245 2749 1 0.4238 23.318331 10.226141 43.498052
8246 2749 2 -0.8476 23.16571 11.14715 43.139653
8247 2749 1 0.4238 22.218437 11.231817 42.830614
8248 2750 1 0.4238 1.500769 33.704542 26.493359
8249 2750 2 -0.8476 1.503024 33.073569 27.26916
8250 2750 1 0.4238 1.500469 33.594688 28.12264
8251 2751 1 0.4238 47.760686 40.73167 46.45232
8252 2751 2 -0.8476 47.688061 39.744742 46.596191
8253 2751 1 0.4238 47.116579 39.344626 45.879731
8254 2752 1 0.4238 40.014513 13.41083 25.628213
8255 2752 2 -0.8476 40.352044 13.966135 24.868141
8256 2752 1 0.4238 40.867255 13.387642 24.235762
8257 2753 1 0.4238 25.063705 39.970458 28.729572
8258 2753 2 -0.8476 25.1193 40.948592 28.529163
8259 2753 1 0.4238 24.284633 41.241197 28.062566
8260 2754 1 0.4238 1.50017 21.147515 38.860998
8261 2754 2 -0.8476 2.464988 20.897142 38.780751
8262 2754 1 0.4238 2.97103 21.650517 38.360813
8263 2755 1 0.4238 41.696915 21.500624 26.595132
8264 2755 2 -0.8476 40.892092 21.454962 26.003376
8265 2755 1 0.4238 40.393643 20.606955 26.183471
8266 2756 1 0.4238 35.537838 17.281635 21.403993
8267 2756 2 -0.8476 36.453141 17.519633 21.728917
8268 2756 1 0.4238 37.019098 16.695935 21.763784
8269 2757 1 0.4238 27.761797 11.312016 7.143816
8270 2757 2 -0.8476 27.766351 10.471162 6.602573
8271 2757 1 0.4238 26.825766 10.206985 6.389244
8272 2758 1 0.4238 41.804276 14.299955 36.06541
8273 2758 2 -0.8476 42.149867 13.36479 35.987735
8274 2758 1 0.4238 41.41256 12.761077 35.684571
8275 2759 1 0.4238 26.338729 33.771018 6.182691
8276 2759 2 -0.8476 27.158125 33.306519 5.846785
8277 2759 1 0.4238 27.388858 33.653382 4.937694
8278 2760 1 0.4238 8.031345 11.929082 37.66157
8279 2760 2 -0.8476 7.057529 11.731734 37.774423
8280 2760 1 0.4238 6.590832 12.544761 38.122532
8281 2761 1 0.4238 17.382926 38.488075 3.672563
8282 2761 2 -0.8476 17.849741 37.613552 3.541057
8283 2761 1 0.4238 17.191744 36.928043 3.229421
8284 2762 1 0.4238 18.050717 27.165234 1.502199
8285 2762 2 -0.8476 18.205059 28.029422 1.981112
8286 2762 1 0.4238 17.728959 28.766201 1.501023
8287 2763 1 0.4238 31.641479 44.736156 21.195064
8288 2763 2 -0.8476 32.010013 45.216829 20.399365
8289 2763 1 0.4238 31.362703 45.14968 19.640102
8290 2764 1 0.4238 24.542114 14.832988 46.840742
8291 2764 2 -0.8476 24.884329 15.034164 47.758574
8292 2764 1 0.4238 25.32014 15.934196 47.76196
8293 2765 1 0.4238 36.756258 37.654277 1.504073
8294 2765 2 -0.8476 36.564832 36.672778 1.500026
8295 2765 1 0.4238 35.575657 36.52609 1.503727
8296 2766 1 0.4238 34.911268 18.303455 39.588331
8297 2766 2 -0.8476 34.16824 18.004272 38.989666
8298 2766 1 0.4238 34.21838 17.013221 38.865953
8299 2767 1 0.4238 4.689104 38.692442 33.480044
8300 2767 2 -0.8476 4.592912 39.684729 33.40186
8301 2767 1 0.4238 3.776933 39.899236 32.865051
8302 2768 1 0.4238 28.90793 15.00626 23.685265
8303 2768 2 -0.8476 28.912691 16.003098 23.764577
8304 2768 1 0.4238 29.839468 16.345354 23.609836
8305 2769 1 0.4238 29.725954 35.766264 26.831017
8306 2769 2 -0.8476 29.82931 35.050833 27.522013
8307 2769 1 0.4238 28.952436 34.898701 27.978026
8308 2770 1 0.4238 31.508825 27.891419 13.156262
8309 2770 2 -0.8476 32.382974 28.376899 13.143108
8310 2770 1 0.4238 32.218461 29.356572 13.028318
8311 2771 1 0.4238 23.333361 17.693009 20.239255
8312 2771 2 -0.8476 24.162464 18.234823 20.10132
8313 2771 1 0.4238 24.930865 17.624864 19.907648
8314 2772 1 0.4238 42.503017 17.988195 9.023389
8315 2772 2 -0.8476 41.970627 18.834646 9.014315
8316 2772 1 0.4238 42.480784 19.554343 9.485246
8317 2773 1 0.4238 13.18185 32.118841 4.392144
8318 2773 2 -0.8476 12.682005 32.980459 4.303989
8319 2773 1 0.4238 11.790199 32.807187 3.886067
8320 2774 1 0.4238 47.761512 43.403081 29.490723
8321 2774 2 -0.8476 47.461964 44.24283 29.037852
8322 2774 1 0.4238 47.762359 45.034115 29.570423
8323 2775 1 0.4238 43.93695 47.647315 34.447588
8324 2775 2 -0.8476 44.845068 47.762709 34.850086
8325 2775 1 0.4238 45.534675 47.749747 34.126018
8326 2776 1 0.4238 29.613044 15.258609 27.705789
8327 2776 2 -0.8476 28.928572 15.534191 27.030843
8328 2776 1 0.4238 28.729139 14.764136 26.424839
8329 2777 1 0.4238 38.965638 18.495777 38.653711
8330 2777 2 -0.8476 38.143742 19.063438 38.606285
8331 2777 1 0.4238 37.360355 18.495311 38.354223
8332 2778 1 0.4238 1.500076 4.175788 39.48944
8333 2778 2 -0.8476 2.350519 4.56022 39.130331
8334 2778 1 0.4238 2.812812 3.87679 38.565346
8335 2779 1 0.4238 36.072867 39.586285 45.068463
8336 2779 2 -0.8476 36.875587 40.180243 45.121897
8337 2779 1 0.4238 36.741675 40.97558 44.530706
8338 2780 1 0.4238 26.478889 33.899242 45.898025
8339 2780 2 -0.8476 25.730278 34.553185 45.788757
8340 2780 1 0.4238 25.975137 35.226642 45.091261
8341 2781 1 0.4238 18.400214 9.726596 41.573563
8342 2781 2 -0.8476 19.034628 9.215895 42.153825
8343 2781 1 0.4238 18.612109 9.050981 43.045049
8344 2782 1 0.4238 25.400779 9.04454 8.459748
8345 2782 2 -0.8476 25.17529 9.255701 9.410835
8346 2782 1 0.4238 24.300212 8.833557 9.647546
8347 2783 1 0.4238 42.477066 28.783809 8.900872
8348 2783 2 -0.8476 42.509168 29.740625 8.611958
8349 2783 1 0.4238 41.976713 30.298951 9.248169
8350 2784 1 0.4238 11.113658 13.243726 14.595874
8351 2784 2 -0.8476 10.414705 13.258923 13.880867
8352 2784 1 0.4238 9.769209 14.001025 14.061475
8353 2785 1 0.4238 40.003126 11.038555 1.965724
8354 2785 2 -0.8476 39.169065 11.334474 1.500133
8355 2785 1 0.4238 38.606382 11.868175 2.131442
8356 2786 1 0.4238 30.847617 23.598287 20.645754
8357 2786 2 -0.8476 30.506207 24.012997 21.489232
8358 2786 1 0.4238 30.476219 23.322367 22.211818
8359 2787 1 0.4238 37.948607 46.834668 34.934851
8360 2787 2 -0.8476 38.195231 47.762771 34.655924
8361 2787 1 0.4238 38.458006 47.762105 33.691067
8362 2788 1 0.4238 1.512577 39.378465 6.702185
8363 2788 2 -0.8476 1.502236 39.40472 7.701787
8364 2788 1 0.4238 1.501891 38.470987 8.059754
8365 2789 1 0.4238 23.575528 28.181971 46.09368
8366 2789 2 -0.8476 23.639896 27.282047 46.52495
8367 2789 1 0.4238 23.289857 27.334829 47.460197
8368 2790 1 0.4238 31.23092 29.694078 38.350292
8369 2790 2 -0.8476 30.558277 29.057389 38.727357
8370 2790 1 0.4238 31.024899 28.371908 39.286265
8371 2791 1 0.4238 42.928757 17.028702 46.101364
8372 2791 2 -0.8476 43.901975 17.190735 45.938292
8373 2791 1 0.4238 44.383853 17.234273 46.813448
8374 2792 1 0.4238 17.142849 16.614793 16.611386
8375 2792 2 -0.8476 16.297205 17.126641 16.762711
8376 2792 1 0.4238 16.493037 17.938969 17.312049
8377 2793 1 0.4238 19.667248 5.226085 33.461926
8378 2793 2 -0.8476 18.834078 4.707821 33.268977
8379 2793 1 0.4238 18.057881 5.14248 33.725692
8380 2794 1 0.4238 26.686334 20.332275 39.368333
8381 2794 2 -0.8476 25.932445 20.988608 39.3387
8382 2794 1 0.4238 25.065609 20.497011 39.255471
8383 2795 1 0.4238 17.859834 12.475588 12.644446
8384 2795 2 -0.8476 18.639761 11.849901 12.629253
8385 2795 1 0.4238 19.376378 12.22167 13.194215
8386 2796 1 0.4238 27.088298 12.678425 4.042542
8387 2796 2 -0.8476 27.839206 12.130585 4.411336
8388 2796 1 0.4238 28.478861 12.726097 4.897346
8389 2797 1 0.4238 19.780586 5.458248 15.846946
8390 2797 2 -0.8476 20.078405 4.532549 15.613739
8391 2797 1 0.4238 19.834348 4.333046 14.664721
8392 2798 1 0.4238 45.02949 28.549215 24.958245
8393 2798 2 -0.8476 44.099222 28.604329 25.320963
8394 2798 1 0.4238 43.952245 29.506823 25.72581
8395 2799 1 0.4238 20.885785 47.024409 47.761461
8396 2799 2 -0.8476 20.403499 47.757481 47.281872
8397 2799 1 0.4238 19.442803 47.761713 47.559444
8398 2800 1 0.4238 16.581187 43.517417 46.43923
8399 2800 2 -0.8476 16.800851 42.604186 46.782387
8400 2800 1 0.4238 16.608121 42.561209 47.762697
8401 2801 1 0.4238 47.510182 24.760481 15.174237
8402 2801 2 -0.8476 47.059174 25.567404 15.555639
8403 2801 1 0.4238 47.749214 26.199552 15.908106
8404 2802 1 0.4238 19.138651 28.884385 11.780495
8405 2802 2 -0.8476 19.473998 27.952025 11.915578
8406 2802 1 0.4238 18.75331 27.395141 12.328481
8407 2803 1 0.4238 5.902 40.322191 17.495004
8408 2803 2 -0.8476 6.045394 40.579338 18.450678
8409 2803 1 0.4238 6.299716 39.769422 18.979219
8410 2804 1 0.4238 15.396023 26.702712 31.280121
8411 2804 2 -0.8476 16.135598 26.440846 30.660076
8412 2804 1 0.4238 15.9391 25.542312 30.267616
8413 2805 1 0.4238 31.966808 13.397503 46.261328
8414 2805 2 -0.8476 32.638537 13.419528 47.001797
8415 2805 1 0.4238 32.441227 12.686484 47.652731
8416 2806 1 0.4238 20.417636 21.198768 14.466151
8417 2806 2 -0.8476 21.343374 21.557738 14.347202
8418 2806 1 0.4238 21.300317 22.543556 14.185
8419 2807 1 0.4238 34.645556 47.760545 1.500032
8420 2807 2 -0.8476 35.439485 47.733989 2.107463
8421 2807 1 0.4238 35.132417 47.761694 3.058747
8422 2808 1 0.4238 34.86036 1.503319 38.127223
8423 2808 2 -0.8476 34.359552 2.003396 38.833703
8424 2808 1 0.4238 33.528424 1.500951 39.07198
8425 2809 1 0.4238 22.334404 27.475159 11.741935
8426 2809 2 -0.8476 21.890565 27.070705 10.942295
8427 2809 1 0.4238 21.678513 27.789124 10.279793
8428 2810 1 0.4238 43.196038 46.318214 14.631144
8429 2810 2 -0.8476 43.626691 46.800858 13.868521
8430 2810 1 0.4238 43.752744 47.762698 14.111364
8431 2811 1 0.4238 47.099657 23.461854 38.078108
8432 2811 2 -0.8476 47.166191 23.078031 37.157101
8433 2811 1 0.4238 46.257773 23.053608 36.739754
8434 2812 1 0.4238 37.698211 44.710454 23.686729
8435 2812 2 -0.8476 37.895178 43.74105 23.83322
8436 2812 1 0.4238 37.540092 43.208922 23.064615
8437 2813 1 0.4238 7.95441 47.757212 35.763801
8438 2813 2 -0.8476 7.727731 47.743759 36.737678
8439 2813 1 0.4238 8.570134 47.761027 37.276248
8440 2814 1 0.4238 26.006697 44.083274 10.207399
8441 2814 2 -0.8476 25.934711 43.280659 9.615261
8442 2814 1 0.4238 25.053272 42.833112 9.766149
8443 2815 1 0.4238 9.150047 43.825571 6.399178
8444 2815 2 -0.8476 9.632041 44.691881 6.268072
8445 2815 1 0.4238 9.071383 45.304209 5.710653
8446 2816 1 0.4238 12.832408 18.618443 45.355135
8447 2816 2 -0.8476 12.592773 17.862432 45.96425
8448 2816 1 0.4238 11.702602 18.041326 46.383288
8449 2817 1 0.4238 32.634392 34.77978 15.447484
8450 2817 2 -0.8476 32.313386 35.59853 15.923513
8451 2817 1 0.4238 32.706282 35.625244 16.842707
8452 2818 1 0.4238 39.252253 21.898056 40.541229
8453 2818 2 -0.8476 39.313716 20.910987 40.393183
8454 2818 1 0.4238 40.107443 20.708775 39.819503
8455 2819 1 0.4238 38.524921 33.707833 10.925852
8456 2819 2 -0.8476 37.881759 34.098081 11.584676
8457 2819 1 0.4238 37.580857 33.385778 12.218775
8458 2820 1 0.4238 39.296319 34.936158 44.840777
8459 2820 2 -0.8476 39.814103 35.658015 45.299931
8460 2820 1 0.4238 39.240811 36.472125 45.392458
8461 2821 1 0.4238 1.5106 3.477442 1.500319
8462 2821 2 -0.8476 1.500121 4.467762 1.638724
8463 2821 1 0.4238 1.535187 4.667861 2.617872
8464 2822 1 0.4238 19.949702 15.513974 42.547561
8465 2822 2 -0.8476 19.321214 15.648671 41.781493
8466 2822 1 0.4238 19.844855 15.773581 40.938761
8467 2823 1 0.4238 1.500009 47.757573 44.290041
8468 2823 2 -0.8476 2.112882 47.762776 43.499876
8469 2823 1 0.4238 3.062151 47.757052 43.81429
8470 2824 1 0.4238 19.248513 9.344754 9.800888
8471 2824 2 -0.8476 18.703016 8.902787 10.512996
8472 2824 1 0.4238 18.896497 9.331613 11.395421
8473 2825 1 0.4238 20.866191 42.11046 10.258848
8474 2825 2 -0.8476 21.586299 42.012502 9.571935
8475 2825 1 0.4238 22.307746 42.682349 9.747488
8476 2826 1 0.4238 39.567617 32.887868 6.874321
8477 2826 2 -0.8476 39.928601 32.501235 7.72297
8478 2826 1 0.4238 40.857702 32.165623 7.567621
8479 2827 1 0.4238 25.671791 7.324298 40.807011
8480 2827 2 -0.8476 25.526544 6.779957 41.633205
8481 2827 1 0.4238 24.999324 5.961523 41.404723
8482 2828 1 0.4238 29.847643 31.329384 10.152908
8483 2828 2 -0.8476 29.545398 30.88964 10.998646
8484 2828 1 0.4238 30.261419 30.274595 11.328848
8485 2829 1 0.4238 44.314455 5.018003 32.011862
8486 2829 2 -0.8476 44.469464 4.184444 32.542098
8487 2829 1 0.4238 43.842529 4.163387 33.320885
8488 2830 1 0.4238 5.788811 9.507751 34.367331
8489 2830 2 -0.8476 6.788549 9.53066 34.367898
8490 2830 1 0.4238 7.101115 10.432449 34.666357
8491 2831 1 0.4238 27.023913 43.344849 12.71337
8492 2831 2 -0.8476 27.677006 44.053415 12.446155
8493 2831 1 0.4238 27.239086 44.950373 12.506925
8494 2832 1 0.4238 26.032465 38.782426 18.131844
8495 2832 2 -0.8476 27.010353 38.834562 17.929319
8496 2832 1 0.4238 27.168044 39.524101 17.222447
8497 2833 1 0.4238 44.895727 12.921007 36.961045
8498 2833 2 -0.8476 45.089855 13.854644 37.262102
8499 2833 1 0.4238 44.409088 14.134982 37.938835
8500 2834 1 0.4238 40.632347 13.878241 14.09176
8501 2834 2 -0.8476 41.427382 14.316388 13.672299
8502 2834 1 0.4238 42.254925 13.81252 13.919865
8503 2835 1 0.4238 32.034762 21.887655 12.893109
8504 2835 2 -0.8476 32.647562 21.15914 12.586938
8505 2835 1 0.4238 32.263356 20.271588 12.841175
8506 2836 1 0.4238 2.232785 26.655563 47.762558
8507 2836 2 -0.8476 1.500102 27.203589 47.35902
8508 2836 1 0.4238 1.508 28.118885 47.761724
8509 2837 1 0.4238 15.455595 34.826706 3.722079
8510 2837 2 -0.8476 14.521258 35.009889 4.027787
8511 2837 1 0.4238 14.466894 35.938157 4.395705
8512 2838 1 0.4238 6.496801 41.466746 6.849738
8513 2838 2 -0.8476 6.689139 42.433906 6.683581
8514 2838 1 0.4238 5.901649 42.858374 6.236719
8515 2839 1 0.4238 47.761774 3.599525 35.025149
8516 2839 2 -0.8476 47.232875 4.197443 34.422853
8517 2839 1 0.4238 47.761915 4.390469 33.596501
8518 2840 1 0.4238 17.759269 27.546392 18.453246
8519 2840 2 -0.8476 18.210848 28.023975 19.206898
8520 2840 1 0.4238 17.717298 28.869928 19.408816
8521 2841 1 0.4238 29.811474 31.228732 40.310431
8522 2841 2 -0.8476 29.301096 31.388237 39.465403
8523 2841 1 0.4238 29.823841 31.998822 38.870488
8524 2842 1 0.4238 10.645279 38.656802 19.707669
8525 2842 2 -0.8476 10.228861 39.512311 20.015403
8526 2842 1 0.4238 10.917884 40.071431 20.476524
8527 2843 1 0.4238 47.760404 4.221878 47.412188
8528 2843 2 -0.8476 47.762745 5.171112 47.097625
8529 2843 1 0.4238 47.283575 5.743842 47.762738
8530 2844 1 0.4238 6.673468 17.808382 43.765005
8531 2844 2 -0.8476 7.161476 16.984888 44.054323
8532 2844 1 0.4238 8.122075 17.207743 44.22041
8533 2845 1 0.4238 35.103155 27.490675 46.966227
8534 2845 2 -0.8476 35.184245 28.466808 46.764759
8535 2845 1 0.4238 34.650354 28.683958 45.947565
8536 2846 1 0.4238 43.549745 24.803666 7.216852
8537 2846 2 -0.8476 44.333918 24.615358 6.625571
8538 2846 1 0.4238 44.115497 23.854523 6.014488
8539 2847 1 0.4238 12.024273 8.847774 27.280903
8540 2847 2 -0.8476 12.508136 9.641336 26.911937
8541 2847 1 0.4238 12.82873 9.43595 25.987255
8542 2848 1 0.4238 39.175548 7.12366 21.945127
8543 2848 2 -0.8476 40.124671 6.823937 22.041728
8544 2848 1 0.4238 40.519899 7.229123 22.866118
8545 2849 1 0.4238 37.334645 2.396928 41.003664
8546 2849 2 -0.8476 36.893999 1.500381 41.048786
8547 2849 1 0.4238 35.901464 1.618045 41.080867
8548 2850 1 0.4238 45.474221 46.267084 47.762752
8549 2850 2 -0.8476 45.218658 45.346436 47.467634
8550 2850 1 0.4238 44.223223 45.253612 47.489802
8551 2851 1 0.4238 22.802794 13.406002 20.688002
8552 2851 2 -0.8476 22.427581 14.332607 20.663127
8553 2851 1 0.4238 23.099442 14.95354 20.259339
8554 2852 1 0.4238 16.953919 5.257494 30.399231
8555 2852 2 -0.8476 16.318146 5.030597 29.661457
8556 2852 1 0.4238 15.414063 4.844283 30.046063
8557 2853 1 0.4238 33.986713 12.779117 10.685759
8558 2853 2 -0.8476 33.28034 12.696017 9.982814
8559 2853 1 0.4238 32.740477 13.537195 9.951702
8560 2854 1 0.4238 16.161303 12.265407 14.810284
8561 2854 2 -0.8476 16.725444 11.634748 15.343213
8562 2854 1 0.4238 17.674459 11.949918 15.337019
8563 2855 1 0.4238 28.373531 7.688839 39.581446
8564 2855 2 -0.8476 28.284616 8.116717 40.480898
8565 2855 1 0.4238 28.375285 9.108323 40.388718
8566 2856 1 0.4238 38.522424 16.629686 18.774163
8567 2856 2 -0.8476 38.397431 17.420545 18.175064
8568 2856 1 0.4238 38.858855 17.25471 17.303522
8569 2857 1 0.4238 23.54483 19.998096 11.608203
8570 2857 2 -0.8476 22.703928 19.525911 11.872635
8571 2857 1 0.4238 21.97889 20.197262 12.026282
8572 2858 1 0.4238 29.66744 47.695788 30.980326
8573 2858 2 -0.8476 30.10937 47.188267 31.720002
8574 2858 1 0.4238 30.155287 47.762653 32.537297
8575 2859 1 0.4238 7.344995 12.763113 14.449725
8576 2859 2 -0.8476 6.65499 12.403496 15.077872
8577 2859 1 0.4238 7.052265 12.308774 15.99067
8578 2860 1 0.4238 47.761731 3.477743 42.113824
8579 2860 2 -0.8476 47.227703 4.32244 42.149902
8580 2860 1 0.4238 47.762576 5.071857 41.759666
8581 2861 1 0.4238 23.77003 7.25053 3.995208
8582 2861 2 -0.8476 24.223781 8.019332 3.544594
8583 2861 1 0.4238 23.563701 8.508129 2.97418
8584 2862 1 0.4238 13.980105 36.956191 7.032827
8585 2862 2 -0.8476 13.659777 37.84447 7.361995
8586 2862 1 0.4238 12.687117 37.78569 7.586668
8587 2863 1 0.4238 13.211385 31.799792 35.698956
8588 2863 2 -0.8476 12.783678 32.358096 34.988068
8589 2863 1 0.4238 13.057554 32.018963 34.088079
8590 2864 1 0.4238 18.034613 1.500676 42.056021
8591 2864 2 -0.8476 18.356892 1.939744 42.894684
8592 2864 1 0.4238 19.203519 1.501296 43.19632
8593 2865 1 0.4238 6.130264 36.570044 27.246335
8594 2865 2 -0.8476 5.967368 37.544835 27.398805
8595 2865 1 0.4238 6.842455 38.015151 27.512931
8596 2866 1 0.4238 11.430542 33.012174 41.982686
8597 2866 2 -0.8476 12.332769 32.805812 42.36137
8598 2866 1 0.4238 12.726297 33.635952 42.756344
8599 2867 1 0.4238 28.659661 47.760329 21.077191
8600 2867 2 -0.8476 29.29798 47.725699 20.308199
8601 2867 1 0.4238 28.787072 47.758492 19.44919
8602 2868 1 0.4238 16.621998 30.246727 38.768905
8603 2868 2 -0.8476 17.070137 30.121391 39.654039
8604 2868 1 0.4238 16.95293 29.175297 39.95598
8605 2869 1 0.4238 26.357564 25.89062 19.276655
8606 2869 2 -0.8476 26.866482 26.692036 19.590878
8607 2869 1 0.4238 27.246938 26.510776 20.497739
8608 2870 1 0.4238 43.858445 11.535407 25.664591
8609 2870 2 -0.8476 44.170987 12.467089 25.479427
8610 2870 1 0.4238 43.381689 13.053352 25.296934
8611 2871 1 0.4238 12.691909 41.183617 15.475238
8612 2871 2 -0.8476 12.155818 42.026628 15.519276
8613 2871 1 0.4238 11.184581 41.800485 15.593815
8614 2872 1 0.4238 8.243022 34.297211 7.580002
8615 2872 2 -0.8476 7.353691 34.740818 7.469085
8616 2872 1 0.4238 7.466527 35.732768 7.526555
8617 2873 1 0.4238 23.345572 1.500059 1.50009
8618 2873 2 -0.8476 23.903978 1.76959 2.284651
8619 2873 1 0.4238 23.719157 2.725555 2.512621
8620 2874 1 0.4238 28.882057 32.384753 30.262957
8621 2874 2 -0.8476 28.332623 33.190394 30.041452
8622 2874 1 0.4238 27.43342 32.90072 29.713547
8623 2875 1 0.4238 20.410761 29.213717 6.372446
8624 2875 2 -0.8476 19.593879 29.78905 6.41361
8625 2875 1 0.4238 19.865168 30.750717 6.45359
8626 2876 1 0.4238 29.586067 44.607228 1.501517
8627 2876 2 -0.8476 30.414804 44.71808 2.050065
8628 2876 1 0.4238 31.213245 44.469693 1.501617
8629 2877 1 0.4238 18.658407 34.863485 46.030622
8630 2877 2 -0.8476 18.042861 34.398822 45.394076
8631 2877 1 0.4238 18.379278 33.473184 45.220822
8632 2878 1 0.4238 17.478151 1.500327 14.156096
8633 2878 2 -0.8476 18.248376 1.753736 14.741363
8634 2878 1 0.4238 19.105408 1.500362 14.292702
8635 2879 1 0.4238 18.186713 27.304875 5.716283
8636 2879 2 -0.8476 18.489407 27.483333 4.780052
8637 2879 1 0.4238 18.572353 26.617926 4.285896
8638 2880 1 0.4238 18.936128 47.759454 8.766492
8639 2880 2 -0.8476 19.488581 47.762035 7.932952
8640 2880 1 0.4238 18.886874 47.756023 7.134258
8641 2881 1 0.4238 40.984922 18.479342 36.685983
8642 2881 2 -0.8476 41.629292 19.135813 37.078199
8643 2881 1 0.4238 41.58757 19.088237 38.076195
8644 2882 1 0.4238 5.055319 18.655245 30.442069
8645 2882 2 -0.8476 5.628478 17.84361 30.329212
8646 2882 1 0.4238 6.223932 17.96389 29.534877
8647 2883 1 0.4238 11.797164 16.639642 8.865697
8648 2883 2 -0.8476 10.845869 16.642545 9.173966
8649 2883 1 0.4238 10.268652 16.215432 8.477981
8650 2884 1 0.4238 26.4597 47.762195 12.654655
8651 2884 2 -0.8476 27.436409 47.705593 12.447687
8652 2884 1 0.4238 27.960959 47.762149 13.297186
8653 2885 1 0.4238 18.25027 27.694238 9.46655
8654 2885 2 -0.8476 19.173604 27.407516 9.21112
8655 2885 1 0.4238 19.294841 27.514574 8.224287
8656 2886 1 0.4238 45.117485 36.562197 29.464863
8657 2886 2 -0.8476 45.843428 36.4263 30.139058
8658 2886 1 0.4238 45.447405 36.082786 30.990624
8659 2887 1 0.4238 13.145255 3.763594 40.378686
8660 2887 2 -0.8476 12.259701 3.440781 40.712731
8661 2887 1 0.4238 12.371182 2.542694 41.138184
8662 2888 1 0.4238 46.857901 1.500235 18.482127
8663 2888 2 -0.8476 46.253455 2.078187 17.933842
8664 2888 1 0.4238 45.642515 1.501454 17.391503
8665 2889 1 0.4238 44.95213 10.34878 31.160874
8666 2889 2 -0.8476 45.572488 11.035604 30.782154
8667 2889 1 0.4238 45.044862 11.826417 30.471952
8668 2890 1 0.4238 31.688849 5.609675 7.247064
8669 2890 2 -0.8476 32.097841 4.697431 7.223896
8670 2890 1 0.4238 31.761927 4.161776 7.998645
8671 2891 1 0.4238 33.368351 29.927868 43.714661
8672 2891 2 -0.8476 33.355064 30.926673 43.667633
8673 2891 1 0.4238 33.39925 31.215949 42.711408
8674 2892 1 0.4238 42.676306 33.137023 37.736104
8675 2892 2 -0.8476 42.505019 34.027142 38.158418
8676 2892 1 0.4238 42.474109 34.731919 37.449664
8677 2893 1 0.4238 35.93149 29.565917 29.759327
8678 2893 2 -0.8476 36.343865 30.100089 30.497301
8679 2893 1 0.4238 36.994233 30.754606 30.111776
8680 2894 1 0.4238 30.2554 35.146397 42.169448
8681 2894 2 -0.8476 30.597563 36.061006 41.954008
8682 2894 1 0.4238 30.59716 36.192067 40.962634
8683 2895 1 0.4238 24.990486 8.05706 27.595991
8684 2895 2 -0.8476 25.581944 7.447962 28.124363
8685 2895 1 0.4238 26.510632 7.482194 27.755084
8686 2896 1 0.4238 42.79453 40.533458 10.71827
8687 2896 2 -0.8476 43.02773 41.419288 10.317117
8688 2896 1 0.4238 42.214511 41.817429 9.892665
8689 2897 1 0.4238 38.020375 22.442964 12.581234
8690 2897 2 -0.8476 37.878127 22.948345 13.432325
8691 2897 1 0.4238 38.758147 23.275052 13.777038
8692 2898 1 0.4238 47.762061 27.203075 42.588255
8693 2898 2 -0.8476 47.759666 27.267565 43.58617
8694 2898 1 0.4238 47.761437 28.229911 43.857993
8695 2899 1 0.4238 39.334798 41.447508 1.50064
8696 2899 2 -0.8476 39.193725 40.641369 2.075304
8697 2899 1 0.4238 39.176194 39.822248 1.50195
8698 2900 1 0.4238 18.67211 47.759206 1.500013
8699 2900 2 -0.8476 18.946079 47.762776 2.461745
8700 2900 1 0.4238 18.318056 47.190744 2.989349
8701 2901 1 0.4238 30.535778 33.8886 13.690356
8702 2901 2 -0.8476 31.264929 33.242377 13.465112
8703 2901 1 0.4238 30.862936 32.385553 13.142229
8704 2902 1 0.4238 19.514395 36.852042 27.714389
8705 2902 2 -0.8476 20.160025 37.4896 28.134725
8706 2902 1 0.4238 19.655534 38.224937 28.587239
8707 2903 1 0.4238 27.856816 45.219271 4.589725
8708 2903 2 -0.8476 28.513725 45.528501 3.902087
8709 2903 1 0.4238 28.258158 46.441374 3.583736
8710 2904 1 0.4238 2.536255 4.524301 5.158025
8711 2904 2 -0.8476 1.572032 4.69256 5.362874
8712 2904 1 0.4238 1.500578 5.325163 6.134046
8713 2905 1 0.4238 9.277299 32.283179 9.140067
8714 2905 2 -0.8476 9.534372 31.481863 9.680257
8715 2905 1 0.4238 8.767956 31.213429 10.263824
8716 2906 1 0.4238 10.687417 26.463739 4.460161
8717 2906 2 -0.8476 9.834469 26.58552 4.967753
8718 2906 1 0.4238 9.077278 26.699766 4.324628
8719 2907 1 0.4238 36.252806 39.017289 27.17719
8720 2907 2 -0.8476 35.405601 38.558428 27.444942
8721 2907 1 0.4238 34.894182 39.143527 28.074314
8722 2908 1 0.4238 2.784464 7.51337 9.416945
8723 2908 2 -0.8476 1.838067 7.83043 9.478638
8724 2908 1 0.4238 1.528601 8.133353 8.577268
8725 2909 1 0.4238 40.538449 42.115747 18.676118
8726 2909 2 -0.8476 40.2119 42.060007 17.732582
8727 2909 1 0.4238 40.903143 42.439562 17.117668
8728 2910 1 0.4238 9.25298 12.210659 45.194026
8729 2910 2 -0.8476 10.072035 12.725122 44.940104
8730 2910 1 0.4238 10.803727 12.08823 44.697215
8731 2911 1 0.4238 44.861539 39.124176 19.409244
8732 2911 2 -0.8476 43.980287 39.213463 18.945109
8733 2911 1 0.4238 43.651307 38.30787 18.677391
8734 2912 1 0.4238 41.061085 35.158058 7.28714
8735 2912 2 -0.8476 41.935222 34.893111 6.880093
8736 2912 1 0.4238 42.476552 34.38818 7.552407
8737 2913 1 0.4238 1.504112 42.34616 9.059883
8738 2913 2 -0.8476 1.933693 41.513519 9.409408
8739 2913 1 0.4238 1.500776 41.251984 10.272068
8740 2914 1 0.4238 8.211068 3.808483 24.919621
8741 2914 2 -0.8476 8.489018 4.028284 25.854732
8742 2914 1 0.4238 8.747426 4.992869 25.907637
8743 2915 1 0.4238 47.764578 34.218663 31.654373
8744 2915 2 -0.8476 47.683164 34.964235 30.99294
8745 2915 1 0.4238 47.753244 34.596355 30.065711
8746 2916 1 0.4238 47.751254 5.703845 22.6595
8747 2916 2 -0.8476 47.76274 4.729815 22.433374
8748 2916 1 0.4238 47.758509 4.618269 21.439624
8749 2917 1 0.4238 12.365207 37.836641 33.96713
8750 2917 2 -0.8476 12.322131 37.105732 34.648244
8751 2917 1 0.4238 12.177869 37.502828 35.554612
8752 2918 1 0.4238 33.222317 10.138874 14.001459
8753 2918 2 -0.8476 32.442367 9.513633 13.974043
8754 2918 1 0.4238 32.772303 8.569843 13.953968
8755 2919 1 0.4238 46.8215 34.615479 13.635968
8756 2919 2 -0.8476 47.76265 34.531801 13.963435
8757 2919 1 0.4238 47.757689 34.288391 14.933345
8758 2920 1 0.4238 25.704483 42.407031 47.761373
8759 2920 2 -0.8476 24.840203 41.90402 47.761379
8760 2920 1 0.4238 24.07788 42.551216 47.761383
8761 2921 1 0.4238 1.501594 29.755878 39.836361
8762 2921 2 -0.8476 1.770301 29.333492 38.97069
8763 2921 1 0.4238 1.501484 28.370302 38.972183
8764 2922 1 0.4238 3.158485 26.114744 3.649119
8765 2922 2 -0.8476 3.333494 26.894436 4.250328
8766 2922 1 0.4238 4.287513 27.179423 4.15743
8767 2923 1 0.4238 14.073406 47.760245 13.291175
8768 2923 2 -0.8476 13.190289 47.733207 12.822801
8769 2923 1 0.4238 13.336501 47.760275 11.833918
8770 2924 1 0.4238 13.763537 36.890944 43.858045
8771 2924 2 -0.8476 14.492619 36.220296 43.721404
8772 2924 1 0.4238 15.25164 36.422348 44.340323
8773 2925 1 0.4238 44.913206 33.812242 1.508095
8774 2925 2 -0.8476 45.303076 32.951541 1.835503
8775 2925 1 0.4238 46.240801 32.861425 1.500018
8776 2926 1 0.4238 23.34519 42.663343 21.116608
8777 2926 2 -0.8476 22.663567 43.323157 20.800325
8778 2926 1 0.4238 23.125045 44.145503 20.467481
8779 2927 1 0.4238 13.348487 41.750022 2.157695
8780 2927 2 -0.8476 14.0001 41.371731 1.500202
8781 2927 1 0.4238 14.932104 41.577834 1.798344
8782 2928 1 0.4238 25.809236 26.376995 9.130998
8783 2928 2 -0.8476 25.252731 27.040811 9.630648
8784 2928 1 0.4238 24.405963 26.60425 9.934618
8785 2929 1 0.4238 28.355334 8.283965 18.445497
8786 2929 2 -0.8476 29.009231 8.72815 19.057967
8787 2929 1 0.4238 28.847847 9.715041 19.05875
8788 2930 1 0.4238 22.042098 8.728843 45.419325
8789 2930 2 -0.8476 21.299734 9.33718 45.138573
8790 2930 1 0.4238 20.447525 8.817431 45.07857
8791 2931 1 0.4238 25.817395 41.643753 19.519479
8792 2931 2 -0.8476 25.87839 42.481332 20.062378
8793 2931 1 0.4238 26.768473 42.520094 20.516525
8794 2932 1 0.4238 41.090642 8.855041 5.424739
8795 2932 2 -0.8476 42.062717 9.070758 5.517134
8796 2932 1 0.4238 42.606226 8.260284 5.298666
8797 2933 1 0.4238 25.07807 6.95116 12.713958
8798 2933 2 -0.8476 24.883171 7.714066 12.097526
8799 2933 1 0.4238 25.726549 8.219833 11.916105
8800 2934 1 0.4238 23.828254 42.213644 35.58335
8801 2934 2 -0.8476 22.977872 42.645742 35.883585
8802 2934 1 0.4238 22.602815 42.139446 36.660113
8803 2935 1 0.4238 5.657446 3.831401 39.578761
8804 2935 2 -0.8476 5.924387 4.163177 40.483564
8805 2935 1 0.4238 6.746864 4.726217 40.402836
8806 2936 1 0.4238 1.533884 6.795651 37.58861
8807 2936 2 -0.8476 2.040052 6.249833 36.92087
8808 2936 1 0.4238 1.501598 5.444929 36.671477
8809 2937 1 0.4238 18.229856 39.915327 1.500174
8810 2937 2 -0.8476 17.475807 40.572136 1.50365
8811 2937 1 0.4238 17.653264 41.279717 2.187638
8812 2938 1 0.4238 28.893281 17.249464 47.762452
8813 2938 2 -0.8476 28.142411 17.541927 47.170286
8814 2938 1 0.4238 27.35074 17.784447 47.731035
8815 2939 1 0.4238 29.043019 42.505436 47.762469
8816 2939 2 -0.8476 29.939784 42.062929 47.762697
8817 2939 1 0.4238 29.821485 41.069951 47.761945
8818 2940 1 0.4238 46.542483 21.786961 30.995101
8819 2940 2 -0.8476 46.8327 22.498448 30.355132
8820 2940 1 0.4238 47.762794 22.306072 30.042216
8821 2941 1 0.4238 8.63122 47.761023 27.010414
8822 2941 2 -0.8476 9.599394 47.748327 26.760458
8823 2941 1 0.4238 9.940536 46.808989 26.796056
8824 2942 1 0.4238 34.821543 26.91465 23.176286
8825 2942 2 -0.8476 34.292539 27.761538 23.230472
8826 2942 1 0.4238 33.332065 27.567956 23.030434
8827 2943 1 0.4238 23.438945 37.53072 4.11867
8828 2943 2 -0.8476 24.19432 38.182293 4.048945
8829 2943 1 0.4238 23.834508 39.114677 4.083521
8830 2944 1 0.4238 10.306424 29.095494 3.760181
8831 2944 2 -0.8476 9.604405 29.679052 3.351978
8832 2944 1 0.4238 8.699161 29.318749 3.577179
8833 2945 1 0.4238 41.722323 23.001513 41.033939
8834 2945 2 -0.8476 42.700871 23.086246 40.846151
8835 2945 1 0.4238 42.907525 24.025419 40.571838
8836 2946 1 0.4238 1.500231 24.039783 21.374687
8837 2946 2 -0.8476 2.331248 24.565989 21.194363
8838 2946 1 0.4238 3.021383 23.969226 20.78499
8839 2947 1 0.4238 45.354296 22.463279 8.03648
8840 2947 2 -0.8476 44.419529 22.474562 8.391562
8841 2947 1 0.4238 44.201929 21.581681 8.785786
8842 2948 1 0.4238 29.699661 29.759385 14.073348
8843 2948 2 -0.8476 29.171589 29.07112 14.570774
8844 2948 1 0.4238 28.759852 29.4883 15.380979
8845 2949 1 0.4238 13.583065 10.256349 14.000145
8846 2949 2 -0.8476 13.315309 10.691784 14.859623
8847 2949 1 0.4238 12.320601 10.790687 14.887442
8848 2950 1 0.4238 18.513895 22.653694 6.218015
8849 2950 2 -0.8476 18.161453 21.824145 5.784849
8850 2950 1 0.4238 17.873338 21.176453 6.490175
8851 2951 1 0.4238 13.927084 10.950915 3.729484
8852 2951 2 -0.8476 13.422404 10.183692 4.125296
8853 2951 1 0.4238 12.764812 10.527618 4.795584
8854 2952 1 0.4238 4.072928 30.65145 39.618967
8855 2952 2 -0.8476 4.122288 31.650203 39.626474
8856 2952 1 0.4238 5.07061 31.938069 39.492989
8857 2953 1 0.4238 4.641475 22.630775 19.03556
8858 2953 2 -0.8476 4.173496 22.754788 18.160565
8859 2953 1 0.4238 4.680409 22.279855 17.441206
8860 2954 1 0.4238 20.02261 28.291249 21.933757
8861 2954 2 -0.8476 19.136392 28.754417 21.943426
8862 2954 1 0.4238 18.404327 28.073208 21.949375
8863 2955 1 0.4238 7.838333 32.370239 27.045656
8864 2955 2 -0.8476 8.654297 32.52753 26.489363
8865 2955 1 0.4238 9.364906 32.950034 27.051969
8866 2956 1 0.4238 47.761419 9.75443 3.879423
8867 2956 2 -0.8476 47.670253 8.758805 3.899895
8868 2956 1 0.4238 46.720348 8.515029 4.095479
8869 2957 1 0.4238 46.622109 31.504876 28.257313
8870 2957 2 -0.8476 46.78962 32.334527 27.724753
8871 2957 1 0.4238 47.762799 32.397818 27.503584
8872 2958 1 0.4238 11.481866 40.045173 8.588237
8873 2958 2 -0.8476 11.796851 40.819537 8.03947
8874 2958 1 0.4238 12.275861 40.481136 7.229512
8875 2959 1 0.4238 2.001664 12.101542 33.055248
8876 2959 2 -0.8476 1.500116 11.856213 33.884865
8877 2959 1 0.4238 1.511777 12.627157 34.52166
8878 2960 1 0.4238 37.909252 10.833833 47.760509
8879 2960 2 -0.8476 37.359494 10.220211 47.193733
8880 2960 1 0.4238 36.673442 9.766408 47.762411
8881 2961 1 0.4238 24.266895 28.710331 27.932734
8882 2961 2 -0.8476 24.501227 29.306282 27.164665
8883 2961 1 0.4238 24.998817 28.780639 26.474663
8884 2962 1 0.4238 28.386777 11.132205 22.328943
8885 2962 2 -0.8476 28.37917 11.402427 23.291711
8886 2962 1 0.4238 28.861573 12.271942 23.397676
8887 2963 1 0.4238 23.085432 47.761018 13.730641
8888 2963 2 -0.8476 24.003992 47.37836 13.82974
8889 2963 1 0.4238 24.438705 47.761852 14.644576
8890 2964 1 0.4238 7.306432 23.107848 19.514025
8891 2964 2 -0.8476 7.802182 23.752056 18.931592
8892 2964 1 0.4238 8.530442 24.187473 19.460788
8893 2965 1 0.4238 47.762443 29.147117 8.291166
8894 2965 2 -0.8476 47.761683 28.834639 9.24109
8895 2965 1 0.4238 47.762424 27.834882 9.263103
8896 2966 1 0.4238 41.43829 31.468835 35.935257
8897 2966 2 -0.8476 42.051797 31.970518 35.325403
8898 2966 1 0.4238 42.51882 31.326819 34.719152
8899 2967 1 0.4238 29.064847 38.55413 22.405229
8900 2967 2 -0.8476 29.188911 39.508034 22.678499
8901 2967 1 0.4238 30.165552 39.719497 22.716668
8902 2968 1 0.4238 1.50066 24.401533 28.680332
8903 2968 2 -0.8476 1.508398 25.217191 29.258814
8904 2968 1 0.4238 1.500652 26.034512 28.682684
8905 2969 1 0.4238 4.884722 25.324096 36.901271
8906 2969 2 -0.8476 5.812381 25.691634 36.835211
8907 2969 1 0.4238 5.787613 26.577895 36.372688
8908 2970 1 0.4238 40.856435 6.825736 19.25057
8909 2970 2 -0.8476 39.961417 7.271129 19.274392
8910 2970 1 0.4238 39.243483 6.582093 19.175393
8911 2971 1 0.4238 12.319107 3.591611 12.584469
8912 2971 2 -0.8476 12.057421 3.117342 11.743881
8913 2971 1 0.4238 12.511575 2.227132 11.70824
8914 2972 1 0.4238 26.120098 28.559521 21.944204
8915 2972 2 -0.8476 25.67099 29.273366 22.481537
8916 2972 1 0.4238 25.902303 30.170004 22.104
8917 2973 1 0.4238 23.821556 5.273504 34.874276
8918 2973 2 -0.8476 23.833722 5.433816 35.861268
8919 2973 1 0.4238 24.651194 5.015217 36.256888
8920 2974 1 0.4238 29.512793 36.49854 19.995912
8921 2974 2 -0.8476 28.638003 36.669121 20.449392
8922 2974 1 0.4238 27.997722 37.074348 19.796834
8923 2975 1 0.4238 25.8276 13.98434 11.378513
8924 2975 2 -0.8476 24.864904 13.872119 11.132296
8925 2975 1 0.4238 24.394985 14.750909 11.215382
8926 2976 1 0.4238 18.421896 3.910228 22.05998
8927 2976 2 -0.8476 18.400556 3.565238 21.121617
8928 2976 1 0.4238 17.604806 2.971375 21.00284
8929 2977 1 0.4238 37.197296 15.950551 24.474897
8930 2977 2 -0.8476 37.298087 16.945372 24.488026
8931 2977 1 0.4238 36.393869 17.372215 24.474069
8932 2978 1 0.4238 4.43 19.330109 22.982385
8933 2978 2 -0.8476 4.226504 18.874015 22.116033
8934 2978 1 0.4238 3.857989 17.96234 22.297816
8935 2979 1 0.4238 27.572839 16.262394 1.507264
8936 2979 2 -0.8476 26.765165 15.672807 1.500082
8937 2979 1 0.4238 27.051795 14.714774 1.503893
8938 2980 1 0.4238 33.714003 11.944161 37.673339
8939 2980 2 -0.8476 33.559692 11.238576 36.98172
8940 2980 1 0.4238 34.19172 10.478732 37.133961
8941 2981 1 0.4238 35.844505 34.097205 2.758913
8942 2981 2 -0.8476 35.084273 33.836049 2.164063
8943 2981 1 0.4238 34.41761 33.306245 2.688342
8944 2982 1 0.4238 3.687629 41.893838 17.927164
8945 2982 2 -0.8476 4.184463 42.618524 17.449684
8946 2982 1 0.4238 4.854045 43.027787 18.069493
8947 2983 1 0.4238 47.753609 14.327314 19.024519
8948 2983 2 -0.8476 47.24146 14.740668 19.777408
8949 2983 1 0.4238 47.76211 15.507155 20.153469
8950 2984 1 0.4238 30.59468 29.262838 24.79437
8951 2984 2 -0.8476 30.789537 28.555764 24.114608
8952 2984 1 0.4238 30.362983 27.696215 24.396082
8953 2985 1 0.4238 1.721358 47.762786 18.039796
8954 2985 2 -0.8476 1.5016 46.837909 17.729461
8955 2985 1 0.4238 1.504413 46.812284 16.729794
8956 2986 1 0.4238 24.22518 47.762637 39.94235
8957 2986 2 -0.8476 24.014549 46.800288 40.114162
8958 2986 1 0.4238 24.770106 46.230772 39.790456
8959 2987 1 0.4238 34.705513 28.457524 2.112481
8960 2987 2 -0.8476 35.50938 28.653234 1.55079
8961 2987 1 0.4238 36.086899 27.838438 1.500001
8962 2988 1 0.4238 11.28927 5.814552 7.060593
8963 2988 2 -0.8476 11.70183 5.314407 6.299245
8964 2988 1 0.4238 12.389587 5.889556 5.856307
8965 2989 1 0.4238 28.631635 1.500389 44.979937
8966 2989 2 -0.8476 27.668313 1.639999 45.209109
8967 2989 1 0.4238 27.49277 2.616959 45.330485
8968 2990 1 0.4238 4.557512 32.589553 36.871666
8969 2990 2 -0.8476 3.957507 32.606554 36.07185
8970 2990 1 0.4238 3.749682 31.669543 35.791102
8971 2991 1 0.4238 22.953571 22.975687 29.481856
8972 2991 2 -0.8476 22.937769 21.978645 29.406635
8973 2991 1 0.4238 23.827815 21.610005 29.674817
8974 2992 1 0.4238 31.133938 7.34114 26.091994
8975 2992 2 -0.8476 31.821547 7.189073 25.382015
8976 2992 1 0.4238 31.535153 7.642594 24.538039
8977 2993 1 0.4238 42.075141 25.610199 1.502035
8978 2993 2 -0.8476 42.985238 26.024582 1.505278
8979 2993 1 0.4238 42.897924 27.020749 1.500036
8980 2994 1 0.4238 34.742434 20.668246 47.390056
8981 2994 2 -0.8476 33.961323 21.169237 47.762711
8982 2994 1 0.4238 34.130537 22.15216 47.690398
8983 2995 1 0.4238 2.222237 18.496265 13.967148
8984 2995 2 -0.8476 1.500643 19.187202 13.923463
8985 2995 1 0.4238 1.912127 20.092912 13.82163
8986 2996 1 0.4238 22.999872 28.621007 22.441653
8987 2996 2 -0.8476 22.476331 29.466086 22.333272
8988 2996 1 0.4238 23.105018 30.235516 22.220453
8989 2997 1 0.4238 45.973052 1.501777 32.273448
8990 2997 2 -0.8476 46.551589 2.05939 32.868732
8991 2997 1 0.4238 47.300838 1.500473 33.224031
8992 2998 1 0.4238 12.909503 9.012845 35.043886
8993 2998 2 -0.8476 12.894669 8.038894 34.817614
8994 2998 1 0.4238 11.973833 7.676968 34.962769
8995 2999 1 0.4238 34.924455 6.992157 10.822797
8996 2999 2 -0.8476 35.376317 7.777467 11.246011
8997 2999 1 0.4238 35.406 8.535774 10.59479
8998 3000 1 0.4238 21.664338 14.009132 13.299341
8999 3000 2 -0.8476 22.542456 13.654448 12.978238
9000 3000 1 0.4238 22.389806 13.030965 12.211448
9001 3001 1 0.4238 39.951127 2.424438 37.52756
9002 3001 2 -0.8476 39.578305 1.500006 37.607746
9003 3001 1 0.4238 38.801285 1.507415 38.237178
9004 3002 1 0.4238 22.521909 24.709744 16.384955
9005 3002 2 -0.8476 23.125149 23.964866 16.670012
9006 3002 1 0.4238 23.294628 23.357598 15.893802
9007 3003 1 0.4238 29.397421 21.954219 32.163206
9008 3003 2 -0.8476 30.332611 21.863352 31.820915
9009 3003 1 0.4238 30.36596 22.147701 30.862775
9010 3004 1 0.4238 11.209443 38.290795 45.101451
9011 3004 2 -0.8476 11.868284 37.771067 45.645335
9012 3004 1 0.4238 12.575972 38.387722 45.990173
9013 3005 1 0.4238 33.659839 42.230353 1.500326
9014 3005 2 -0.8476 33.667955 43.230272 1.510165
9015 3005 1 0.4238 34.613439 43.55594 1.509908
9016 3006 1 0.4238 27.31939 29.230291 34.698346
9017 3006 2 -0.8476 27.264773 30.123826 34.252686
9018 3006 1 0.4238 28.176564 30.532502 34.212419
9019 3007 1 0.4238 46.935619 23.562449 24.65342
9020 3007 2 -0.8476 47.762668 24.118054 24.568025
9021 3007 1 0.4238 47.50856 25.077682 24.447431
9022 3008 1 0.4238 34.221024 29.607551 32.173931
9023 3008 2 -0.8476 34.189153 30.604265 32.248397
9024 3008 1 0.4238 33.33413 30.940813 31.853846
9025 3009 1 0.4238 3.152868 9.899104 10.733212
9026 3009 2 -0.8476 2.579231 10.640093 10.384106
9027 3009 1 0.4238 1.616159 10.385163 10.47073
9028 3010 1 0.4238 12.457631 26.38415 21.139037
9029 3010 2 -0.8476 13.008795 26.08746 20.35917
9030 3010 1 0.4238 12.532071 26.312232 19.50934
9031 3011 1 0.4238 11.335722 12.086524 37.259032
9032 3011 2 -0.8476 11.70536 11.179104 37.458924
9033 3011 1 0.4238 12.526733 11.025372 36.909642
9034 3012 1 0.4238 41.571667 41.140909 34.733084
9035 3012 2 -0.8476 42.078905 41.368726 33.901935
9036 3012 1 0.4238 42.640196 42.179957 34.065813
9037 3013 1 0.4238 22.572886 47.735318 18.052012
9038 3013 2 -0.8476 21.666387 47.762633 17.630687
9039 3013 1 0.4238 20.966249 47.734772 18.34415
9040 3014 1 0.4238 1.500414 33.72081 40.620984
9041 3014 2 -0.8476 2.109294 32.990216 40.930013
9042 3014 1 0.4238 1.570691 32.174717 41.141832
9043 3015 1 0.4238 1.500722 21.621618 30.352073
9044 3015 2 -0.8476 1.504226 22.088748 31.236256
9045 3015 1 0.4238 1.500715 23.078071 31.090565
9046 3016 1 0.4238 24.575397 32.532672 22.567837
9047 3016 2 -0.8476 24.761931 33.51512 22.568786
9048 3016 1 0.4238 23.931617 34.011793 22.821561
9049 3017 1 0.4238 39.704867 11.942938 37.678687
9050 3017 2 -0.8476 38.827164 11.893427 37.202046
9051 3017 1 0.4238 38.496704 10.949636 37.209306
9052 3018 1 0.4238 47.761676 38.084371 31.322228
9053 3018 2 -0.8476 47.754468 38.822809 30.647945
9054 3018 1 0.4238 47.760841 39.704701 31.119354
9055 3019 1 0.4238 36.170181 29.50509 24.227885
9056 3019 2 -0.8476 36.003436 30.396432 24.649437
9057 3019 1 0.4238 35.323499 30.299435 25.376263
9058 3020 1 0.4238 1.500624 41.909921 3.87315
9059 3020 2 -0.8476 2.061326 42.019635 4.693867
9060 3020 1 0.4238 2.388511 42.962905 4.750366
9061 3021 1 0.4238 4.426661 29.931716 47.760144
9062 3021 2 -0.8476 3.506363 30.320506 47.716615
9063 3021 1 0.4238 3.568172 31.315867 47.642898
9064 3022 1 0.4238 28.442179 47.762471 28.521726
9065 3022 2 -0.8476 27.679444 47.140513 28.698936
9066 3022 1 0.4238 27.229965 46.909929 27.835918
9067 3023 1 0.4238 44.392518 10.372301 17.036085
9068 3023 2 -0.8476 44.232295 11.357167 16.969988
9069 3023 1 0.4238 44.986543 11.784872 16.471813
9070 3024 1 0.4238 34.918657 43.332466 8.061426
9071 3024 2 -0.8476 35.892619 43.230091 8.263707
9072 3024 1 0.4238 36.003814 42.736723 9.126391
9073 3025 1 0.4238 37.912131 45.647404 14.733754
9074 3025 2 -0.8476 37.971177 45.819291 15.7171
9075 3025 1 0.4238 38.34139 46.73493 15.873776
9076 3026 1 0.4238 47.762177 20.973476 41.169696
9077 3026 2 -0.8476 47.264729 20.821297 40.315655
9078 3026 1 0.4238 47.762064 21.247164 39.559814
9079 3027 1 0.4238 3.743371 41.488795 38.16574
9080 3027 2 -0.8476 4.150264 42.390481 38.312027
9081 3027 1 0.4238 4.421644 42.780433 37.432089
9082 3028 1 0.4238 14.728137 11.14419 29.378199
9083 3028 2 -0.8476 15.126224 11.340393 30.274319
9084 3028 1 0.4238 15.280672 12.324478 30.362196
9085 3029 1 0.4238 37.682427 2.686299 35.997725
9086 3029 2 -0.8476 38.382739 2.68279 35.283897
9087 3029 1 0.4238 38.709766 3.615713 35.133209
9088 3030 1 0.4238 46.563108 16.11156 42.446701
9089 3030 2 -0.8476 47.528747 16.117577 42.706518
9090 3030 1 0.4238 47.762163 17.006207 43.101299
9091 3031 1 0.4238 39.102848 23.598226 1.500181
9092 3031 2 -0.8476 39.670328 24.327724 1.882016
9093 3031 1 0.4238 39.680095 24.255022 2.879322
9094 3032 1 0.4238 15.000313 27.833533 8.911032
9095 3032 2 -0.8476 14.65908 28.073143 8.002105
9096 3032 1 0.4238 14.055921 27.347681 7.67059
9097 3033 1 0.4238 40.01834 40.635135 11.048146
9098 3033 2 -0.8476 39.74579 39.851089 10.490484
9099 3033 1 0.4238 38.779855 39.935698 10.245918
9100 3034 1 0.4238 36.294956 1.50031 14.240226
9101 3034 2 -0.8476 36.590421 1.953687 15.081148
9102 3034 1 0.4238 37.57808 1.841843 15.190792
9103 3035 1 0.4238 31.848247 32.649538 19.931579
9104 3035 2 -0.8476 32.490613 32.065646 19.435156
9105 3035 1 0.4238 32.70262 31.258992 19.986846
9106 3036 1 0.4238 19.958412 25.147508 11.299886
9107 3036 2 -0.8476 19.627213 24.792426 12.174086
9108 3036 1 0.4238 20.20618 25.135137 12.913914
9109 3037 1 0.4238 30.103904 20.916497 14.592424
9110 3037 2 -0.8476 30.341445 21.769779 15.056627
9111 3037 1 0.4238 29.946331 22.541499 14.558296
9112 3038 1 0.4238 22.568835 30.549875 12.556355
9113 3038 2 -0.8476 21.717738 30.098014 12.289043
9114 3038 1 0.4238 21.21072 30.687411 11.660122
9115 3039 1 0.4238 23.397969 45.345977 27.072919
9116 3039 2 -0.8476 23.236435 44.827093 27.912363
9117 3039 1 0.4238 23.235566 43.848911 27.704617
9118 3040 1 0.4238 47.759731 35.886584 47.051184
9119 3040 2 -0.8476 47.762582 36.793083 46.628987
9120 3040 1 0.4238 47.761614 36.697181 45.633597
9121 3041 4 -1 36.872016 30.620903 46.501776
9122 3042 4 -1 39.722388 31.64458 25.770029
9123 3043 4 -1 37.685313 43.861613 1.50049
9124 3044 4 -1 10.288573 46.091981 41.480928
9125 3045 4 -1 8.933481 12.412608 23.695
9126 3046 4 -1 36.221768 45.778656 25.990986
9127 3047 4 -1 17.781185 45.9703 5.390255
9128 3048 4 -1 3.460375 47.761869 2.806311
9129 3049 4 -1 5.033822 8.269485 14.296775
9130 3050 4 -1 23.589127 17.382585 28.912042
9131 3051 4 -1 1.500058 27.836263 6.066389
9132 3052 4 -1 17.118995 29.164436 7.436737
9133 3053 4 -1 11.376331 26.921212 37.449726
9134 3054 4 -1 24.558388 36.629257 17.26478
9135 3055 4 -1 41.96858 25.475794 42.744877
9136 3056 4 -1 42.443 23.300336 24.620451
9137 3057 4 -1 45.321614 27.085395 11.000484
9138 3058 4 -1 18.423492 31.424684 1.500462
9139 3059 4 -1 12.641563 20.818642 32.782419
9140 3060 4 -1 39.911028 22.728929 44.916915
9141 3061 4 -1 21.853738 42.965194 13.858592
9142 3062 4 -1 42.32816 19.767242 33.508153
9143 3063 4 -1 13.860889 4.586914 7.838541
9144 3064 4 -1 15.366999 33.292286 34.870594
9145 3065 4 -1 28.877344 8.400707 24.932682
9146 3066 4 -1 17.499136 32.274454 14.714493
9147 3067 4 -1 11.659128 11.97324 25.807252
9148 3068 4 -1 37.915494 21.183757 42.835682
9149 3069 4 -1 7.176944 26.760452 19.8356
9150 3070 4 -1 25.123014 45.094408 47.762759
9151 3071 4 -1 7.866858 29.296588 39.520927
9152 3072 4 -1 15.497409 30.822836 33.667763
9153 3073 4 -1 1.541381 15.358209 18.79803
9154 3074 4 -1 40.326266 47.762766 22.538544
9155 3075 4 -1 47.762687 15.840642 13.874577
9156 3076 4 -1 45.201651 21.328453 33.759378
9157 3077 4 -1 1.500126 47.762416 36.818085
9158 3078 4 -1 22.27657 27.718764 43.050995
9159 3079 4 -1 24.25381 5.313864 10.664134
9160 3080 4 -1 19.871411 29.368535 43.377533
9161 3081 4 -1 34.343621 2.434329 16.591063
9162 3082 4 -1 2.337188 45.582749 3.930747
9163 3083 4 -1 4.089866 4.214106 9.373818
9164 3084 4 -1 29.80143 42.965717 43.362784
9165 3085 4 -1 14.313051 47.762143 22.983088
9166 3086 4 -1 28.931737 38.598739 33.813598
9167 3087 4 -1 2.747505 42.284586 28.516681
9168 3088 4 -1 39.993814 38.868191 21.351048
9169 3089 4 -1 43.424418 6.227844 47.761949
9170 3090 4 -1 17.048009 37.381026 28.809522
9171 3091 4 -1 37.776535 39.490806 12.767172
9172 3092 4 -1 26.479275 22.730367 5.134615
9173 3093 4 -1 1.500561 15.971578 13.083867
9174 3094 4 -1 2.466451 33.829484 47.76262
9175 3095 4 -1 25.131002 30.849584 24.669161
9176 3096 4 -1 37.646098 47.762764 21.923171
9177 3097 4 -1 34.08269 41.697131 15.726515
9178 3098 4 -1 39.106839 14.918028 27.908686
9179 3099 4 -1 2.724726 18.547148 34.212004
9180 3100 4 -1 39.335192 25.945641 30.370833
9181 3101 4 -1 19.899205 21.990528 11.884759
9182 3102 4 -1 7.83275 44.020484 45.810019
9183 3103 4 -1 21.520927 11.887589 25.930956
9184 3104 4 -1 20.644826 36.548562 32.536217
9185 3105 4 -1 25.878969 38.119923 40.196696
9186 3106 4 -1 11.025608 37.316801 26.127696
9187 3107 4 -1 10.54004 47.762639 8.047069
9188 3108 4 -1 21.516206 15.478363 45.673871
9189 3109 4 -1 12.502002 3.131225 23.600735
9190 3110 4 -1 39.419847 13.611589 30.330202
9191 3111 4 -1 42.483115 19.637181 19.984117
9192 3112 4 -1 40.410678 26.685427 47.762781
9193 3113 4 -1 7.256273 34.19204 12.905357
9194 3114 4 -1 31.559243 26.75086 37.03987
9195 3115 4 -1 42.55185 4.670024 19.4404
9196 3116 4 -1 11.368784 46.555257 10.368846
9197 3117 4 -1 3.985892 38.837961 38.855892
9198 3118 4 -1 33.020499 30.975132 39.998544
9199 3119 4 -1 1.500193 13.524145 5.965904
9200 3120 4 -1 44.054167 39.974624 28.078381
9201 3121 4 -1 40.331215 45.708179 8.619512
9202 3122 4 -1 8.822297 7.653242 47.762037
9203 3123 4 -1 33.609315 4.399518 20.952314
9204 3124 4 -1 31.905045 8.861717 44.538764
9205 3125 4 -1 47.762687 47.762722 47.586673
9206 3126 4 -1 3.695213 38.977085 18.434405
9207 3127 4 -1 30.194441 5.987997 33.44601
9208 3128 4 -1 16.98874 38.971619 22.787949
9209 3129 4 -1 4.50673 24.994788 45.055054
9210 3130 4 -1 7.659736 45.297839 41.609215
9211 3131 4 -1 30.721262 19.345027 44.028655
9212 3132 4 -1 18.074635 1.500212 18.737768
9213 3133 4 -1 16.809861 20.105194 15.649177
9214 3134 4 -1 14.054115 40.622321 43.338612
9215 3135 4 -1 33.66052 19.22177 34.160464
9216 3136 4 -1 3.429481 24.81906 31.961688
9217 3137 4 -1 22.913509 16.453621 13.147941
9218 3138 4 -1 22.571243 10.734145 8.669863
9219 3139 4 -1 47.762575 30.75169 16.635614
9220 3140 4 -1 31.668191 19.148306 39.016703
9221 3141 4 -1 23.615629 8.879422 6.374887
9222 3142 4 -1 27.082055 11.955427 41.11973
9223 3143 4 -1 40.68856 24.44997 20.801821
9224 3144 4 -1 7.542872 28.979003 30.093198
9225 3145 4 -1 18.474677 12.982198 36.084855
9226 3146 4 -1 2.372096 10.468023 26.179283
9227 3147 4 -1 39.992424 2.74345 40.385331
9228 3148 4 -1 23.125749 14.72649 15.524037
9229 3149 4 -1 37.162486 13.685545 7.342251
9230 3150 4 -1 13.40456 30.795351 46.847102
9231 3151 4 -1 17.392683 12.020192 40.439799
9232 3152 4 -1 30.710566 36.93958 29.315183
9233 3153 4 -1 36.980302 14.031751 31.583232
9234 3154 4 -1 33.69715 10.30661 29.661257
9235 3155 4 -1 19.704299 36.084138 41.149745
9236 3156 4 -1 11.446088 13.887732 18.673139
9237 3157 4 -1 37.305314 18.186692 15.235255
9238 3158 4 -1 29.192666 8.784048 45.173297
9239 3159 4 -1 35.21966 28.407525 27.369101
9240 3160 4 -1 13.525814 25.336641 23.631178
9241 3161 8 1 46.670644 32.558792 34.339044
9242 3162 8 1 8.903514 45.243373 36.311079
9243 3163 8 1 13.249898 33.786936 31.124195
9244 3164 8 1 27.759386 37.811862 15.154703
9245 3165 8 1 25.951051 47.762535 21.54868
9246 3166 8 1 34.026616 41.979346 4.186857
9247 3167 8 1 22.572651 7.072591 17.278059
9248 3168 8 1 14.167252 10.873774 7.134399
9249 3169 8 1 40.688927 33.227242 21.071413
9250 3170 8 1 10.483152 17.304489 42.813935
9251 3171 8 1 8.023162 47.762564 6.939337
9252 3172 8 1 36.846963 5.343714 9.751602
9253 3173 8 1 39.396377 27.216856 6.094771
9254 3174 8 1 11.517032 44.570416 36.834958
9255 3175 8 1 14.419796 6.82875 24.906415
9256 3176 8 1 7.662295 31.475987 12.767979
9257 3177 8 1 29.70054 12.866741 47.762411
9258 3178 8 1 15.752432 6.400046 1.500021
9259 3179 8 1 14.643278 15.802507 45.193169
9260 3180 8 1 18.482225 10.062099 38.845709
9261 3181 8 1 39.265294 30.202871 47.762411
9262 3182 8 1 16.396136 40.957897 4.596845
9263 3183 8 1 45.24807 2.059885 12.041262
9264 3184 8 1 17.200444 20.464766 41.329452
9265 3185 8 1 37.55574 19.822753 47.762739
9266 3186 8 1 41.170167 24.135004 29.414471
9267 3187 8 1 3.862077 12.849955 37.974476
9268 3188 8 1 7.09105 5.277584 37.730799
9269 3189 8 1 39.105543 11.427312 4.788991
9270 3190 8 1 11.65115 4.183224 3.793738
9271 3191 8 1 38.980686 1.500567 47.762605
9272 3192 8 1 21.901393 4.990354 3.457512
9273 3193 8 1 45.499527 38.110988 23.755978
9274 3194 8 1 6.746863 32.877097 43.864146
9275 3195 8 1 20.55304 33.306894 18.155524
9276 3196 8 1 11.356054 27.181675 7.17942
9277 3197 8 1 22.138444 17.202189 47.757966
9278 3198 8 1 17.903315 29.205139 14.216023
9279 3199 8 1 5.62573 15.374728 9.145361
9280 3200 8 1 17.765342 37.275261 45.057042
9281 3201 8 1 31.889432 21.61482 42.764092
9282 3202 8 1 42.43408 28.577117 18.772734
9283 3203 8 1 12.223934 43.178666 6.693976
9284 3204 8 1 46.236245 37.392116 8.701021
9285 3205 8 1 11.595484 41.851605 43.392141
9286 3206 8 1 34.186382 44.147129 40.52195
9287 3207 8 1 25.225268 18.942582 13.512013
9288 3208 8 1 38.757249 13.973215 45.346182
9289 3209 8 1 22.943261 25.774033 36.266086
9290 3210 8 1 14.414466 36.038608 1.500288
9291 3211 8 1 15.719615 38.458937 1.500251
9292 3212 8 1 6.214437 3.544598 1.500172
9293 3213 8 1 29.103782 33.689679 11.351432
9294 3214 8 1 19.628193 45.620741 31.121845
9295 3215 8 1 29.408849 14.736739 34.520766
9296 3216 8 1 4.751856 33.470693 17.3386
9297 3217 8 1 3.513934 34.222961 33.889996
9298 3218 8 1 13.48568 6.004355 47.762653
9299 3219 8 1 41.767444 12.634348 19.147859
9300 3220 8 1 9.403286 13.236675 21.114395
9301 3221 8 1 42.819098 34.66152 31.082922
9302 3222 8 1 8.776193 6.009132 8.159804
9303 3223 8 1 6.166459 33.287782 5.459244
9304 3224 8 1 42.033148 3.8362 12.331299
9305 3225 8 1 41.337668 8.284521 38.927393
9306 3226 8 1 36.448371 4.810967 41.832917
9307 3227 8 1 29.739116 3.586735 3.860877
9308 3228 8 1 29.86555 6.202736 17.471309
9309 3229 8 1 43.190541 47.762321 29.16192
9310 3230 8 1 20.539662 44.298039 28.008483
9311 3231 8 1 46.313976 21.273086 23.267285
9312 3232 8 1 29.480681 32.229049 27.583957
9313 3233 8 1 19.57802 29.602586 40.65436
9314 3234 8 1 24.706818 27.322458 24.162361
9315 3235 8 1 21.985944 18.273842 8.217471
9316 3236 8 1 5.364794 7.990521 43.774611
9317 3237 8 1 35.213022 24.749833 8.268693
9318 3238 8 1 11.906529 18.938987 10.368979
9319 3239 8 1 45.02516 28.830887 19.654505
9320 3240 8 1 46.617748 31.602481 8.744559
9321 3241 8 1 8.763469 12.259216 29.596786
9322 3242 8 1 36.756921 45.121029 40.449708
9323 3243 8 1 15.226462 42.983002 44.119142
9324 3244 8 1 1.550092 4.240222 47.762768
9325 3245 8 1 11.14806 38.370573 31.233221
9326 3246 8 1 24.795891 28.963736 39.429175
9327 3247 8 1 24.61862 17.49105 11.257144
9328 3248 8 1 31.531298 11.284441 43.292692
9329 3249 8 1 35.165175 10.740583 21.475508
9330 3250 8 1 8.780199 7.708817 33.843391
9331 3251 8 1 33.091814 42.026749 34.940138
9332 3252 8 1 40.754817 40.564346 38.972411
9333 3253 8 1 33.194057 22.7748 8.123399
9334 3254 8 1 7.044647 23.243998 36.612207
9335 3255 8 1 36.726058 3.352128 26.731376
9336 3256 8 1 43.894799 45.710122 36.381128
9337 3257 8 1 5.199447 33.526292 47.762576
9338 3258 8 1 31.63258 28.768227 15.759306
9339 3259 8 1 9.076071 12.787535 17.815824
9340 3260 8 1 24.463131 42.359915 14.732248
9341 3261 8 1 13.700286 36.615254 47.762741
9342 3262 8 1 25.941368 22.389883 34.841875
9343 3263 8 1 15.135441 20.460525 37.099981
9344 3264 8 1 27.865356 11.164164 14.984935
9345 3265 8 1 36.704292 11.266229 6.119317
9346 3266 8 1 45.433071 9.824597 13.649572
9347 3267 8 1 46.042192 42.331617 45.078468
9348 3268 8 1 44.226974 22.627618 38.605519
9349 3269 8 1 36.551704 8.607 22.518302
9350 3270 8 1 36.573986 45.122513 21.202564
9351 3271 8 1 8.755979 28.067764 7.295028
9352 3272 8 1 43.2988 16.439208 36.931614
9353 3273 8 1 20.626133 47.761766 23.006891
9354 3274 8 1 39.03514 26.235992 15.894442
9355 3275 8 1 1.5001 1.500188 24.600789
9356 3276 8 1 34.647995 40.401106 37.520573
9357 3277 8 1 6.686628 40.6628 1.500129
9358 3278 8 1 10.768826 29.301675 43.050364
9359 3279 8 1 4.196888 26.409941 20.424939
9360 3280 8 1 38.299252 43.704353 18.82547
9361 3281 8 1 45.858233 32.45307 15.645474
9362 3282 8 1 44.333817 22.223907 26.302296
9363 3283 8 1 11.476329 29.12143 19.203802
9364 3284 8 1 21.180206 47.762604 36.317098
9365 3285 8 1 23.858552 29.703688 3.194564
9366 3286 8 1 26.386055 28.302548 14.659171
9367 3287 8 1 26.860896 8.073219 2.767758
9368 3288 8 1 22.543639 20.474195 42.204088
9369 3289 8 1 20.527735 8.10211 15.736619
9370 3290 8 1 10.420897 16.587294 32.327993
9371 3291 8 1 33.227982 11.094104 45.447272
9372 3292 8 1 29.656395 20.951104 11.879466
9373 3293 8 1 14.751748 14.15227 33.557663
9374 3294 8 1 47.762387 25.272734 40.028325
9375 3295 8 1 42.675974 13.325901 8.038284
9376 3296 8 1 38.832496 4.935284 37.54239
9377 3297 8 1 28.802619 4.16852 32.184242
9378 3298 8 1 30.032722 22.445426 17.707899
9379 3299 8 1 30.878566 15.350007 47.761338
9380 3300 8 1 29.990958 35.786953 17.383497
9381 3301 8 1 20.972479 4.25776 35.679152
9382 3302 8 1 20.93102 4.353159 23.355411
9383 3303 8 1 6.928179 36.919463 13.027662
9384 3304 8 1 25.17352 23.631325 30.965274
9385 3305 8 1 10.765548 35.300816 21.945623
9386 3306 8 1 40.167367 39.201067 4.20371
9387 3307 8 1 28.722605 15.653379 15.625392
9388 3308 8 1 42.254827 6.429365 40.803825
9389 3309 8 1 34.771342 14.34506 38.497882
9390 3310 8 1 14.704763 38.922398 29.49248
9391 3311 8 1 20.222716 40.838105 14.471042
9392 3312 8 1 47.76226 12.070555 40.703384
9393 3313 8 1 47.762651 3.966174 12.897255
9394 3314 8 1 6.700806 38.079466 22.084819
9395 3315 8 1 31.707283 41.471051 11.114017
9396 3316 8 1 43.755354 47.762617 7.275518
9397 3317 8 1 8.833914 12.528084 11.753339
9398 3318 8 1 35.780482 10.281319 41.196317
9399 3319 8 1 38.366644 14.922666 33.78448
9400 3320 8 1 39.400447 20.723257 36.809414
9401 3321 8 1 41.911224 22.807141 9.686836
9402 3322 8 1 30.368033 9.502248 21.33917
9403 3323 8 1 33.156567 19.816289 21.214378
9404 3324 8 1 11.757366 12.197241 34.54412
9405 3325 8 1 26.063788 3.703956 1.500401
9406 3326 8 1 38.136114 35.818341 30.083511
9407 3327 8 1 22.150503 32.579445 47.762487
9408 3328 8 1 42.862867 44.208524 16.346306
9409 3329 8 1 28.565205 28.225871 12.025682
9410 3330 8 1 40.903396 33.849626 16.94468
9411 3331 8 1 20.620481 17.903176 12.697296
9412 3332 8 1 43.506073 45.658211 18.591484
9413 3333 8 1 35.88048 28.645749 10.347622
9414 3334 8 1 37.831161 25.780165 13.127695
9415 3335 8 1 6.33509 15.46615 18.106124
9416 3336 8 1 12.255908 5.479199 10.349398
9417 3337 8 1 32.982156 32.763872 33.882034
9418 3338 8 1 23.494126 12.417916 35.322847
9419 3339 8 1 45.072587 28.902093 30.946165
9420 3340 8 1 36.209368 35.707586 19.283832
9421 3341 8 1 40.952972 35.163324 47.762614
9422 3342 8 1 19.265948 36.452056 1.500172
9423 3343 8 1 33.638323 15.753346 20.132084
9424 3344 8 1 7.483901 44.485587 31.163184
9425 3345 8 1 15.91198 43.486267 20.607742
9426 3346 8 1 25.160128 19.49844 28.129485
9427 3347 8 1 11.48007 34.686207 26.78728
9428 3348 8 1 2.719734 34.867641 21.931633
9429 3349 8 1 5.781285 42.224889 45.452236
9430 3350 8 1 11.95117 21.608281 14.560313
9431 3351 8 1 46.17019 10.588787 6.373886
9432 3352 8 1 14.029692 23.72072 11.104129
9433 3353 8 1 26.066821 6.558234 38.196121
9434 3354 8 1 22.342497 18.429695 33.590417
9435 3355 8 1 47.762474 9.773784 19.109157
9436 3356 8 1 24.309273 17.002739 7.48116
9437 3357 8 1 14.512693 6.273055 44.409409
9438 3358 8 1 7.61591 15.097837 25.20304
9439 3359 8 1 31.682157 41.815837 25.158846
9440 3360 8 1 19.251158 8.406447 30.82049
9441 3361 8 1 6.621922 47.761821 17.948084
9442 3362 8 1 27.409404 11.909842 19.879124
9443 3363 8 1 8.712506 45.879066 21.267434
9444 3364 8 1 8.479955 2.672284 43.111404
9445 3365 8 1 27.918982 18.99014 1.50023
9446 3366 8 1 41.230805 36.686092 13.140652
9447 3367 8 1 5.547432 45.435598 45.230202
9448 3368 8 1 12.020093 1.500422 21.462326
9449 3369 8 1 26.680122 27.391039 1.82816
9450 3370 8 1 28.538678 29.913547 31.558853
9451 3371 8 1 1.500151 38.0392 40.819679
9452 3372 8 1 6.674946 5.389424 6.498117
9453 3373 8 1 21.933601 25.1669 26.29318
9454 3374 8 1 16.51407 17.215584 14.002769
9455 3375 8 1 41.388861 33.539855 26.861719
9456 3376 8 1 26.465495 26.864991 45.749418
9457 3377 8 1 20.797014 16.407387 19.879592
9458 3378 8 1 5.025864 40.221245 43.727088
9459 3379 8 1 36.093338 14.59795 29.042731
9460 3380 8 1 24.662325 40.943011 17.124562
9461 3381 8 1 1.500055 25.125816 5.603688
9462 3382 8 1 21.813323 44.249255 42.619242
9463 3383 8 1 1.500181 26.259284 19.187623
9464 3384 8 1 36.462073 42.590424 47.762357
9465 3385 8 1 41.536305 31.93849 47.762761
9466 3386 8 1 25.323255 30.948898 19.531382
9467 3387 8 1 29.109358 45.40079 44.547081
9468 3388 8 1 19.480778 6.444615 42.895476
9469 3389 8 1 44.421754 14.612361 41.612653
9470 3390 8 1 7.899307 16.666274 14.010466
9471 3391 8 1 13.840722 41.956096 4.836254
9472 3392 8 1 14.213472 20.687735 30.530009
9473 3393 8 1 4.049525 38.031285 45.072955
9474 3394 8 1 8.550833 24.76204 1.820278
9475 3395 8 1 29.221209 2.09209 29.455767
9476 3396 8 1 24.37927 43.09647 30.089486
9477 3397 8 1 39.20305 16.551462 40.538583
9478 3398 8 1 42.947975 8.040294 45.895422
9479 3399 8 1 8.083379 14.856611 16.072837
9480 3400 8 1 40.664076 21.164761 42.784239
9481 3401 8 1 28.304782 21.006541 22.426649
9482 3402 8 1 11.193629 24.025058 20.242812
9483 3403 8 1 36.630316 17.233469 47.762391
9484 3404 8 1 38.973039 22.657542 5.119636
9485 3405 8 1 38.482113 9.172551 6.233277
9486 3406 8 1 23.141973 20.771839 20.382992
9487 3407 8 1 16.705008 41.092343 42.778448
9488 3408 8 1 41.781907 10.265167 40.902196
9489 3409 8 1 26.951286 47.76182 40.314877
9490 3410 8 1 6.95267 25.673083 5.736576
9491 3411 8 1 8.805865 35.971356 27.035277
9492 3412 8 1 21.542313 13.627301 28.060121
9493 3413 8 1 29.487458 14.390554 31.794358
9494 3414 8 1 21.120975 2.355936 31.214585
9495 3415 8 1 43.658492 23.440769 43.494275
9496 3416 8 1 11.868766 3.573177 31.878737
9497 3417 8 1 13.03078 9.025437 29.813254
9498 3418 8 1 28.209328 33.547249 43.790876
9499 3419 8 1 13.912963 43.039087 17.374827
9500 3420 8 1 41.381424 6.667725 3.421594
9501 3421 8 1 27.630478 39.01674 37.660486
9502 3422 8 1 1.512268 32.107543 38.393663
9503 3423 8 1 45.162271 28.31256 8.545137
9504 3424 8 1 31.706967 44.897863 43.79983
9505 3425 8 1 13.425574 4.06909 28.312691
9506 3426 8 1 19.869948 18.905096 32.485307
9507 3427 8 1 5.437721 1.500091 4.068025
9508 3428 8 1 45.652046 19.157494 9.204158
9509 3429 8 1 18.817224 43.060363 17.589927
9510 3430 8 1 33.262075 47.220216 4.987064
9511 3431 8 1 45.162993 6.251774 29.213526
9512 3432 8 1 6.280532 13.514051 1.500321
9513 3433 8 1 41.502623 47.762783 43.414857
9514 3434 8 1 35.279955 45.436442 9.792176
9515 3435 8 1 1.546638 44.353679 29.886881
9516 3436 8 1 42.717401 6.487657 10.202806
9517 3437 8 1 32.043191 14.128192 38.76487
9518 3438 8 1 3.865797 14.83594 27.025962
9519 3439 8 1 27.086298 15.088958 38.170077
9520 3440 8 1 21.104531 45.377319 21.867272
9521 3441 8 1 12.38431 17.424034 26.792662
9522 3442 8 1 45.21218 19.118656 20.69461
9523 3443 8 1 33.6891 46.952779 25.27615
9524 3444 8 1 10.751395 5.876901 33.28134
9525 3445 8 1 23.893978 36.245748 30.818934
9526 3446 8 1 35.307998 26.883957 18.61922
9527 3447 8 1 3.13471 14.105799 14.216165
9528 3448 8 1 33.10872 10.942351 6.382716
9529 3449 8 1 27.269084 36.169017 17.304561
9530 3450 8 1 24.707103 39.811426 33.729933
9531 3451 8 1 41.360557 45.069939 30.631946
9532 3452 8 1 45.06907 8.072334 6.506082
9533 3453 8 1 45.191774 8.072623 15.757547
9534 3454 8 1 10.665156 4.330982 42.937875
9535 3455 8 1 21.808231 23.026187 42.915717
9536 3456 8 1 35.214094 41.010068 42.146519
9537 3457 8 1 1.500529 27.714575 16.353312
9538 3458 8 1 27.248794 13.84687 21.824011
9539 3459 8 1 20.485714 31.633697 38.763275
9540 3460 8 1 8.001322 20.770131 24.15391
9541 3461 8 1 19.317196 43.992731 23.431663
9542 3462 8 1 23.344322 2.893697 35.948371
9543 3463 8 1 26.35624 16.077539 25.038262
9544 3464 8 1 1.50002 5.732852 45.455959
9545 3465 8 1 31.184325 36.814919 32.710698
9546 3466 8 1 4.231345 7.421137 35.76591
9547 3467 8 1 12.136484 19.681213 18.933749
9548 3468 8 1 33.355579 45.673245 2.715706
9549 3469 8 1 19.287088 39.265539 36.159125
9550 3470 8 1 34.841608 26.174392 3.638009
9551 3471 8 1 12.355134 33.239013 11.133539
9552 3472 8 1 47.761761 31.078602 6.335186
9553 3473 8 1 9.84 42.134988 21.940054
9554 3474 8 1 45.385595 42.05905 29.490584
9555 3475 8 1 43.359642 12.038226 32.634453
9556 3476 8 1 17.936957 34.078668 35.499543
9557 3477 8 1 37.51295 47.401604 9.086275
9558 3478 8 1 25.761964 38.608008 10.142744
9559 3479 8 1 12.939486 19.980044 4.870744
9560 3480 8 1 29.828599 18.731076 35.750763
9561 3481 8 1 2.227755 7.060971 4.133614
9562 3482 8 1 13.456981 22.231194 6.488917
9563 3483 8 1 22.581446 36.130473 37.049791
9564 3484 8 1 4.804561 14.342043 32.355685
9565 3485 8 1 24.11891 15.802686 17.851558
9566 3486 8 1 38.452171 45.335299 12.042987
9567 3487 8 1 9.644801 37.487566 34.152449
9568 3488 8 1 28.477038 28.886818 43.34439
9569 3489 8 1 41.801335 44.689866 33.319178
9570 3490 8 1 6.308745 6.216362 12.985682
9571 3491 8 1 17.24162 16.887148 5.553847
9572 3492 8 1 20.731916 28.996259 1.500446
9573 3493 8 1 29.095162 41.282406 31.957918
9574 3494 8 1 43.288583 27.489705 12.806507
9575 3495 8 1 11.061434 42.784486 18.376296
9576 3496 8 1 12.964941 30.935351 23.391268
9577 3497 8 1 6.406107 29.926117 32.942439
9578 3498 8 1 16.264319 40.483102 12.378296
9579 3499 8 1 46.555003 40.433988 13.450762
9580 3500 8 1 7.825143 26.10334 17.231212
9581 3501 8 1 6.033986 31.242724 10.557832
9582 3502 8 1 4.027936 35.088908 24.347206
9583 3503 8 1 13.746581 1.500129 6.252944
9584 3504 8 1 10.529082 32.974603 31.869759
9585 3505 8 1 33.717745 3.731953 44.950982
9586 3506 8 1 47.762763 25.437097 10.602337
9587 3507 8 1 38.564618 42.710825 3.803945
9588 3508 8 1 40.847347 8.704061 30.961669
9589 3509 8 1 25.821481 20.629363 23.545554
9590 3510 8 1 25.855365 32.421836 34.795748
9591 3511 8 1 26.092632 35.070873 19.534022
9592 3512 8 1 43.224523 21.486693 16.367998
9593 3513 8 1 17.245766 7.231871 41.501082
9594 3514 8 1 42.026604 22.929534 2.105271
9595 3515 8 1 4.529274 6.077657 38.465687
9596 3516 8 1 44.503607 8.663862 21.481324
9597 3517 8 1 30.18041 41.922427 1.500357
9598 3518 8 1 15.988104 47.762749 4.331055
9599 3519 8 1 9.651853 33.446296 11.603436
9600 3520 8 1 34.058025 14.597092 3.946958
9601 3521 8 1 42.245441 3.830904 24.022876
9602 3522 8 1 20.753284 1.500126 12.092267
9603 3523 8 1 29.413149 31.856026 4.024634
9604 3524 8 1 47.762558 26.263572 26.914659
9605 3525 8 1 4.069577 4.457797 13.741721
9606 3526 8 1 24.887204 33.250661 43.518679
9607 3527 8 1 19.73462 17.515417 34.85339
9608 3528 8 1 1.500501 41.867968 44.337343
9609 3529 8 1 31.745413 16.57529 39.982998
9610 3530 8 1 17.785618 34.835622 6.870754
9611 3531 8 1 7.224932 17.660788 3.854803
9612 3532 8 1 26.432857 34.340943 11.538834
9613 3533 8 1 4.132105 4.293307 22.965709
9614 3534 8 1 5.502049 7.569499 28.240858
9615 3535 8 1 40.118502 1.500086 16.184082
9616 3536 8 1 10.559245 34.323193 6.098781
9617 3537 8 1 21.783215 4.792327 8.928192
9618 3538 8 1 21.549114 14.007584 34.238069
9619 3539 8 1 23.345149 15.710634 24.625915
9620 3540 8 1 44.121054 30.699751 3.970205
9621 3541 8 1 17.496946 27.416884 24.46056
9622 3542 8 1 21.93801 21.180105 44.988107
9623 3543 8 1 13.845234 44.602915 14.959369
9624 3544 8 1 38.583533 17.212072 36.252089
9625 3545 8 1 14.873222 19.052823 40.945741
9626 3546 8 1 29.664077 29.24892 36.134895
9627 3547 8 1 25.882149 44.820275 34.348413
9628 3548 8 1 9.062518 12.402041 34.037132
9629 3549 8 1 28.483229 22.292857 24.849745
9630 3550 8 1 2.154882 37.527109 30.866398
9631 3551 8 1 41.203963 26.053026 22.975851
9632 3552 8 1 3.175349 29.382034 29.837352
9633 3553 8 1 16.058753 34.75848 20.910091
9634 3554 8 1 44.398976 26.293088 30.90155
9635 3555 8 1 29.696642 40.267623 16.03566
9636 3556 8 1 30.587522 11.413607 14.687117
9637 3557 8 1 13.282412 19.788067 47.762222
9638 3558 8 1 13.32242 2.405269 19.228416
9639 3559 8 1 17.837344 1.500233 23.303759
9640 3560 8 1 27.737984 7.898954 7.573241
9641 3561 8 1 28.132245 5.782949 19.565551
9642 3562 8 1 33.247024 45.422284 17.655893
9643 3563 8 1 24.41922 8.624051 18.598705
9644 3564 8 1 39.234968 39.751475 33.830877
9645 3565 8 1 37.778457 10.336318 24.330712
9646 3566 8 1 18.709796 3.619369 24.800903
9647 3567 8 1 1.500105 1.50045 27.350414
9648 3568 8 1 37.296976 31.259385 32.801515
9649 3569 8 1 17.875231 31.047349 21.099458
9650 3570 8 1 43.410656 45.575962 23.99619
9651 3571 8 1 4.040042 28.699596 15.665916
9652 3572 8 1 45.291688 38.854951 41.044815
9653 3573 8 1 7.466912 43.508199 22.187059
9654 3574 8 1 1.500645 13.339166 30.659498
9655 3575 8 1 1.500575 5.446971 12.720547
9656 3576 8 1 43.34135 6.339074 24.287929
9657 3577 8 1 1.500607 45.653411 11.498029
9658 3578 8 1 29.442376 40.229529 25.319692
9659 3579 8 1 26.302258 13.732428 27.245208
9660 3580 8 1 27.629717 15.373097 4.08987
9661 3581 8 1 43.191968 26.107554 15.251292
9662 3582 8 1 47.761941 4.176339 18.726204
9663 3583 8 1 40.799401 8.265661 11.415817
9664 3584 8 1 2.999559 45.33178 36.893632
9665 3585 8 1 45.502109 41.930086 11.397907
9666 3586 8 1 38.970038 47.761756 45.031386
9667 3587 8 1 14.544477 39.162826 15.262675
9668 3588 8 1 44.612171 39.067837 6.106977
9669 3589 8 1 34.498638 5.570349 6.20674
9670 3590 8 1 45.726155 44.651642 40.647532
9671 3591 8 1 44.9794 33.893078 32.681725
9672 3592 8 1 34.773393 4.00031 33.129697
9673 3593 8 1 6.069908 30.087059 3.339331
9674 3594 8 1 13.495437 3.980166 43.28456
9675 3595 8 1 5.23677 32.525945 32.567276
9676 3596 8 1 6.554546 21.069683 3.714925
9677 3597 8 1 6.355461 37.153131 43.749398
9678 3598 8 1 4.513228 1.500447 28.15767
9679 3599 8 1 4.839905 39.877033 23.015449
9680 3600 8 1 24.197892 2.741291 5.205179
9681 3601 8 1 8.283156 29.877485 20.625314
9682 3602 8 1 26.945263 39.74778 24.275527
9683 3603 8 1 11.926927 15.504301 13.258446
9684 3604 8 1 38.67106 3.463131 10.586831
9685 3605 8 1 43.440176 20.773882 35.811979
9686 3606 8 1 27.411412 31.269391 36.747913
9687 3607 8 1 13.055601 19.22467 24.826548
9688 3608 8 1 9.01683 17.640163 6.487347
9689 3609 8 1 38.17334 29.191763 34.452146
9690 3610 8 1 36.890079 38.245134 29.738258
9691 3611 8 1 8.846449 1.50058 13.88892
9692 3612 8 1 8.426044 46.585476 29.473202
9693 3613 8 1 43.383599 20.774446 42.883567
9694 3614 8 1 10.921874 3.983184 21.253089
9695 3615 8 1 43.903708 19.893526 45.434917
9696 3616 8 1 28.710447 26.071087 42.415629
9697 3617 8 1 24.510792 30.071809 34.318921
9698 3618 8 1 42.741578 28.189457 22.179754
9699 3619 8 1 7.672609 14.770493 42.507068
9700 3620 8 1 3.924317 27.135775 43.430773
9701 3621 8 1 18.567298 7.641274 3.356246
9702 3622 8 1 8.981584 43.389773 16.575941
9703 3623 8 1 12.493906 40.214613 38.846705
9704 3624 8 1 39.133743 44.539269 35.869255
9705 3625 8 1 23.480103 8.011186 21.109086
9706 3626 8 1 27.34548 5.179469 40.202335
9707 3627 8 1 3.12799 4.841525 31.818769
9708 3628 8 1 20.228735 24.424339 4.233254
9709 3629 8 1 7.917345 7.337855 23.974723
9710 3630 8 1 44.575586 8.770517 47.762042
9711 3631 8 1 43.121382 10.302166 38.04935
9712 3632 8 1 33.802709 41.347892 26.845287
9713 3633 8 1 43.804908 28.871733 45.280262
9714 3634 8 1 20.941222 44.299125 37.028068
9715 3635 8 1 7.620599 25.068967 21.957984
9716 3636 8 1 5.707307 27.80322 17.659644
9717 3637 8 1 47.76218 42.589291 26.863774
9718 3638 8 1 45.025586 32.036887 25.644993
9719 3639 8 1 6.71435 36.710053 29.929568
9720 3640 8 1 45.864819 17.805505 14.136251
9721 3641 3 -1 10.53257 32.70786 36.527836
9722 3642 3 -1 43.886078 33.499676 29.143451
9723 3643 3 -1 17.977839 19.619209 34.393361
9724 3644 3 -1 43.912313 39.386673 34.423816
9725 3645 3 -1 34.688403 21.113203 29.216032
9726 3646 3 -1 31.163915 1.50006 2.741056
9727 3647 3 -1 20.43644 45.568619 6.635025
9728 3648 3 -1 13.274583 25.034301 30.754956
9729 3649 3 -1 10.387321 19.503801 44.461589
9730 3650 3 -1 10.304686 20.760521 28.083442
9731 3651 3 -1 9.690406 43.032469 11.418358
9732 3652 3 -1 16.011897 47.064121 1.500038
9733 3653 3 -1 11.850763 47.762438 39.982971
9734 3654 3 -1 33.576635 13.22631 24.433921
9735 3655 3 -1 33.206028 12.939367 19.805779
9736 3656 3 -1 5.605822 37.040806 4.026139
9737 3657 3 -1 33.242745 23.247328 10.831688
9738 3658 3 -1 29.031138 41.790909 11.657839
9739 3659 3 -1 21.716098 37.862423 30.371229
9740 3660 3 -1 20.68009 38.185358 13.909497
9741 3661 3 -1 12.956333 28.505108 10.623764
9742 3662 3 -1 6.154805 8.319979 47.762687
9743 3663 3 -1 42.680587 23.770805 13.176936
9744 3664 3 -1 39.758774 22.815227 18.245395
9745 3665 3 -1 26.3623 6.76972 9.668575
9746 3666 3 -1 1.500063 23.31514 36.686377
9747 3667 3 -1 45.393993 47.590628 19.728529
9748 3668 3 -1 3.298037 13.42041 20.037818
9749 3669 3 -1 7.7051 25.54 12.993814
9750 3670 3 -1 20.781323 30.897683 33.084681
9751 3671 3 -1 35.866467 36.305661 4.396234
9752 3672 3 -1 1.500393 6.635797 40.714812
9753 3673 3 -1 33.719496 1.500102 13.279861
9754 3674 3 -1 19.935868 29.202172 24.535497
9755 3675 3 -1 33.344411 16.538902 34.672559
9756 3676 3 -1 31.830739 38.54257 41.6795
9757 3677 3 -1 32.797799 18.7982 1.500149
9758 3678 3 -1 29.475446 26.048417 10.568037
9759 3679 3 -1 47.762551 43.469827 11.419281
9760 3680 3 -1 45.652494 26.691739 1.500283
9761 3681 3 -1 35.956589 42.200728 39.723218
9762 3682 3 -1 47.762633 27.808768 24.640277
9763 3683 3 -1 47.761514 28.433071 30.51425
9764 3684 3 -1 38.826324 28.257331 39.160857
9765 3685 3 -1 28.002305 34.057097 8.353518
9766 3686 3 -1 27.117115 19.712815 45.623699
9767 3687 3 -1 40.707121 32.578617 44.725295
9768 3688 3 -1 19.960167 11.52254 46.133442
9769 3689 3 -1 22.878309 39.748989 14.443027
9770 3690 3 -1 38.648321 24.593025 47.376819
9771 3691 3 -1 10.493018 43.430373 8.814943
9772 3692 3 -1 20.821913 26.538322 5.887915
9773 3693 3 -1 22.996471 7.435227 26.17535
9774 3694 3 -1 29.47243 36.411655 11.233221
9775 3695 3 -1 34.27715 41.225634 32.592669
9776 3696 3 -1 19.342295 24.063595 43.550034
9777 3697 3 -1 3.783878 16.905766 32.139891
9778 3698 3 -1 40.105601 36.568219 15.967395
9779 3699 3 -1 45.565431 37.04896 13.837519
9780 3700 3 -1 22.305368 32.185795 24.079064
9781 3701 3 -1 8.186329 5.073392 44.417616
9782 3702 3 -1 13.762282 13.213454 13.857952
9783 3703 3 -1 44.358114 29.61212 17.103679
9784 3704 3 -1 42.522747 18.883206 26.423152
9785 3705 3 -1 45.131404 32.399965 45.584852
9786 3706 3 -1 15.224571 45.998855 24.84243
9787 3707 3 -1 8.919875 45.121519 2.971136
9788 3708 3 -1 45.364214 24.853522 9.395728
9789 3709 3 -1 1.500265 11.647862 21.095183
9790 3710 3 -1 43.086344 26.768506 40.556185
9791 3711 3 -1 41.323824 24.09151 47.76276
9792 3712 3 -1 1.500075 43.413243 40.564351
9793 3713 3 -1 7.803322 36.711345 47.76252
9794 3714 3 -1 3.903999 12.131734 30.990298
9795 3715 3 -1 23.180448 44.304221 23.316658
9796 3716 3 -1 7.095866 20.483142 30.209064
9797 3717 3 -1 12.759559 30.18015 28.719718
9798 3718 3 -1 30.473516 41.58753 38.228613
9799 3719 3 -1 14.559393 30.709071 6.353967
9800 3720 3 -1 16.820764 5.653014 4.102381
9801 3721 3 -1 13.331964 34.728201 33.706463
9802 3722 3 -1 6.029007 16.530746 26.932063
9803 3723 3 -1 15.901638 32.126521 3.989115
9804 3724 3 -1 33.927701 9.869584 47.762153
9805 3725 3 -1 4.326794 24.744782 29.363592
9806 3726 3 -1 27.494549 20.495542 13.515855
9807 3727 3 -1 34.100056 41.501437 45.084497
9808 3728 3 -1 1.500299 2.879974 21.479387
9809 3729 3 -1 16.60861 1.500203 11.382093
9810 3730 3 -1 31.296318 21.844947 47.76245
9811 3731 3 -1 24.24328 46.664636 3.27261
9812 3732 3 -1 23.678972 3.448604 23.864791
9813 3733 3 -1 37.903615 44.70113 9.425474
9814 3734 3 -1 21.378677 18.517443 45.387746
9815 3735 3 -1 45.490651 19.014183 43.035586
9816 3736 3 -1 28.650658 27.392688 32.651642
9817 3737 3 -1 47.762406 14.793004 8.485107
9818 3738 3 -1 41.635204 33.183336 32.893129
9819 3739 3 -1 42.029329 12.300498 27.569675
9820 3740 3 -1 16.417351 25.242495 15.685597
9821 3741 3 -1 4.454844 19.667011 12.985382
9822 3742 3 -1 36.27661 15.24559 19.548677
9823 3743 3 -1 7.715455 18.533616 12.000622
9824 3744 3 -1 14.662116 41.649626 29.842733
9825 3745 3 -1 6.734481 16.225465 1.500307
9826 3746 3 -1 31.103502 6.475565 14.595539
9827 3747 3 -1 42.50651 22.248271 45.686878
9828 3748 3 -1 40.984869 3.949545 21.581696
9829 3749 3 -1 17.744033 25.22599 45.459871
9830 3750 3 -1 17.918756 9.755865 45.611023
9831 3751 3 -1 12.728818 1.500068 33.432113
9832 3752 3 -1 21.830296 32.359764 43.053288
9833 3753 3 -1 4.657496 9.190332 20.894001
9834 3754 3 -1 12.68102 20.454624 43.280949
9835 3755 3 -1 43.267866 11.536486 1.559097
9836 3756 3 -1 44.766425 41.596522 32.422869
9837 3757 3 -1 8.434416 45.271651 12.402894
9838 3758 3 -1 3.665362 47.762611 41.133676
9839 3759 3 -1 3.672133 12.954736 42.332956
9840 3760 3 -1 24.89789 32.685648 47.762384
9841 3761 3 -1 25.579184 40.789879 37.204839
9842 3762 3 -1 44.029465 36.636388 7.250223
9843 3763 3 -1 24.412592 17.156118 15.476262
9844 3764 3 -1 22.437616 30.745733 7.42443
9845 3765 3 -1 35.772482 35.374236 42.264253
9846 3766 3 -1 15.636621 21.269207 1.500258
9847 3767 3 -1 13.359726 24.20109 41.658582
9848 3768 3 -1 40.868004 10.875492 32.647713
9849 3769 3 -1 40.337455 37.526836 42.914556
9850 3770 3 -1 40.399518 38.148768 40.236871
9851 3771 3 -1 19.755363 14.302676 21.310159
9852 3772 3 -1 19.882826 15.311769 36.491131
9853 3773 3 -1 5.346414 44.397516 4.026715
9854 3774 3 -1 28.825078 43.205758 33.904316
9855 3775 3 -1 47.762706 19.084192 22.459635
9856 3776 3 -1 15.507243 33.696862 44.59451
9857 3777 3 -1 7.806788 37.486392 41.406124
9858 3778 3 -1 15.303573 17.500296 19.751813
9859 3779 3 -1 30.828601 27.539086 34.324019
9860 3780 3 -1 1.500406 15.628395 8.010743
9861 3781 3 -1 19.652341 36.690974 16.493298
9862 3782 3 -1 9.457453 13.86704 36.330381
9863 3783 3 -1 3.657749 1.500859 16.309141
9864 3784 3 -1 35.44378 43.850081 45.572028
9865 3785 3 -1 3.85403 17.661965 28.176891
9866 3786 3 -1 25.246362 40.076618 45.776239
9867 3787 3 -1 47.762122 14.907043 22.836025
9868 3788 3 -1 1.500421 46.471882 1.500337
9869 3789 3 -1 47.762729 47.762627 21.104976
9870 3790 3 -1 41.994574 38.231225 6.01505
9871 3791 3 -1 31.084068 26.217347 40.992574
9872 3792 3 -1 14.013525 4.206987 25.630118
9873 3793 3 -1 22.12857 3.967317 33.201196
9874 3794 3 -1 27.990167 33.751777 37.77769
9875 3795 3 -1 31.425629 42.063104 45.387814
9876 3796 3 -1 35.29648 21.864349 6.603406
9877 3797 3 -1 1.500218 1.500296 38.946392
9878 3798 3 -1 9.809964 9.840155 46.471605
9879 3799 3 -1 13.855513 39.455417 36.520048
9880 3800 3 -1 41.762632 14.987058 27.05015
9881 3801 3 -1 15.876497 23.351875 5.817434
9882 3802 3 -1 8.552481 9.490296 22.690582
9883 3803 3 -1 20.247206 31.196208 22.547615
9884 3804 3 -1 5.505472 25.151842 18.35962
9885 3805 3 -1 1.503034 43.596049 23.530171
9886 3806 3 -1 31.252682 33.344702 17.339633
9887 3807 3 -1 31.91995 22.687924 4.118798
9888 3808 3 -1 2.624542 18.86829 8.015455
9889 3809 3 -1 44.420629 14.486461 31.970584
9890 3810 3 -1 31.105756 39.594261 44.222202
9891 3811 3 -1 11.164281 21.939352 4.116029
9892 3812 3 -1 22.591225 10.356949 22.235237
9893 3813 3 -1 10.663157 35.930859 1.500296
9894 3814 3 -1 36.713353 36.231967 37.163449
9895 3815 3 -1 23.96597 6.515536 8.207668
9896 3816 3 -1 36.591297 19.971578 25.349416
9897 3817 3 -1 6.024126 32.570224 15.073031
9898 3818 3 -1 22.424689 8.688348 13.818727
9899 3819 3 -1 45.18867 45.757401 28.854845
9900 3820 3 -1 31.354468 4.587133 26.155436
9901 3821 3 -1 5.061331 3.951565 17.650611
9902 3822 3 -1 19.132293 43.057744 35.37016
9903 3823 3 -1 24.165351 11.500101 1.883835
9904 3824 3 -1 45.958343 11.600918 27.438864
9905 3825 3 -1 36.823766 16.45515 27.15175
9906 3826 3 -1 25.881779 28.503726 7.389418
9907 3827 3 -1 9.166712 4.2767 6.060877
9908 3828 3 -1 13.399032 30.419871 20.725168
9909 3829 3 -1 34.116334 22.43629 24.99174
9910 3830 3 -1 44.139683 31.053113 47.762729
9911 3831 3 -1 13.794135 37.619267 10.098224
9912 3832 3 -1 22.055083 34.368889 31.629486
9913 3833 3 -1 1.500147 12.463498 1.500045
9914 3834 3 -1 33.022066 25.692396 39.113919
9915 3835 3 -1 45.895843 5.721551 7.668948
9916 3836 3 -1 37.428689 9.321046 12.282837
9917 3837 3 -1 39.616523 4.784925 23.815459
9918 3838 3 -1 42.436866 35.326793 15.204724
9919 3839 3 -1 28.849637 23.186466 34.559341
9920 3840 3 -1 39.084285 14.512794 36.406954
9921 3841 3 -1 3.92934 24.183398 11.752591
9922 3842 3 -1 24.409256 19.208485 9.120295
9923 3843 3 -1 21.603244 24.919118 38.508729
9924 3844 3 -1 27.518857 13.644103 43.245414
9925 3845 3 -1 32.3427 33.000176 10.907844
9926 3846 3 -1 20.73504 34.418834 23.750394
9927 3847 3 -1 45.384283 12.950864 34.255289
9928 3848 3 -1 38.027684 46.589514 1.500052
9929 3849 3 -1 34.313544 21.742659 33.278937
9930 3850 3 -1 20.798793 22.512259 39.565171
9931 3851 3 -1 16.60942 44.409757 39.015251
9932 3852 3 -1 41.149714 28.220235 11.24086
9933 3853 3 -1 13.444087 13.845974 35.957003
9934 3854 3 -1 29.192472 27.767179 29.850395
9935 3855 3 -1 33.39113 42.735634 13.276176
9936 3856 3 -1 16.208512 44.057839 16.254793
9937 3857 3 -1 7.864045 27.976328 27.38247
9938 3858 3 -1 10.058124 44.71047 32.446346
9939 3859 3 -1 41.531884 36.221162 25.877653
9940 3860 3 -1 30.507135 5.357391 46.118097
9941 3861 3 -1 9.793989 10.57929 6.050329
9942 3862 3 -1 45.05635 4.015424 47.762307
9943 3863 3 -1 18.24262 7.374268 17.082191
9944 3864 3 -1 21.912692 47.76235 4.196603
9945 3865 3 -1 14.624399 40.66105 47.762783
9946 3866 3 -1 13.426997 35.195431 36.414699
9947 3867 3 -1 7.47848 9.301119 42.601872
9948 3868 3 -1 37.678523 9.694352 42.715542
9949 3869 3 -1 1.500284 10.593512 30.808982
9950 3870 3 -1 41.457435 15.466169 41.649848
9951 3871 3 -1 18.118409 4.923023 47.762394
9952 3872 3 -1 34.227814 11.707107 42.961065
9953 3873 3 -1 14.986214 23.00357 16.393014
9954 3874 3 -1 3.998585 27.576577 38.206487
9955 3875 3 -1 7.965655 24.717152 41.485323
9956 3876 3 -1 16.759271 12.519015 45.64291
9957 3877 3 -1 45.659184 31.079843 39.53576
9958 3878 3 -1 16.755614 36.105404 36.932333
9959 3879 3 -1 15.784318 16.358787 38.333183
9960 3880 3 -1 42.414572 13.268443 21.743615
9961 3881 3 -1 33.244015 26.641568 15.094731
9962 3882 3 -1 33.108757 6.643995 30.813398
9963 3883 3 -1 43.629782 23.504896 36.069617
9964 3884 3 -1 19.35436 18.420275 21.073849
9965 3885 3 -1 12.814304 41.116381 45.745015
9966 3886 3 -1 26.20357 9.027653 14.500515
9967 3887 3 -1 14.429006 2.755982 9.809753
9968 3888 3 -1 26.603682 20.787543 26.176936
9969 3889 3 -1 30.308501 17.630538 1.50027
9970 3890 3 -1 21.366371 37.373397 20.857424
9971 3891 3 -1 12.634078 24.29769 15.800068
9972 3892 3 -1 34.851967 36.388587 15.221764
9973 3893 3 -1 36.265001 45.635959 6.985494
9974 3894 3 -1 3.497973 1.500234 22.71887
9975 3895 3 -1 43.213738 39.379219 47.762546
9976 3896 3 -1 47.014884 16.522456 47.762564
9977 3897 3 -1 22.484207 4.848663 41.519676
9978 3898 3 -1 3.022175 19.882462 31.827959
9979 3899 3 -1 33.945296 4.597543 11.754242
9980 3900 3 -1 38.57306 29.070148 31.734663
9981 3901 3 -1 1.500235 45.093127 43.601814
9982 3902 3 -1 47.762521 43.664764 36.078578
9983 3903 3 -1 24.064161 5.997775 19.329972
9984 3904 3 -1 24.271191 35.33878 10.164109
9985 3905 3 -1 22.533674 39.120812 28.066975
9986 3906 3 -1 44.579025 6.803719 4.054602
9987 3907 3 -1 28.120997 7.551408 15.80609
9988 3908 3 -1 45.898311 32.987596 30.535798
9989 3909 3 -1 15.508422 23.680334 45.967767
9990 3910 3 -1 44.636186 36.678325 33.545943
9991 3911 3 -1 26.835502 4.519333 11.176589
9992 3912 3 -1 32.000157 24.784753 5.895695
9993 3913 3 -1 15.509926 5.441207 32.735727
9994 3914 3 -1 14.512901 24.63239 7.832105
9995 3915 3 -1 23.419424 6.186326 39.165654
9996 3916 3 -1 45.392362 36.064362 11.073232
9997 3917 3 -1 20.11402 12.693328 31.842553
9998 3918 3 -1 41.604991 39.401555 12.923328
9999 3919 3 -1 5.615998 37.107479 19.048911
10000 3920 3 -1 23.638543 25.887141 18.605121
10001 3921 3 -1 45.61793 24.831117 45.616647
10002 3922 3 -1 22.24419 6.879773 11.696668
10003 3923 3 -1 19.083705 1.500025 6.348587
10004 3924 3 -1 16.936746 31.666655 36.435455
10005 3925 3 -1 1.5001 1.500133 47.762451
10006 3926 3 -1 41.296439 41.974035 3.649082
10007 3927 3 -1 23.897439 15.185125 27.267272
10008 3928 3 -1 44.570349 42.209622 42.407028
10009 3929 3 -1 22.244798 31.304914 4.739414
10010 3930 3 -1 28.541523 33.832406 40.469211
10011 3931 3 -1 9.43281 25.645321 8.405132
10012 3932 3 -1 32.455978 18.400122 36.491363
10013 3933 3 -1 34.549937 32.74699 24.39098
10014 3934 3 -1 37.867366 27.362547 24.52488
10015 3935 3 -1 30.506803 11.106021 45.83807
10016 3936 3 -1 40.434956 44.955247 23.799455
10017 3937 3 -1 47.762664 9.50075 21.84536
10018 3938 3 -1 44.636186 1.500284 39.885256
10019 3939 3 -1 7.67494 4.04961 3.762446
10020 3940 3 -1 32.021071 21.393451 28.610151
10021 3941 3 -1 12.772093 19.305359 35.129224
10022 3942 3 -1 47.762778 36.525289 23.572929
10023 3943 3 -1 19.802767 10.595535 16.66968
10024 3944 3 -1 11.62826 29.976606 1.500042
10025 3945 3 -1 4.170371 4.40806 28.680331
10026 3946 3 -1 6.496833 45.509898 6.654404
10027 3947 3 -1 1.500322 9.066181 22.040997
10028 3948 3 -1 12.344903 35.006726 8.074293
10029 3949 3 -1 17.288442 7.528012 32.534378
10030 3950 3 -1 41.199263 41.044662 28.475595
10031 3951 3 -1 19.910116 3.939416 41.847972
10032 3952 3 -1 15.521116 3.623983 34.798298
10033 3953 3 -1 33.420106 43.597115 10.639949
10034 3954 3 -1 17.878527 41.81631 22.56462
10035 3955 3 -1 32.276868 11.402442 21.894098
10036 3956 3 -1 19.314694 11.303233 34.077438
10037 3957 3 -1 16.392633 16.49528 10.59424
10038 3958 3 -1 23.872447 32.821724 40.9999
10039 3959 3 -1 4.925741 3.274759 6.32749
10040 3960 3 -1 23.07619 18.33193 17.577248
10041 3961 3 -1 19.976 33.399597 7.707733
10042 3962 3 -1 3.876527 17.140882 17.502368
10043 3963 3 -1 47.76226 36.336366 5.658138
10044 3964 3 -1 34.166034 34.270773 37.618172
10045 3965 3 -1 11.201676 46.734852 1.534097
10046 3966 3 -1 29.566929 32.111436 15.551553
10047 3967 3 -1 29.014183 19.302514 38.313767
10048 3968 3 -1 36.859088 9.843326 1.500293
10049 3969 3 -1 38.824243 7.788775 47.710183
10050 3970 3 -1 6.261167 28.165094 44.456558
10051 3971 3 -1 7.829125 17.266095 20.478425
10052 3972 3 -1 36.396272 16.019763 16.913176
10053 3973 3 -1 7.553124 21.995344 32.459741
10054 3974 3 -1 37.213653 22.500618 32.894517
10055 3975 3 -1 12.544507 8.086264 15.330745
10056 3976 3 -1 37.525523 17.635478 45.222203
10057 3977 3 -1 45.778109 7.378172 23.550717
10058 3978 3 -1 10.754998 21.856337 6.83385
10059 3979 3 -1 13.39303 13.63401 6.868471
10060 3980 3 -1 42.708866 19.176509 47.762191
10061 3981 3 -1 14.955985 29.913393 31.129717
10062 3982 3 -1 33.584924 28.254863 38.291211
10063 3983 3 -1 35.593436 40.885915 34.984753
10064 3984 3 -1 3.927764 42.633653 31.920171
10065 3985 3 -1 28.57306 12.043558 26.094219
10066 3986 3 -1 3.947638 2.571513 43.741528
10067 3987 3 -1 4.651225 41.248649 47.762748
10068 3988 3 -1 29.748039 16.666978 30.274558
10069 3989 3 -1 17.597472 17.020646 24.594016
10070 3990 3 -1 47.762582 47.762682 35.715911
10071 3991 3 -1 14.261686 44.252238 1.50052
10072 3992 3 -1 10.115908 9.431117 29.186441
10073 3993 3 -1 43.788924 21.908724 11.483981
10074 3994 3 -1 28.269385 29.538087 23.352636
10075 3995 3 -1 44.918752 47.762394 27.023264
10076 3996 3 -1 37.004748 4.334051 6.553558
10077 3997 3 -1 3.393248 31.847426 10.08618
10078 3998 3 -1 9.658266 47.762196 45.209446
10079 3999 3 -1 34.717155 13.164824 6.19823
10080 4000 3 -1 13.526211 10.601278 39.435989

Bonds

1 1 2 1
2 1 2 3
3 1 5 4
4 1 5 6
5 1 8 7
6 1 8 9
7 1 11 10
8 1 11 12
9 1 14 13
10 1 14 15
11 1 17 16
12 1 17 18
13 1 20 19
14 1 20 21
15 1 23 22
16 1 23 24
17 1 26 25
18 1 26 27
19 1 29 28
20 1 29 30
21 1 32 31
22 1 32 33
23 1 35 34
24 1 35 36
25 1 38 37
26 1 38 39
27 1 41 40
28 1 41 42
29 1 44 43
30 1 44 45
31 1 47 46
32 1 47 48
33 1 50 49
34 1 50 51
35 1 53 52
36 1 53 54
37 1 56 55
38 1 56 57
39 1 59 58
40 1 59 60
41 1 62 61
42 1 62 63
43 1 65 64
44 1 65 66
45 1 68 67
46 1 68 69
47 1 71 70
48 1 71 72
49 1 74 73
50 1 74 75
51 1 77 76
52 1 77 78
53 1 80 79
54 1 80 81
55 1 83 82
56 1 83 84
57 1 86 85
58 1 86 87
59 1 89 88
60 1 89 90
61 1 92 91
62 1 92 93
63 1 95 94
64 1 95 96
65 1 98 97
66 1 98 99
67 1 101 100
68 1 101 102
69 1 104 103
70 1 104 105
71 1 107 106
72 1 107 108
73 1 110 109
74 1 110 111
75 1 113 112
76 1 113 114
77 1 116 115
78 1 116 117
79 1 119 118
80 1 119 120
81 1 122 121
82 1 122 123
83 1 125 124
84 1 125 126
85 1 128 127
86 1 128 129
87 1 131 130
88 1 131 132
89 1 134 133
90 1 134 135
91 1 137 136
92 1 137 138
93 1 140 139
94 1 140 141
95 1 143 142
96 1 143 144
97 1 146 145
98 1 146 147
99 1 149 148
100 1 149 150
101 1 152 151
102 1 152 153
103 1 155 154
104 1 155 156
105 1 158 157
106 1 158 159
107 1 161 160
108 1 161 162
109 1 164 163
110 1 164 165
111 1 167 166
112 1 167 168
113 1 170 169
114 1 170 171
115 1 173 172
116 1 173 174
117 1 176 175
118 1 176 177
119 1 179 178
120 1 179 180
121 1 182 181
122 1 182 183
123 1 185 184
124 1 185 186
125 1 188 187
126 1 188 189
127 1 191 190
128 1 191 192
129 1 194 193
130 1 194 195
131 1 197 196
132 1 197 198
133 1 200 199
134 1 200 201
135 1 203 202
136 1 203 204
137 1 206 205
138 1 206 207
139 1 209 208
140 1 209 210
141 1 212 211
142 1 212 213
143 1 215 214
144 1 215 216
145 1 218 217
146 1 218 219
147 1 221 220
148 1 221 222
149 1 224 223
150 1 224 225
151 1 227 226
152 1 227 228
153 1 230 229
154 1 230 231
155 1 233 232
156 1 233 234
157 1 236 235
158 1 236 237
159 1 239 238
160 1 239 240
161 1 242 241
162 1 242 243
163 1 245 244
164 1 245 246
165 1 248 247
166 1 248 249
167 1 251 250
168 1 251 252
169 1 254 253
170 1 254 255
171 1 257 256
172 1 257 258
173 1 260 259
174 1 260 261
175 1 263 262
176 1 263 264
177 1 266 265
178 1 266 267
179 1 269 268
180 1 269 270
181 1 272 271
182 1 272 273
183 1 275 274
184 1 275 276
185 1 278 277
186 1 278 279
187 1 281 280
188 1 281 282
189 1 284 283
190 1 284 285
191 1 287 286
192 1 287 288
193 1 290 289
194 1 290 291
195 1 293 292
196 1 293 294
197 1 296 295
198 1 296 297
199 1 299 298
200 1 299 300
201 1 302 301
202 1 302 303
203 1 305 304
204 1 305 306
205 1 308 307
206 1 308 309
207 1 311 310
208 1 311 312
209 1 314 313
210 1 314 315
211 1 317 316
212 1 317 318
213 1 320 319
214 1 320 321
215 1 323 322
216 1 323 324
217 1 326 325
218 1 326 327
219 1 329 328
220 1 329 330
221 1 332 331
222 1 332 333
223 1 335 334
224 1 335 336
225 1 338 337
226 1 338 339
227 1 341 340
228 1 341 342
229 1 344 343
230 1 344 345
231 1 347 346
232 1 347 348
233 1 350 349
234 1 350 351
235 1 353 352
236 1 353 354
237 1 356 355
238 1 356 357
239 1 359 358
240 1 359 360
241 1 362 361
242 1 362 363
243 1 365 364
244 1 365 366
245 1 368 367
246 1 368 369
247 1 371 370
248 1 371 372
249 1 374 373
250 1 374 375
251 1 377 376
252 1 377 378
253 1 380 379
254 1 380 381
255 1 383 382
256 1 383 384
257 1 386 385
258 1 386 387
259 1 389 388
260 1 389 390
261 1 392 391
262 1 392 393
263 1 395 394
264 1 395 396
265 1 398 397
266 1 398 399
267 1 401 400
268 1 401 402
269 1 404 403
270 1 404 405
271 1 407 406
272 1 407 408
273 1 410 409
274 1 410 411
275 1 413 412
276 1 413 414
277 1 416 415
278 1 416 417
279 1 419 418
280 1 419 420
281 1 422 421
282 1 422 423
283 1 425 424
284 1 425 426
285 1 428 427
286 1 428 429
287 1 431 430
288 1 431 432
289 1 434 433
290 1 434 435
291 1 437 436
292 1 437 438
293 1 440 439
294 1 440 441
295 1 443 442
296 1 443 444
297 1 446 445
298 1 446 447
299 1 449 448
300 1 449 450
301 1 452 451
302 1 452 453
303 1 455 454
304 1 455 456
305 1 458 457
306 1 458 459
307 1 461 460
308 1 461 462
309 1 464 463
310 1 464 465
311 1 467 466
312 1 467 468
313 1 470 469
314 1 470 471
315 1 473 472
316 1 473 474
317 1 476 475
318 1 476 477
319 1 479 478
320 1 479 480
321 1 482 481
322 1 482 483
323 1 485 484
324 1 485 486
325 1 488 487
326 1 488 489
327 1 491 490
328 1 491 492
329 1 494 493
330 1 494 495
331 1 497 496
332 1 497 498
333 1 500 499
334 1 500 501
335 1 503 502
336 1 503 504
337 1 506 505
338 1 506 507
339 1 509 508
340 1 509 510
341 1 512 511
342 1 512 513
343 1 515 514
344 1 515 516
345 1 518 517
346 1 518 519
347 1 521 520
348 1 521 522
349 1 524 523
350 1 524 525
351 1 527 526
352 1 527 528
353 1 530 529
354 1 530 531
355 1 533 532
356 1 533 534
357 1 536 535
358 1 536 537
359 1 539 538
360 1 539 540
361 1 542 541
362 1 542 543
363 1 545 544
364 1 545 546
365 1 548 547
366 1 548 549
367 1 551 550
368 1 551 552
369 1 554 553
370 1 554 555
371 1 557 556
372 1 557 558
373 1 560 559
374 1 560 561
375 1 563 562
376 1 563 564
377 1 566 565
378 1 566 567
379 1 569 568
380 1 569 570
381 1 572 571
382 1 572 573
383 1 575 574
384 1 575 576
385 1 578 577
386 1 578 579
387 1 581 580
388 1 581 582
389 1 584 583
390 1 584 585
391 1 587 586
392 1 587 588
393 1 590 589
394 1 590 591
395 1 593 592
396 1 593 594
397 1 596 595
398 1 596 597
399 1 599 598
400 1 599 600
401 1 602 601
402 1 602 603
403 1 605 604
404 1 605 606
405 1 608 607
406 1 608 609
407 1 611 610
408 1 611 612
409 1 614 613
410 1 614 615
411 1 617 616
412 1 617 618
413 1 620 619
414 1 620 621
415 1 623 622
416 1 623 624
417 1 626 625
418 1 626 627
419 1 629 628
420 1 629 630
421 1 632 631
422 1 632 633
423 1 635 634
424 1 635 636
425 1 638 637
426 1 638 639
427 1 641 640
428 1 641 642
429 1 644 643
430 1 644 645
431 1 647 646
432 1 647 648
433 1 650 649
434 1 650 651
435 1 653 652
436 1 653 654
437 1 656 655
438 1 656 657
439 1 659 658
440 1 659 660
441 1 662 661
442 1 662 663
443 1 665 664
444 1 665 666
445 1 668 667
446 1 668 669
447 1 671 670
448 1 671 672
449 1 674 673
450 1 674 675
451 1 677 676
452 1 677 678
453 1 680 679
454 1 680 681
455 1 683 682
456 1 683 684
457 1 686 685
458 1 686 687
459 1 689 688
460 1 689 690
461 1 692 691
462 1 692 693
463 1 695 694
464 1 695 696
465 1 698 697
466 1 698 699
467 1 701 700
468 1 701 702
469 1 704 703
470 1 704 705
471 1 707 706
472 1 707 708
473 1 710 709
474 1 710 711
475 1 713 712
476 1 713 714
477 1 716 715
478 1 716 717
479 1 719 718
480 1 719 720
481 1 722 721
482 1 722 723
483 1 725 724
484 1 725 726
485 1 728 727
486 1 728 729
487 1 731 730
488 1 731 732
489 1 734 733
490 1 734 735
491 1 737 736
492 1 737 738
493 1 740 739
494 1 740 741
495 1 743 742
496 1 743 744
497 1 746 745
498 1 746 747
499 1 749 748
500 1 749 750
501 1 752 751
502 1 752 753
503 1 755 754
504 1 755 756
505 1 758 757
506 1 758 759
507 1 761 760
508 1 761 762
509 1 764 763
510 1 764 765
511 1 767 766
512 1 767 768
513 1 770 769
514 1 770 771
515 1 773 772
516 1 773 774
517 1 776 775
518 1 776 777
519 1 779 778
520 1 779 780
521 1 782 781
522 1 782 783
523 1 785 784
524 1 785 786
525 1 788 787
526 1 788 789
527 1 791 790
528 1 791 792
529 1 794 793
530 1 794 795
531 1 797 796
532 1 797 798
533 1 800 799
534 1 800 801
535 1 803 802
536 1 803 804
537 1 806 805
538 1 806 807
539 1 809 808
540 1 809 810
541 1 812 811
542 1 812 813
543 1 815 814
544 1 815 816
545 1 818 817
546 1 818 819
547 1 821 820
548 1 821 822
549 1 824 823
550 1 824 825
551 1 827 826
552 1 827 828
553 1 830 829
554 1 830 831
555 1 833 832
556 1 833 834
557 1 836 835
558 1 836 837
559 1 839 838
560 1 839 840
561 1 842 841
562 1 842 843
563 1 845 844
564 1 845 846
565 1 848 847
566 1 848 849
567 1 851 850
568 1 851 852
569 1 854 853
570 1 854 855
571 1 857 856
572 1 857 858
573 1 860 859
574 1 860 861
575 1 863 862
576 1 863 864
577 1 866 865
578 1 866 867
579 1 869 868
580 1 869 870
581 1 872 871
582 1 872 873
583 1 875 874
584 1 875 876
585 1 878 877
586 1 878 879
587 1 881 880
588 1 881 882
589 1 884 883
590 1 884 885
591 1 887 886
592 1 887 888
593 1 890 889
594 1 890 891
595 1 893 892
596 1 893 894
597 1 896 895
598 1 896 897
599 1 899 898
600 1 899 900
601 1 902 901
602 1 902 903
603 1 905 904
604 1 905 906
605 1 908 907
606 1 908 909
607 1 911 910
608 1 911 912
609 1 914 913
610 1 914 915
611 1 917 916
612 1 917 918
613 1 920 919
614 1 920 921
615 1 923 922
616 1 923 924
617 1 926 925
618 1 926 927
619 1 929 928
620 1 929 930
621 1 932 931
622 1 932 933
623 1 935 934
624 1 935 936
625 1 938 937
626 1 938 939
627 1 941 940
628 1 941 942
629 1 944 943
630 1 944 945
631 1 947 946
632 1 947 948
633 1 950 949
634 1 950 951
635 1 953 952
636 1 953 954
637 1 956 955
638 1 956 957
639 1 959 958
640 1 959 960
641 1 962 961
642 1 962 963
643 1 965 964
644 1 965 966
645 1 968 967
646 1 968 969
647 1 971 970
648 1 971 972
649 1 974 973
650 1 974 975
651 1 977 976
652 1 977 978
653 1 980 979
654 1 980 981
655 1 983 982
656 1 983 984
657 1 986 985
658 1 986 987
659 1 989 988
660 1 989 990
661 1 992 991
662 1 992 993
663 1 995 994
664 1 995 996
665 1 998 997
666 1 998 999
667 1 1001 1000
668 1 1001 1002
669 1 1004 1003
670 1 1004 1005
671 1 1007 1006
672 1 1007 1008
673 1 1010 1009
674 1 1010 1011
675 1 1013 1012
676 1 1013 1014
677 1 1016 1015
678 1 1016 1017
679 1 1019 1018
680 1 1019 1020
681 1 1022 1021
682 1 1022 1023
683 1 1025 1024
684 1 1025 1026
685 1 1028 1027
686 1 1028 1029
687 1 1031 1030
688 1 1031 1032
689 1 1034 1033
690 1 1034 1035
691 1 1037 1036
692 1 1037 1038
693 1 1040 1039
694 1 1040 1041
695 1 1043 1042
696 1 1043 1044
697 1 1046 1045
698 1 1046 1047
699 1 1049 1048
700 1 1049 1050
701 1 1052 1051
702 1 1052 1053
703 1 1055 1054
704 1 1055 1056
705 1 1058 1057
706 1 1058 1059
707 1 1061 1060
708 1 1061 1062
709 1 1064 1063
710 1 1064 1065
711 1 1067 1066
712 1 1067 1068
713 1 1070 1069
714 1 1070 1071
715 1 1073 1072
716 1 1073 1074
717 1 1076 1075
718 1 1076 1077
719 1 1079 1078
720 1 1079 1080
721 1 1082 1081
722 1 1082 1083
723 1 1085 1084
724 1 1085 1086
725 1 1088 1087
726 1 1088 1089
727 1 1091 1090
728 1 1091 1092
729 1 1094 1093
730 1 1094 1095
731 1 1097 1096
732 1 1097 1098
733 1 1100 1099
734 1 1100 1101
735 1 1103 1102
736 1 1103 1104
737 1 1106 1105
738 1 1106 1107
739 1 1109 1108
740 1 1109 1110
741 1 1112 1111
742 1 1112 1113
743 1 1115 1114
744 1 1115 1116
745 1 1118 1117
746 1 1118 1119
747 1 1121 1120
748 1 1121 1122
749 1 1124 1123
750 1 1124 1125
751 1 1127 1126
752 1 1127 1128
753 1 1130 1129
754 1 1130 1131
755 1 1133 1132
756 1 1133 1134
757 1 1136 1135
758 1 1136 1137
759 1 1139 1138
760 1 1139 1140
761 1 1142 1141
762 1 1142 1143
763 1 1145 1144
764 1 1145 1146
765 1 1148 1147
766 1 1148 1149
767 1 1151 1150
768 1 1151 1152
769 1 1154 1153
770 1 1154 1155
771 1 1157 1156
772 1 1157 1158
773 1 1160 1159
774 1 1160 1161
775 1 1163 1162
776 1 1163 1164
777 1 1166 1165
778 1 1166 1167
779 1 1169 1168
780 1 1169 1170
781 1 1172 1171
782 1 1172 1173
783 1 1175 1174
784 1 1175 1176
785 1 1178 1177
786 1 1178 1179
787 1 1181 1180
788 1 1181 1182
789 1 1184 1183
790 1 1184 1185
791 1 1187 1186
792 1 1187 1188
793 1 1190 1189
794 1 1190 1191
795 1 1193 1192
796 1 1193 1194
797 1 1196 1195
798 1 1196 1197
799 1 1199 1198
800 1 1199 1200
801 1 1202 1201
802 1 1202 1203
803 1 1205 1204
804 1 1205 1206
805 1 1208 1207
806 1 1208 1209
807 1 1211 1210
808 1 1211 1212
809 1 1214 1213
810 1 1214 1215
811 1 1217 1216
812 1 1217 1218
813 1 1220 1219
814 1 1220 1221
815 1 1223 1222
816 1 1223 1224
817 1 1226 1225
818 1 1226 1227
819 1 1229 1228
820 1 1229 1230
821 1 1232 1231
822 1 1232 1233
823 1 1235 1234
824 1 1235 1236
825 1 1238 1237
826 1 1238 1239
827 1 1241 1240
828 1 1241 1242
829 1 1244 1243
830 1 1244 1245
831 1 1247 1246
832 1 1247 1248
833 1 1250 1249
834 1 1250 1251
835 1 1253 1252
836 1 1253 1254
837 1 1256 1255
838 1 1256 1257
839 1 1259 1258
840 1 1259 1260
841 1 1262 1261
842 1 1262 1263
843 1 1265 1264
844 1 1265 1266
845 1 1268 1267
846 1 1268 1269
847 1 1271 1270
848 1 1271 1272
849 1 1274 1273
850 1 1274 1275
851 1 1277 1276
852 1 1277 1278
853 1 1280 1279
854 1 1280 1281
855 1 1283 1282
856 1 1283 1284
857 1 1286 1285
858 1 1286 1287
859 1 1289 1288
860 1 1289 1290
861 1 1292 1291
862 1 1292 1293
863 1 1295 1294
864 1 1295 1296
865 1 1298 1297
866 1 1298 1299
867 1 1301 1300
868 1 1301 1302
869 1 1304 1303
870 1 1304 1305
871 1 1307 1306
872 1 1307 1308
873 1 1310 1309
874 1 1310 1311
875 1 1313 1312
876 1 1313 1314
877 1 1316 1315
878 1 1316 1317
879 1 1319 1318
880 1 1319 1320
881 1 1322 1321
882 1 1322 1323
883 1 1325 1324
884 1 1325 1326
885 1 1328 1327
886 1 1328 1329
887 1 1331 1330
888 1 1331 1332
889 1 1334 1333
890 1 1334 1335
891 1 1337 1336
892 1 1337 1338
893 1 1340 1339
894 1 1340 1341
895 1 1343 1342
896 1 1343 1344
897 1 1346 1345
898 1 1346 1347
899 1 1349 1348
900 1 1349 1350
901 1 1352 1351
902 1 1352 1353
903 1 1355 1354
904 1 1355 1356
905 1 1358 1357
906 1 1358 1359
907 1 1361 1360
908 1 1361 1362
909 1 1364 1363
910 1 1364 1365
911 1 1367 1366
912 1 1367 1368
913 1 1370 1369
914 1 1370 1371
915 1 1373 1372
916 1 1373 1374
917 1 1376 1375
918 1 1376 1377
919 1 1379 1378
920 1 1379 1380
921 1 1382 1381
922 1 1382 1383
923 1 1385 1384
924 1 1385 1386
925 1 1388 1387
926 1 1388 1389
927 1 1391 1390
928 1 1391 1392
929 1 1394 1393
930 1 1394 1395
931 1 1397 1396
932 1 1397 1398
933 1 1400 1399
934 1 1400 1401
935 1 1403 1402
936 1 1403 1404
937 1 1406 1405
938 1 1406 1407
939 1 1409 1408
940 1 1409 1410
941 1 1412 1411
942 1 1412 1413
943 1 1415 1414
944 1 1415 1416
945 1 1418 1417
946 1 1418 1419
947 1 1421 1420
948 1 1421 1422
949 1 1424 1423
950 1 1424 1425
951 1 1427 1426
952 1 1427 1428
953 1 1430 1429
954 1 1430 1431
955 1 1433 1432
956 1 1433 1434
957 1 1436 1435
958 1 1436 1437
959 1 1439 1438
960 1 1439 1440
961 1 1442 1441
962 1 1442 1443
963 1 1445 1444
964 1 1445 1446
965 1 1448 1447
966 1 1448 1449
967 1 1451 1450
968 1 1451 1452
969 1 1454 1453
970 1 1454 1455
971 1 1457 1456
972 1 1457 1458
973 1 1460 1459
974 1 1460 1461
975 1 1463 1462
976 1 1463 1464
977 1 1466 1465
978 1 1466 1467
979 1 1469 1468
980 1 1469 1470
981 1 1472 1471
982 1 1472 1473
983 1 1475 1474
984 1 1475 1476
985 1 1478 1477
986 1 1478 1479
987 1 1481 1480
988 1 1481 1482
989 1 1484 1483
990 1 1484 1485
991 1 1487 1486
992 1 1487 1488
993 1 1490 1489
994 1 1490 1491
995 1 1493 1492
996 1 1493 1494
997 1 1496 1495
998 1 1496 1497
999 1 1499 1498
1000 1 1499 1500
1001 1 1502 1501
1002 1 1502 1503
1003 1 1505 1504
1004 1 1505 1506
1005 1 1508 1507
1006 1 1508 1509
1007 1 1511 1510
1008 1 1511 1512
1009 1 1514 1513
1010 1 1514 1515
1011 1 1517 1516
1012 1 1517 1518
1013 1 1520 1519
1014 1 1520 1521
1015 1 1523 1522
1016 1 1523 1524
1017 1 1526 1525
1018 1 1526 1527
1019 1 1529 1528
1020 1 1529 1530
1021 1 1532 1531
1022 1 1532 1533
1023 1 1535 1534
1024 1 1535 1536
1025 1 1538 1537
1026 1 1538 1539
1027 1 1541 1540
1028 1 1541 1542
1029 1 1544 1543
1030 1 1544 1545
1031 1 1547 1546
1032 1 1547 1548
1033 1 1550 1549
1034 1 1550 1551
1035 1 1553 1552
1036 1 1553 1554
1037 1 1556 1555
1038 1 1556 1557
1039 1 1559 1558
1040 1 1559 1560
1041 1 1562 1561
1042 1 1562 1563
1043 1 1565 1564
1044 1 1565 1566
1045 1 1568 1567
1046 1 1568 1569
1047 1 1571 1570
1048 1 1571 1572
1049 1 1574 1573
1050 1 1574 1575
1051 1 1577 1576
1052 1 1577 1578
1053 1 1580 1579
1054 1 1580 1581
1055 1 1583 1582
1056 1 1583 1584
1057 1 1586 1585
1058 1 1586 1587
1059 1 1589 1588
1060 1 1589 1590
1061 1 1592 1591
1062 1 1592 1593
1063 1 1595 1594
1064 1 1595 1596
1065 1 1598 1597
1066 1 1598 1599
1067 1 1601 1600
1068 1 1601 1602
1069 1 1604 1603
1070 1 1604 1605
1071 1 1607 1606
1072 1 1607 1608
1073 1 1610 1609
1074 1 1610 1611
1075 1 1613 1612
1076 1 1613 1614
1077 1 1616 1615
1078 1 1616 1617
1079 1 1619 1618
1080 1 1619 1620
1081 1 1622 1621
1082 1 1622 1623
1083 1 1625 1624
1084 1 1625 1626
1085 1 1628 1627
1086 1 1628 1629
1087 1 1631 1630
1088 1 1631 1632
1089 1 1634 1633
1090 1 1634 1635
1091 1 1637 1636
1092 1 1637 1638
1093 1 1640 1639
1094 1 1640 1641
1095 1 1643 1642
1096 1 1643 1644
1097 1 1646 1645
1098 1 1646 1647
1099 1 1649 1648
1100 1 1649 1650
1101 1 1652 1651
1102 1 1652 1653
1103 1 1655 1654
1104 1 1655 1656
1105 1 1658 1657
1106 1 1658 1659
1107 1 1661 1660
1108 1 1661 1662
1109 1 1664 1663
1110 1 1664 1665
1111 1 1667 1666
1112 1 1667 1668
1113 1 1670 1669
1114 1 1670 1671
1115 1 1673 1672
1116 1 1673 1674
1117 1 1676 1675
1118 1 1676 1677
1119 1 1679 1678
1120 1 1679 1680
1121 1 1682 1681
1122 1 1682 1683
1123 1 1685 1684
1124 1 1685 1686
1125 1 1688 1687
1126 1 1688 1689
1127 1 1691 1690
1128 1 1691 1692
1129 1 1694 1693
1130 1 1694 1695
1131 1 1697 1696
1132 1 1697 1698
1133 1 1700 1699
1134 1 1700 1701
1135 1 1703 1702
1136 1 1703 1704
1137 1 1706 1705
1138 1 1706 1707
1139 1 1709 1708
1140 1 1709 1710
1141 1 1712 1711
1142 1 1712 1713
1143 1 1715 1714
1144 1 1715 1716
1145 1 1718 1717
1146 1 1718 1719
1147 1 1721 1720
1148 1 1721 1722
1149 1 1724 1723
1150 1 1724 1725
1151 1 1727 1726
1152 1 1727 1728
1153 1 1730 1729
1154 1 1730 1731
1155 1 1733 1732
1156 1 1733 1734
1157 1 1736 1735
1158 1 1736 1737
1159 1 1739 1738
1160 1 1739 1740
1161 1 1742 1741
1162 1 1742 1743
1163 1 1745 1744
1164 1 1745 1746
1165 1 1748 1747
1166 1 1748 1749
1167 1 1751 1750
1168 1 1751 1752
1169 1 1754 1753
1170 1 1754 1755
1171 1 1757 1756
1172 1 1757 1758
1173 1 1760 1759
1174 1 1760 1761
1175 1 1763 1762
1176 1 1763 1764
1177 1 1766 1765
1178 1 1766 1767
1179 1 1769 1768
1180 1 1769 1770
1181 1 1772 1771
1182 1 1772 1773
1183 1 1775 1774
1184 1 1775 1776
1185 1 1778 1777
1186 1 1778 1779
1187 1 1781 1780
1188 1 1781 1782
1189 1 1784 1783
1190 1 1784 1785
1191 1 1787 1786
1192 1 1787 1788
1193 1 1790 1789
1194 1 1790 1791
1195 1 1793 1792
1196 1 1793 1794
1197 1 1796 1795
1198 1 1796 1797
1199 1 1799 1798
1200 1 1799 1800
1201 1 1802 1801
1202 1 1802 1803
1203 1 1805 1804
1204 1 1805 1806
1205 1 1808 1807
1206 1 1808 1809
1207 1 1811 1810
1208 1 1811 1812
1209 1 1814 1813
1210 1 1814 1815
1211 1 1817 1816
1212 1 1817 1818
1213 1 1820 1819
1214 1 1820 1821
1215 1 1823 1822
1216 1 1823 1824
1217 1 1826 1825
1218 1 1826 1827
1219 1 1829 1828
1220 1 1829 1830
1221 1 1832 1831
1222 1 1832 1833
1223 1 1835 1834
1224 1 1835 1836
1225 1 1838 1837
1226 1 1838 1839
1227 1 1841 1840
1228 1 1841 1842
1229 1 1844 1843
1230 1 1844 1845
1231 1 1847 1846
1232 1 1847 1848
1233 1 1850 1849
1234 1 1850 1851
1235 1 1853 1852
1236 1 1853 1854
1237 1 1856 1855
1238 1 1856 1857
1239 1 1859 1858
1240 1 1859 1860
1241 1 1862 1861
1242 1 1862 1863
1243 1 1865 1864
1244 1 1865 1866
1245 1 1868 1867
1246 1 1868 1869
1247 1 1871 1870
1248 1 1871 1872
1249 1 1874 1873
1250 1 1874 1875
1251 1 1877 1876
1252 1 1877 1878
1253 1 1880 1879
1254 1 1880 1881
1255 1 1883 1882
1256 1 1883 1884
1257 1 1886 1885
1258 1 1886 1887
1259 1 1889 1888
1260 1 1889 1890
1261 1 1892 1891
1262 1 1892 1893
1263 1 1895 1894
1264 1 1895 1896
1265 1 1898 1897
1266 1 1898 1899
1267 1 1901 1900
1268 1 1901 1902
1269 1 1904 1903
1270 1 1904 1905
1271 1 1907 1906
1272 1 1907 1908
1273 1 1910 1909
1274 1 1910 1911
1275 1 1913 1912
1276 1 1913 1914
1277 1 1916 1915
1278 1 1916 1917
1279 1 1919 1918
1280 1 1919 1920
1281 1 1922 1921
1282 1 1922 1923
1283 1 1925 1924
1284 1 1925 1926
1285 1 1928 1927
1286 1 1928 1929
1287 1 1931 1930
1288 1 1931 1932
1289 1 1934 1933
1290 1 1934 1935
1291 1 1937 1936
1292 1 1937 1938
1293 1 1940 1939
1294 1 1940 1941
1295 1 1943 1942
1296 1 1943 1944
1297 1 1946 1945
1298 1 1946 1947
1299 1 1949 1948
1300 1 1949 1950
1301 1 1952 1951
1302 1 1952 1953
1303 1 1955 1954
1304 1 1955 1956
1305 1 1958 1957
1306 1 1958 1959
1307 1 1961 1960
1308 1 1961 1962
1309 1 1964 1963
1310 1 1964 1965
1311 1 1967 1966
1312 1 1967 1968
1313 1 1970 1969
1314 1 1970 1971
1315 1 1973 1972
1316 1 1973 1974
1317 1 1976 1975
1318 1 1976 1977
1319 1 1979 1978
1320 1 1979 1980
1321 1 1982 1981
1322 1 1982 1983
1323 1 1985 1984
1324 1 1985 1986
1325 1 1988 1987
1326 1 1988 1989
1327 1 1991 1990
1328 1 1991 1992
1329 1 1994 1993
1330 1 1994 1995
1331 1 1997 1996
1332 1 1997 1998
1333 1 2000 1999
1334 1 2000 2001
1335 1 2003 2002
1336 1 2003 2004
1337 1 2006 2005
1338 1 2006 2007
1339 1 2009 2008
1340 1 2009 2010
1341 1 2012 2011
1342 1 2012 2013
1343 1 2015 2014
1344 1 2015 2016
1345 1 2018 2017
1346 1 2018 2019
1347 1 2021 2020
1348 1 2021 2022
1349 1 2024 2023
1350 1 2024 2025
1351 1 2027 2026
1352 1 2027 2028
1353 1 2030 2029
1354 1 2030 2031
1355 1 2033 2032
1356 1 2033 2034
1357 1 2036 2035
1358 1 2036 2037
1359 1 2039 2038
1360 1 2039 2040
1361 1 2042 2041
1362 1 2042 2043
1363 1 2045 2044
1364 1 2045 2046
1365 1 2048 2047
1366 1 2048 2049
1367 1 2051 2050
1368 1 2051 2052
1369 1 2054 2053
1370 1 2054 2055
1371 1 2057 2056
1372 1 2057 2058
1373 1 2060 2059
1374 1 2060 2061
1375 1 2063 2062
1376 1 2063 2064
1377 1 2066 2065
1378 1 2066 2067
1379 1 2069 2068
1380 1 2069 2070
1381 1 2072 2071
1382 1 2072 2073
1383 1 2075 2074
1384 1 2075 2076
1385 1 2078 2077
1386 1 2078 2079
1387 1 2081 2080
1388 1 2081 2082
1389 1 2084 2083
1390 1 2084 2085
1391 1 2087 2086
1392 1 2087 2088
1393 1 2090 2089
1394 1 2090 2091
1395 1 2093 2092
1396 1 2093 2094
1397 1 2096 2095
1398 1 2096 2097
1399 1 2099 2098
1400 1 2099 2100
1401 1 2102 2101
1402 1 2102 2103
1403 1 2105 2104
1404 1 2105 2106
1405 1 2108 2107
1406 1 2108 2109
1407 1 2111 2110
1408 1 2111 2112
1409 1 2114 2113
1410 1 2114 2115
1411 1 2117 2116
1412 1 2117 2118
1413 1 2120 2119
1414 1 2120 2121
1415 1 2123 2122
1416 1 2123 2124
1417 1 2126 2125
1418 1 2126 2127
1419 1 2129 2128
1420 1 2129 2130
1421 1 2132 2131
1422 1 2132 2133
1423 1 2135 2134
1424 1 2135 2136
1425 1 2138 2137
1426 1 2138 2139
1427 1 2141 2140
1428 1 2141 2142
1429 1 2144 2143
1430 1 2144 2145
1431 1 2147 2146
1432 1 2147 2148
1433 1 2150 2149
1434 1 2150 2151
1435 1 2153 2152
1436 1 2153 2154
1437 1 2156 2155
1438 1 2156 2157
1439 1 2159 2158
1440 1 2159 2160
1441 1 2162 2161
1442 1 2162 2163
1443 1 2165 2164
1444 1 2165 2166
1445 1 2168 2167
1446 1 2168 2169
1447 1 2171 2170
1448 1 2171 2172
1449 1 2174 2173
1450 1 2174 2175
1451 1 2177 2176
1452 1 2177 2178
1453 1 2180 2179
1454 1 2180 2181
1455 1 2183 2182
1456 1 2183 2184
1457 1 2186 2185
1458 1 2186 2187
1459 1 2189 2188
1460 1 2189 2190
1461 1 2192 2191
1462 1 2192 2193
1463 1 2195 2194
1464 1 2195 2196
1465 1 2198 2197
1466 1 2198 2199
1467 1 2201 2200
1468 1 2201 2202
1469 1 2204 2203
1470 1 2204 2205
1471 1 2207 2206
1472 1 2207 2208
1473 1 2210 2209
1474 1 2210 2211
1475 1 2213 2212
1476 1 2213 2214
1477 1 2216 2215
1478 1 2216 2217
1479 1 2219 2218
1480 1 2219 2220
1481 1 2222 2221
1482 1 2222 2223
1483 1 2225 2224
1484 1 2225 2226
1485 1 2228 2227
1486 1 2228 2229
1487 1 2231 2230
1488 1 2231 2232
1489 1 2234 2233
1490 1 2234 2235
1491 1 2237 2236
1492 1 2237 2238
1493 1 2240 2239
1494 1 2240 2241
1495 1 2243 2242
1496 1 2243 2244
1497 1 2246 2245
1498 1 2246 2247
1499 1 2249 2248
1500 1 2249 2250
1501 1 2252 2251
1502 1 2252 2253
1503 1 2255 2254
1504 1 2255 2256
1505 1 2258 2257
1506 1 2258 2259
1507 1 2261 2260
1508 1 2261 2262
1509 1 2264 2263
1510 1 2264 2265
1511 1 2267 2266
1512 1 2267 2268
1513 1 2270 2269
1514 1 2270 2271
1515 1 2273 2272
1516 1 2273 2274
1517 1 2276 2275
1518 1 2276 2277
1519 1 2279 2278
1520 1 2279 2280
1521 1 2282 2281
1522 1 2282 2283
1523 1 2285 2284
1524 1 2285 2286
1525 1 2288 2287
1526 1 2288 2289
1527 1 2291 2290
1528 1 2291 2292
1529 1 2294 2293
1530 1 2294 2295
1531 1 2297 2296
1532 1 2297 2298
1533 1 2300 2299
1534 1 2300 2301
1535 1 2303 2302
1536 1 2303 2304
1537 1 2306 2305
1538 1 2306 2307
1539 1 2309 2308
1540 1 2309 2310
1541 1 2312 2311
1542 1 2312 2313
1543 1 2315 2314
1544 1 2315 2316
1545 1 2318 2317
1546 1 2318 2319
1547 1 2321 2320
1548 1 2321 2322
1549 1 2324 2323
1550 1 2324 2325
1551 1 2327 2326
1552 1 2327 2328
1553 1 2330 2329
1554 1 2330 2331
1555 1 2333 2332
1556 1 2333 2334
1557 1 2336 2335
1558 1 2336 2337
1559 1 2339 2338
1560 1 2339 2340
1561 1 2342 2341
1562 1 2342 2343
1563 1 2345 2344
1564 1 2345 2346
1565 1 2348 2347
1566 1 2348 2349
1567 1 2351 2350
1568 1 2351 2352
1569 1 2354 2353
1570 1 2354 2355
1571 1 2357 2356
1572 1 2357 2358
1573 1 2360 2359
1574 1 2360 2361
1575 1 2363 2362
1576 1 2363 2364
1577 1 2366 2365
1578 1 2366 2367
1579 1 2369 2368
1580 1 2369 2370
1581 1 2372 2371
1582 1 2372 2373
1583 1 2375 2374
1584 1 2375 2376
1585 1 2378 2377
1586 1 2378 2379
1587 1 2381 2380
1588 1 2381 2382
1589 1 2384 2383
1590 1 2384 2385
1591 1 2387 2386
1592 1 2387 2388
1593 1 2390 2389
1594 1 2390 2391
1595 1 2393 2392
1596 1 2393 2394
1597 1 2396 2395
1598 1 2396 2397
1599 1 2399 2398
1600 1 2399 2400
1601 1 2402 2401
1602 1 2402 2403
1603 1 2405 2404
1604 1 2405 2406
1605 1 2408 2407
1606 1 2408 2409
1607 1 2411 2410
1608 1 2411 2412
1609 1 2414 2413
1610 1 2414 2415
1611 1 2417 2416
1612 1 2417 2418
1613 1 2420 2419
1614 1 2420 2421
1615 1 2423 2422
1616 1 2423 2424
1617 1 2426 2425
1618 1 2426 2427
1619 1 2429 2428
1620 1 2429 2430
1621 1 2432 2431
1622 1 2432 2433
1623 1 2435 2434
1624 1 2435 2436
1625 1 2438 2437
1626 1 2438 2439
1627 1 2441 2440
1628 1 2441 2442
1629 1 2444 2443
1630 1 2444 2445
1631 1 2447 2446
1632 1 2447 2448
1633 1 2450 2449
1634 1 2450 2451
1635 1 2453 2452
1636 1 2453 2454
1637 1 2456 2455
1638 1 2456 2457
1639 1 2459 2458
1640 1 2459 2460
1641 1 2462 2461
1642 1 2462 2463
1643 1 2465 2464
1644 1 2465 2466
1645 1 2468 2467
1646 1 2468 2469
1647 1 2471 2470
1648 1 2471 2472
1649 1 2474 2473
1650 1 2474 2475
1651 1 2477 2476
1652 1 2477 2478
1653 1 2480 2479
1654 1 2480 2481
1655 1 2483 2482
1656 1 2483 2484
1657 1 2486 2485
1658 1 2486 2487
1659 1 2489 2488
1660 1 2489 2490
1661 1 2492 2491
1662 1 2492 2493
1663 1 2495 2494
1664 1 2495 2496
1665 1 2498 2497
1666 1 2498 2499
1667 1 2501 2500
1668 1 2501 2502
1669 1 2504 2503
1670 1 2504 2505
1671 1 2507 2506
1672 1 2507 2508
1673 1 2510 2509
1674 1 2510 2511
1675 1 2513 2512
1676 1 2513 2514
1677 1 2516 2515
1678 1 2516 2517
1679 1 2519 2518
1680 1 2519 2520
1681 1 2522 2521
1682 1 2522 2523
1683 1 2525 2524
1684 1 2525 2526
1685 1 2528 2527
1686 1 2528 2529
1687 1 2531 2530
1688 1 2531 2532
1689 1 2534 2533
1690 1 2534 2535
1691 1 2537 2536
1692 1 2537 2538
1693 1 2540 2539
1694 1 2540 2541
1695 1 2543 2542
1696 1 2543 2544
1697 1 2546 2545
1698 1 2546 2547
1699 1 2549 2548
1700 1 2549 2550
1701 1 2552 2551
1702 1 2552 2553
1703 1 2555 2554
1704 1 2555 2556
1705 1 2558 2557
1706 1 2558 2559
1707 1 2561 2560
1708 1 2561 2562
1709 1 2564 2563
1710 1 2564 2565
1711 1 2567 2566
1712 1 2567 2568
1713 1 2570 2569
1714 1 2570 2571
1715 1 2573 2572
1716 1 2573 2574
1717 1 2576 2575
1718 1 2576 2577
1719 1 2579 2578
1720 1 2579 2580
1721 1 2582 2581
1722 1 2582 2583
1723 1 2585 2584
1724 1 2585 2586
1725 1 2588 2587
1726 1 2588 2589
1727 1 2591 2590
1728 1 2591 2592
1729 1 2594 2593
1730 1 2594 2595
1731 1 2597 2596
1732 1 2597 2598
1733 1 2600 2599
1734 1 2600 2601
1735 1 2603 2602
1736 1 2603 2604
1737 1 2606 2605
1738 1 2606 2607
1739 1 2609 2608
1740 1 2609 2610
1741 1 2612 2611
1742 1 2612 2613
1743 1 2615 2614
1744 1 2615 2616
1745 1 2618 2617
1746 1 2618 2619
1747 1 2621 2620
1748 1 2621 2622
1749 1 2624 2623
1750 1 2624 2625
1751 1 2627 2626
1752 1 2627 2628
1753 1 2630 2629
1754 1 2630 2631
1755 1 2633 2632
1756 1 2633 2634
1757 1 2636 2635
1758 1 2636 2637
1759 1 2639 2638
1760 1 2639 2640
1761 1 2642 2641
1762 1 2642 2643
1763 1 2645 2644
1764 1 2645 2646
1765 1 2648 2647
1766 1 2648 2649
1767 1 2651 2650
1768 1 2651 2652
1769 1 2654 2653
1770 1 2654 2655
1771 1 2657 2656
1772 1 2657 2658
1773 1 2660 2659
1774 1 2660 2661
1775 1 2663 2662
1776 1 2663 2664
1777 1 2666 2665
1778 1 2666 2667
1779 1 2669 2668
1780 1 2669 2670
1781 1 2672 2671
1782 1 2672 2673
1783 1 2675 2674
1784 1 2675 2676
1785 1 2678 2677
1786 1 2678 2679
1787 1 2681 2680
1788 1 2681 2682
1789 1 2684 2683
1790 1 2684 2685
1791 1 2687 2686
1792 1 2687 2688
1793 1 2690 2689
1794 1 2690 2691
1795 1 2693 2692
1796 1 2693 2694
1797 1 2696 2695
1798 1 2696 2697
1799 1 2699 2698
1800 1 2699 2700
1801 1 2702 2701
1802 1 2702 2703
1803 1 2705 2704
1804 1 2705 2706
1805 1 2708 2707
1806 1 2708 2709
1807 1 2711 2710
1808 1 2711 2712
1809 1 2714 2713
1810 1 2714 2715
1811 1 2717 2716
1812 1 2717 2718
1813 1 2720 2719
1814 1 2720 2721
1815 1 2723 2722
1816 1 2723 2724
1817 1 2726 2725
1818 1 2726 2727
1819 1 2729 2728
1820 1 2729 2730
1821 1 2732 2731
1822 1 2732 2733
1823 1 2735 2734
1824 1 2735 2736
1825 1 2738 2737
1826 1 2738 2739
1827 1 2741 2740
1828 1 2741 2742
1829 1 2744 2743
1830 1 2744 2745
1831 1 2747 2746
1832 1 2747 2748
1833 1 2750 2749
1834 1 2750 2751
1835 1 2753 2752
1836 1 2753 2754
1837 1 2756 2755
1838 1 2756 2757
1839 1 2759 2758
1840 1 2759 2760
1841 1 2762 2761
1842 1 2762 2763
1843 1 2765 2764
1844 1 2765 2766
1845 1 2768 2767
1846 1 2768 2769
1847 1 2771 2770
1848 1 2771 2772
1849 1 2774 2773
1850 1 2774 2775
1851 1 2777 2776
1852 1 2777 2778
1853 1 2780 2779
1854 1 2780 2781
1855 1 2783 2782
1856 1 2783 2784
1857 1 2786 2785
1858 1 2786 2787
1859 1 2789 2788
1860 1 2789 2790
1861 1 2792 2791
1862 1 2792 2793
1863 1 2795 2794
1864 1 2795 2796
1865 1 2798 2797
1866 1 2798 2799
1867 1 2801 2800
1868 1 2801 2802
1869 1 2804 2803
1870 1 2804 2805
1871 1 2807 2806
1872 1 2807 2808
1873 1 2810 2809
1874 1 2810 2811
1875 1 2813 2812
1876 1 2813 2814
1877 1 2816 2815
1878 1 2816 2817
1879 1 2819 2818
1880 1 2819 2820
1881 1 2822 2821
1882 1 2822 2823
1883 1 2825 2824
1884 1 2825 2826
1885 1 2828 2827
1886 1 2828 2829
1887 1 2831 2830
1888 1 2831 2832
1889 1 2834 2833
1890 1 2834 2835
1891 1 2837 2836
1892 1 2837 2838
1893 1 2840 2839
1894 1 2840 2841
1895 1 2843 2842
1896 1 2843 2844
1897 1 2846 2845
1898 1 2846 2847
1899 1 2849 2848
1900 1 2849 2850
1901 1 2852 2851
1902 1 2852 2853
1903 1 2855 2854
1904 1 2855 2856
1905 1 2858 2857
1906 1 2858 2859
1907 1 2861 2860
1908 1 2861 2862
1909 1 2864 2863
1910 1 2864 2865
1911 1 2867 2866
1912 1 2867 2868
1913 1 2870 2869
1914 1 2870 2871
1915 1 2873 2872
1916 1 2873 2874
1917 1 2876 2875
1918 1 2876 2877
1919 1 2879 2878
1920 1 2879 2880
1921 1 2882 2881
1922 1 2882 2883
1923 1 2885 2884
1924 1 2885 2886
1925 1 2888 2887
1926 1 2888 2889
1927 1 2891 2890
1928 1 2891 2892
1929 1 2894 2893
1930 1 2894 2895
1931 1 2897 2896
1932 1 2897 2898
1933 1 2900 2899
1934 1 2900 2901
1935 1 2903 2902
1936 1 2903 2904
1937 1 2906 2905
1938 1 2906 2907
1939 1 2909 2908
1940 1 2909 2910
1941 1 2912 2911
1942 1 2912 2913
1943 1 2915 2914
1944 1 2915 2916
1945 1 2918 2917
1946 1 2918 2919
1947 1 2921 2920
1948 1 2921 2922
1949 1 2924 2923
1950 1 2924 2925
1951 1 2927 2926
1952 1 2927 2928
1953 1 2930 2929
1954 1 2930 2931
1955 1 2933 2932
1956 1 2933 2934
1957 1 2936 2935
1958 1 2936 2937
1959 1 2939 2938
1960 1 2939 2940
1961 1 2942 2941
1962 1 2942 2943
1963 1 2945 2944
1964 1 2945 2946
1965 1 2948 2947
1966 1 2948 2949
1967 1 2951 2950
1968 1 2951 2952
1969 1 2954 2953
1970 1 2954 2955
1971 1 2957 2956
1972 1 2957 2958
1973 1 2960 2959
1974 1 2960 2961
1975 1 2963 2962
1976 1 2963 2964
1977 1 2966 2965
1978 1 2966 2967
1979 1 2969 2968
1980 1 2969 2970
1981 1 2972 2971
1982 1 2972 2973
1983 1 2975 2974
1984 1 2975 2976
1985 1 2978 2977
1986 1 2978 2979
1987 1 2981 2980
1988 1 2981 2982
1989 1 2984 2983
1990 1 2984 2985
1991 1 2987 2986
1992 1 2987 2988
1993 1 2990 2989
1994 1 2990 2991
1995 1 2993 2992
1996 1 2993 2994
1997 1 2996 2995
1998 1 2996 2997
1999 1 2999 2998
2000 1 2999 3000
2001 1 3002 3001
2002 1 3002 3003
2003 1 3005 3004
2004 1 3005 3006
2005 1 3008 3007
2006 1 3008 3009
2007 1 3011 3010
2008 1 3011 3012
2009 1 3014 3013
2010 1 3014 3015
2011 1 3017 3016
2012 1 3017 3018
2013 1 3020 3019
2014 1 3020 3021
2015 1 3023 3022
2016 1 3023 3024
2017 1 3026 3025
2018 1 3026 3027
2019 1 3029 3028
2020 1 3029 3030
2021 1 3032 3031
2022 1 3032 3033
2023 1 3035 3034
2024 1 3035 3036
2025 1 3038 3037
2026 1 3038 3039
2027 1 3041 3040
2028 1 3041 3042
2029 1 3044 3043
2030 1 3044 3045
2031 1 3047 3046
2032 1 3047 3048
2033 1 3050 3049
2034 1 3050 3051
2035 1 3053 3052
2036 1 3053 3054
2037 1 3056 3055
2038 1 3056 3057
2039 1 3059 3058
2040 1 3059 3060
2041 1 3062 3061
2042 1 3062 3063
2043 1 3065 3064
2044 1 3065 3066
2045 1 3068 3067
2046 1 3068 3069
2047 1 3071 3070
2048 1 3071 3072
2049 1 3074 3073
2050 1 3074 3075
2051 1 3077 3076
2052 1 3077 3078
2053 1 3080 3079
2054 1 3080 3081
2055 1 3083 3082
2056 1 3083 3084
2057 1 3086 3085
2058 1 3086 3087
2059 1 3089 3088
2060 1 3089 3090
2061 1 3092 3091
2062 1 3092 3093
2063 1 3095 3094
2064 1 3095 3096
2065 1 3098 3097
2066 1 3098 3099
2067 1 3101 3100
2068 1 3101 3102
2069 1 3104 3103
2070 1 3104 3105
2071 1 3107 3106
2072 1 3107 3108
2073 1 3110 3109
2074 1 3110 3111
2075 1 3113 3112
2076 1 3113 3114
2077 1 3116 3115
2078 1 3116 3117
2079 1 3119 3118
2080 1 3119 3120
2081 1 3122 3121
2082 1 3122 3123
2083 1 3125 3124
2084 1 3125 3126
2085 1 3128 3127
2086 1 3128 3129
2087 1 3131 3130
2088 1 3131 3132
2089 1 3134 3133
2090 1 3134 3135
2091 1 3137 3136
2092 1 3137 3138
2093 1 3140 3139
2094 1 3140 3141
2095 1 3143 3142
2096 1 3143 3144
2097 1 3146 3145
2098 1 3146 3147
2099 1 3149 3148
2100 1 3149 3150
2101 1 3152 3151
2102 1 3152 3153
2103 1 3155 3154
2104 1 3155 3156
2105 1 3158 3157
2106 1 3158 3159
2107 1 3161 3160
2108 1 3161 3162
2109 1 3164 3163
2110 1 3164 3165
2111 1 3167 3166
2112 1 3167 3168
2113 1 3170 3169
2114 1 3170 3171
2115 1 3173 3172
2116 1 3173 3174
2117 1 3176 3175
2118 1 3176 3177
2119 1 3179 3178
2120 1 3179 3180
2121 1 3182 3181
2122 1 3182 3183
2123 1 3185 3184
2124 1 3185 3186
2125 1 3188 3187
2126 1 3188 3189
2127 1 3191 3190
2128 1 3191 3192
2129 1 3194 3193
2130 1 3194 3195
2131 1 3197 3196
2132 1 3197 3198
2133 1 3200 3199
2134 1 3200 3201
2135 1 3203 3202
2136 1 3203 3204
2137 1 3206 3205
2138 1 3206 3207
2139 1 3209 3208
2140 1 3209 3210
2141 1 3212 3211
2142 1 3212 3213
2143 1 3215 3214
2144 1 3215 3216
2145 1 3218 3217
2146 1 3218 3219
2147 1 3221 3220
2148 1 3221 3222
2149 1 3224 3223
2150 1 3224 3225
2151 1 3227 3226
2152 1 3227 3228
2153 1 3230 3229
2154 1 3230 3231
2155 1 3233 3232
2156 1 3233 3234
2157 1 3236 3235
2158 1 3236 3237
2159 1 3239 3238
2160 1 3239 3240
2161 1 3242 3241
2162 1 3242 3243
2163 1 3245 3244
2164 1 3245 3246
2165 1 3248 3247
2166 1 3248 3249
2167 1 3251 3250
2168 1 3251 3252
2169 1 3254 3253
2170 1 3254 3255
2171 1 3257 3256
2172 1 3257 3258
2173 1 3260 3259
2174 1 3260 3261
2175 1 3263 3262
2176 1 3263 3264
2177 1 3266 3265
2178 1 3266 3267
2179 1 3269 3268
2180 1 3269 3270
2181 1 3272 3271
2182 1 3272 3273
2183 1 3275 3274
2184 1 3275 3276
2185 1 3278 3277
2186 1 3278 3279
2187 1 3281 3280
2188 1 3281 3282
2189 1 3284 3283
2190 1 3284 3285
2191 1 3287 3286
2192 1 3287 3288
2193 1 3290 3289
2194 1 3290 3291
2195 1 3293 3292
2196 1 3293 3294
2197 1 3296 3295
2198 1 3296 3297
2199 1 3299 3298
2200 1 3299 3300
2201 1 3302 3301
2202 1 3302 3303
2203 1 3305 3304
2204 1 3305 3306
2205 1 3308 3307
2206 1 3308 3309
2207 1 3311 3310
2208 1 3311 3312
2209 1 3314 3313
2210 1 3314 3315
2211 1 3317 3316
2212 1 3317 3318
2213 1 3320 3319
2214 1 3320 3321
2215 1 3323 3322
2216 1 3323 3324
2217 1 3326 3325
2218 1 3326 3327
2219 1 3329 3328
2220 1 3329 3330
2221 1 3332 3331
2222 1 3332 3333
2223 1 3335 3334
2224 1 3335 3336
2225 1 3338 3337
2226 1 3338 3339
2227 1 3341 3340
2228 1 3341 3342
2229 1 3344 3343
2230 1 3344 3345
2231 1 3347 3346
2232 1 3347 3348
2233 1 3350 3349
2234 1 3350 3351
2235 1 3353 3352
2236 1 3353 3354
2237 1 3356 3355
2238 1 3356 3357
2239 1 3359 3358
2240 1 3359 3360
2241 1 3362 3361
2242 1 3362 3363
2243 1 3365 3364
2244 1 3365 3366
2245 1 3368 3367
2246 1 3368 3369
2247 1 3371 3370
2248 1 3371 3372
2249 1 3374 3373
2250 1 3374 3375
2251 1 3377 3376
2252 1 3377 3378
2253 1 3380 3379
2254 1 3380 3381
2255 1 3383 3382
2256 1 3383 3384
2257 1 3386 3385
2258 1 3386 3387
2259 1 3389 3388
2260 1 3389 3390
2261 1 3392 3391
2262 1 3392 3393
2263 1 3395 3394
2264 1 3395 3396
2265 1 3398 3397
2266 1 3398 3399
2267 1 3401 3400
2268 1 3401 3402
2269 1 3404 3403
2270 1 3404 3405
2271 1 3407 3406
2272 1 3407 3408
2273 1 3410 3409
2274 1 3410 3411
2275 1 3413 3412
2276 1 3413 3414
2277 1 3416 3415
2278 1 3416 3417
2279 1 3419 3418
2280 1 3419 3420
2281 1 3422 3421
2282 1 3422 3423
2283 1 3425 3424
2284 1 3425 3426
2285 1 3428 3427
2286 1 3428 3429
2287 1 3431 3430
2288 1 3431 3432
2289 1 3434 3433
2290 1 3434 3435
2291 1 3437 3436
2292 1 3437 3438
2293 1 3440 3439
2294 1 3440 3441
2295 1 3443 3442
2296 1 3443 3444
2297 1 3446 3445
2298 1 3446 3447
2299 1 3449 3448
2300 1 3449 3450
2301 1 3452 3451
2302 1 3452 3453
2303 1 3455 3454
2304 1 3455 3456
2305 1 3458 3457
2306 1 3458 3459
2307 1 3461 3460
2308 1 3461 3462
2309 1 3464 3463
2310 1 3464 3465
2311 1 3467 3466
2312 1 3467 3468
2313 1 3470 3469
2314 1 3470 3471
2315 1 3473 3472
2316 1 3473 3474
2317 1 3476 3475
2318 1 3476 3477
2319 1 3479 3478
2320 1 3479 3480
2321 1 3482 3481
2322 1 3482 3483
2323 1 3485 3484
2324 1 3485 3486
2325 1 3488 3487
2326 1 3488 3489
2327 1 3491 3490
2328 1 3491 3492
2329 1 3494 3493
2330 1 3494 3495
2331 1 3497 3496
2332 1 3497 3498
2333 1 3500 3499
2334 1 3500 3501
2335 1 3503 3502
2336 1 3503 3504
2337 1 3506 3505
2338 1 3506 3507
2339 1 3509 3508
2340 1 3509 3510
2341 1 3512 3511
2342 1 3512 3513
2343 1 3515 3514
2344 1 3515 3516
2345 1 3518 3517
2346 1 3518 3519
2347 1 3521 3520
2348 1 3521 3522
2349 1 3524 3523
2350 1 3524 3525
2351 1 3527 3526
2352 1 3527 3528
2353 1 3530 3529
2354 1 3530 3531
2355 1 3533 3532
2356 1 3533 3534
2357 1 3536 3535
2358 1 3536 3537
2359 1 3539 3538
2360 1 3539 3540
2361 1 3542 3541
2362 1 3542 3543
2363 1 3545 3544
2364 1 3545 3546
2365 1 3548 3547
2366 1 3548 3549
2367 1 3551 3550
2368 1 3551 3552
2369 1 3554 3553
2370 1 3554 3555
2371 1 3557 3556
2372 1 3557 3558
2373 1 3560 3559
2374 1 3560 3561
2375 1 3563 3562
2376 1 3563 3564
2377 1 3566 3565
2378 1 3566 3567
2379 1 3569 3568
2380 1 3569 3570
2381 1 3572 3571
2382 1 3572 3573
2383 1 3575 3574
2384 1 3575 3576
2385 1 3578 3577
2386 1 3578 3579
2387 1 3581 3580
2388 1 3581 3582
2389 1 3584 3583
2390 1 3584 3585
2391 1 3587 3586
2392 1 3587 3588
2393 1 3590 3589
2394 1 3590 3591
2395 1 3593 3592
2396 1 3593 3594
2397 1 3596 3595
2398 1 3596 3597
2399 1 3599 3598
2400 1 3599 3600
2401 1 3602 3601
2402 1 3602 3603
2403 1 3605 3604
2404 1 3605 3606
2405 1 3608 3607
2406 1 3608 3609
2407 1 3611 3610
2408 1 3611 3612
2409 1 3614 3613
2410 1 3614 3615
2411 1 3617 3616
2412 1 3617 3618
2413 1 3620 3619
2414 1 3620 3621
2415 1 3623 3622
2416 1 3623 3624
2417 1 3626 3625
2418 1 3626 3627
2419 1 3629 3628
2420 1 3629 3630
2421 1 3632 3631
2422 1 3632 3633
2423 1 3635 3634
2424 1 3635 3636
2425 1 3638 3637
2426 1 3638 3639
2427 1 3641 3640
2428 1 3641 3642
2429 1 3644 3643
2430 1 3644 3645
2431 1 3647 3646
2432 1 3647 3648
2433 1 3650 3649
2434 1 3650 3651
2435 1 3653 3652
2436 1 3653 3654
2437 1 3656 3655
2438 1 3656 3657
2439 1 3659 3658
2440 1 3659 3660
2441 1 3662 3661
2442 1 3662 3663
2443 1 3665 3664
2444 1 3665 3666
2445 1 3668 3667
2446 1 3668 3669
2447 1 3671 3670
2448 1 3671 3672
2449 1 3674 3673
2450 1 3674 3675
2451 1 3677 3676
2452 1 3677 3678
2453 1 3680 3679
2454 1 3680 3681
2455 1 3683 3682
2456 1 3683 3684
2457 1 3686 3685
2458 1 3686 3687
2459 1 3689 3688
2460 1 3689 3690
2461 1 3692 3691
2462 1 3692 3693
2463 1 3695 3694
2464 1 3695 3696
2465 1 3698 3697
2466 1 3698 3699
2467 1 3701 3700
2468 1 3701 3702
2469 1 3704 3703
2470 1 3704 3705
2471 1 3707 3706
2472 1 3707 3708
2473 1 3710 3709
2474 1 3710 3711
2475 1 3713 3712
2476 1 3713 3714
2477 1 3716 3715
2478 1 3716 3717
2479 1 3719 3718
2480 1 3719 3720
2481 1 3722 3721
2482 1 3722 3723
2483 1 3725 3724
2484 1 3725 3726
2485 1 3728 3727
2486 1 3728 3729
2487 1 3731 3730
2488 1 3731 3732
2489 1 3734 3733
2490 1 3734 3735
2491 1 3737 3736
2492 1 3737 3738
2493 1 3740 3739
2494 1 3740 3741
2495 1 3743 3742
2496 1 3743 3744
2497 1 3746 3745
2498 1 3746 3747
2499 1 3749 3748
2500 1 3749 3750
2501 1 3752 3751
2502 1 3752 3753
2503 1 3755 3754
2504 1 3755 3756
2505 1 3758 3757
2506 1 3758 3759
2507 1 3761 3760
2508 1 3761 3762
2509 1 3764 3763
2510 1 3764 3765
2511 1 3767 3766
2512 1 3767 3768
2513 1 3770 3769
2514 1 3770 3771
2515 1 3773 3772
2516 1 3773 3774
2517 1 3776 3775
2518 1 3776 3777
2519 1 3779 3778
2520 1 3779 3780
2521 1 3782 3781
2522 1 3782 3783
2523 1 3785 3784
2524 1 3785 3786
2525 1 3788 3787
2526 1 3788 3789
2527 1 3791 3790
2528 1 3791 3792
2529 1 3794 3793
2530 1 3794 3795
2531 1 3797 3796
2532 1 3797 3798
2533 1 3800 3799
2534 1 3800 3801
2535 1 3803 3802
2536 1 3803 3804
2537 1 3806 3805
2538 1 3806 3807
2539 1 3809 3808
2540 1 3809 3810
2541 1 3812 3811
2542 1 3812 3813
2543 1 3815 3814
2544 1 3815 3816
2545 1 3818 3817
2546 1 3818 3819
2547 1 3821 3820
2548 1 3821 3822
2549 1 3824 3823
2550 1 3824 3825
2551 1 3827 3826
2552 1 3827 3828
2553 1 3830 3829
2554 1 3830 3831
2555 1 3833 3832
2556 1 3833 3834
2557 1 3836 3835
2558 1 3836 3837
2559 1 3839 3838
2560 1 3839 3840
2561 1 3842 3841
2562 1 3842 3843
2563 1 3845 3844
2564 1 3845 3846
2565 1 3848 3847
2566 1 3848 3849
2567 1 3851 3850
2568 1 3851 3852
2569 1 3854 3853
2570 1 3854 3855
2571 1 3857 3856
2572 1 3857 3858
2573 1 3860 3859
2574 1 3860 3861
2575 1 3863 3862
2576 1 3863 3864
2577 1 3866 3865
2578 1 3866 3867
2579 1 3869 3868
2580 1 3869 3870
2581 1 3872 3871
2582 1 3872 3873
2583 1 3875 3874
2584 1 3875 3876
2585 1 3878 3877
2586 1 3878 3879
2587 1 3881 3880
2588 1 3881 3882
2589 1 3884 3883
2590 1 3884 3885
2591 1 3887 3886
2592 1 3887 3888
2593 1 3890 3889
2594 1 3890 3891
2595 1 3893 3892
2596 1 3893 3894
2597 1 3896 3895
2598 1 3896 3897
2599 1 3899 3898
2600 1 3899 3900
2601 1 3902 3901
2602 1 3902 3903
2603 1 3905 3904
2604 1 3905 3906
2605 1 3908 3907
2606 1 3908 3909
2607 1 3911 3910
2608 1 3911 3912
2609 1 3914 3913
2610 1 3914 3915
2611 1 3917 3916
2612 1 3917 3918
2613 1 3920 3919
2614 1 3920 3921
2615 1 3923 3922
2616 1 3923 3924
2617 1 3926 3925
2618 1 3926 3927
2619 1 3929 3928
2620 1 3929 3930
2621 1 3932 3931
2622 1 3932 3933
2623 1 3935 3934
2624 1 3935 3936
2625 1 3938 3937
2626 1 3938 3939
2627 1 3941 3940
2628 1 3941 3942
2629 1 3944 3943
2630 1 3944 3945
2631 1 3947 3946
2632 1 3947 3948
2633 1 3950 3949
2634 1 3950 3951
2635 1 3953 3952
2636 1 3953 3954
2637 1 3956 3955
2638 1 3956 3957
2639 1 3959 3958
2640 1 3959 3960
2641 1 3962 3961
2642 1 3962 3963
2643 1 3965 3964
2644 1 3965 3966
2645 1 3968 3967
2646 1 3968 3969
2647 1 3971 3970
2648 1 3971 3972
2649 1 3974 3973
2650 1 3974 3975
2651 1 3977 3976
2652 1 3977 3978
2653 1 3980 3979
2654 1 3980 3981
2655 1 3983 3982
2656 1 3983 3984
2657 1 3986 3985
2658 1 3986 3987
2659 1 3989 3988
2660 1 3989 3990
2661 1 3992 3991
2662 1 3992 3993
2663 1 3995 3994
2664 1 3995 3996
2665 1 3998 3997
2666 1 3998 3999
2667 1 4001 4000
2668 1 4001 4002
2669 1 4004 4003
2670 1 4004 4005
2671 1 4007 4006
2672 1 4007 4008
2673 1 4010 4009
2674 1 4010 4011
2675 1 4013 4012
2676 1 4013 4014
2677 1 4016 4015
2678 1 4016 4017
2679 1 4019 4018
2680 1 4019 4020
2681 1 4022 4021
2682 1 4022 4023
2683 1 4025 4024
2684 1 4025 4026
2685 1 4028 4027
2686 1 4028 4029
2687 1 4031 4030
2688 1 4031 4032
2689 1 4034 4033
2690 1 4034 4035
2691 1 4037 4036
2692 1 4037 4038
2693 1 4040 4039
2694 1 4040 4041
2695 1 4043 4042
2696 1 4043 4044
2697 1 4046 4045
2698 1 4046 4047
2699 1 4049 4048
2700 1 4049 4050
2701 1 4052 4051
2702 1 4052 4053
2703 1 4055 4054
2704 1 4055 4056
2705 1 4058 4057
2706 1 4058 4059
2707 1 4061 4060
2708 1 4061 4062
2709 1 4064 4063
2710 1 4064 4065
2711 1 4067 4066
2712 1 4067 4068
2713 1 4070 4069
2714 1 4070 4071
2715 1 4073 4072
2716 1 4073 4074
2717 1 4076 4075
2718 1 4076 4077
2719 1 4079 4078
2720 1 4079 4080
2721 1 4082 4081
2722 1 4082 4083
2723 1 4085 4084
2724 1 4085 4086
2725 1 4088 4087
2726 1 4088 4089
2727 1 4091 4090
2728 1 4091 4092
2729 1 4094 4093
2730 1 4094 4095
2731 1 4097 4096
2732 1 4097 4098
2733 1 4100 4099
2734 1 4100 4101
2735 1 4103 4102
2736 1 4103 4104
2737 1 4106 4105
2738 1 4106 4107
2739 1 4109 4108
2740 1 4109 4110
2741 1 4112 4111
2742 1 4112 4113
2743 1 4115 4114
2744 1 4115 4116
2745 1 4118 4117
2746 1 4118 4119
2747 1 4121 4120
2748 1 4121 4122
2749 1 4124 4123
2750 1 4124 4125
2751 1 4127 4126
2752 1 4127 4128
2753 1 4130 4129
2754 1 4130 4131
2755 1 4133 4132
2756 1 4133 4134
2757 1 4136 4135
2758 1 4136 4137
2759 1 4139 4138
2760 1 4139 4140
2761 1 4142 4141
2762 1 4142 4143
2763 1 4145 4144
2764 1 4145 4146
2765 1 4148 4147
2766 1 4148 4149
2767 1 4151 4150
2768 1 4151 4152
2769 1 4154 4153
2770 1 4154 4155
2771 1 4157 4156
2772 1 4157 4158
2773 1 4160 4159
2774 1 4160 4161
2775 1 4163 4162
2776 1 4163 4164
2777 1 4166 4165
2778 1 4166 4167
2779 1 4169 4168
2780 1 4169 4170
2781 1 4172 4171
2782 1 4172 4173
2783 1 4175 4174
2784 1 4175 4176
2785 1 4178 4177
2786 1 4178 4179
2787 1 4181 4180
2788 1 4181 4182
2789 1 4184 4183
2790 1 4184 4185
2791 1 4187 4186
2792 1 4187 4188
2793 1 4190 4189
2794 1 4190 4191
2795 1 4193 4192
2796 1 4193 4194
2797 1 4196 4195
2798 1 4196 4197
2799 1 4199 4198
2800 1 4199 4200
2801 1 4202 4201
2802 1 4202 4203
2803 1 4205 4204
2804 1 4205 4206
2805 1 4208 4207
2806 1 4208 4209
2807 1 4211 4210
2808 1 4211 4212
2809 1 4214 4213
2810 1 4214 4215
2811 1 4217 4216
2812 1 4217 4218
2813 1 4220 4219
2814 1 4220 4221
2815 1 4223 4222
2816 1 4223 4224
2817 1 4226 4225
2818 1 4226 4227
2819 1 4229 4228
2820 1 4229 4230
2821 1 4232 4231
2822 1 4232 4233
2823 1 4235 4234
2824 1 4235 4236
2825 1 4238 4237
2826 1 4238 4239
2827 1 4241 4240
2828 1 4241 4242
2829 1 4244 4243
2830 1 4244 4245
2831 1 4247 4246
2832 1 4247 4248
2833 1 4250 4249
2834 1 4250 4251
2835 1 4253 4252
2836 1 4253 4254
2837 1 4256 4255
2838 1 4256 4257
2839 1 4259 4258
2840 1 4259 4260
2841 1 4262 4261
2842 1 4262 4263
2843 1 4265 4264
2844 1 4265 4266
2845 1 4268 4267
2846 1 4268 4269
2847 1 4271 4270
2848 1 4271 4272
2849 1 4274 4273
2850 1 4274 4275
2851 1 4277 4276
2852 1 4277 4278
2853 1 4280 4279
2854 1 4280 4281
2855 1 4283 4282
2856 1 4283 4284
2857 1 4286 4285
2858 1 4286 4287
2859 1 4289 4288
2860 1 4289 4290
2861 1 4292 4291
2862 1 4292 4293
2863 1 4295 4294
2864 1 4295 4296
2865 1 4298 4297
2866 1 4298 4299
2867 1 4301 4300
2868 1 4301 4302
2869 1 4304 4303
2870 1 4304 4305
2871 1 4307 4306
2872 1 4307 4308
2873 1 4310 4309
2874 1 4310 4311
2875 1 4313 4312
2876 1 4313 4314
2877 1 4316 4315
2878 1 4316 4317
2879 1 4319 4318
2880 1 4319 4320
2881 1 4322 4321
2882 1 4322 4323
2883 1 4325 4324
2884 1 4325 4326
2885 1 4328 4327
2886 1 4328 4329
2887 1 4331 4330
2888 1 4331 4332
2889 1 4334 4333
2890 1 4334 4335
2891 1 4337 4336
2892 1 4337 4338
2893 1 4340 4339
2894 1 4340 4341
2895 1 4343 4342
2896 1 4343 4344
2897 1 4346 4345
2898 1 4346 4347
2899 1 4349 4348
2900 1 4349 4350
2901 1 4352 4351
2902 1 4352 4353
2903 1 4355 4354
2904 1 4355 4356
2905 1 4358 4357
2906 1 4358 4359
2907 1 4361 4360
2908 1 4361 4362
2909 1 4364 4363
2910 1 4364 4365
2911 1 4367 4366
2912 1 4367 4368
2913 1 4370 4369
2914 1 4370 4371
2915 1 4373 4372
2916 1 4373 4374
2917 1 4376 4375
2918 1 4376 4377
2919 1 4379 4378
2920 1 4379 4380
2921 1 4382 4381
2922 1 4382 4383
2923 1 4385 4384
2924 1 4385 4386
2925 1 4388 4387
2926 1 4388 4389
2927 1 4391 4390
2928 1 4391 4392
2929 1 4394 4393
2930 1 4394 4395
2931 1 4397 4396
2932 1 4397 4398
2933 1 4400 4399
2934 1 4400 4401
2935 1 4403 4402
2936 1 4403 4404
2937 1 4406 4405
2938 1 4406 4407
2939 1 4409 4408
2940 1 4409 4410
2941 1 4412 4411
2942 1 4412 4413
2943 1 4415 4414
2944 1 4415 4416
2945 1 4418 4417
2946 1 4418 4419
2947 1 4421 4420
2948 1 4421 4422
2949 1 4424 4423
2950 1 4424 4425
2951 1 4427 4426
2952 1 4427 4428
2953 1 4430 4429
2954 1 4430 4431
2955 1 4433 4432
2956 1 4433 4434
2957 1 4436 4435
2958 1 4436 4437
2959 1 4439 4438
2960 1 4439 4440
2961 1 4442 4441
2962 1 4442 4443
2963 1 4445 4444
2964 1 4445 4446
2965 1 4448 4447
2966 1 4448 4449
2967 1 4451 4450
2968 1 4451 4452
2969 1 4454 4453
2970 1 4454 4455
2971 1 4457 4456
2972 1 4457 4458
2973 1 4460 4459
2974 1 4460 4461
2975 1 4463 4462
2976 1 4463 4464
2977 1 4466 4465
2978 1 4466 4467
2979 1 4469 4468
2980 1 4469 4470
2981 1 4472 4471
2982 1 4472 4473
2983 1 4475 4474
2984 1 4475 4476
2985 1 4478 4477
2986 1 4478 4479
2987 1 4481 4480
2988 1 4481 4482
2989 1 4484 4483
2990 1 4484 4485
2991 1 4487 4486
2992 1 4487 4488
2993 1 4490 4489
2994 1 4490 4491
2995 1 4493 4492
2996 1 4493 4494
2997 1 4496 4495
2998 1 4496 4497
2999 1 4499 4498
3000 1 4499 4500
3001 1 4502 4501
3002 1 4502 4503
3003 1 4505 4504
3004 1 4505 4506
3005 1 4508 4507
3006 1 4508 4509
3007 1 4511 4510
3008 1 4511 4512
3009 1 4514 4513
3010 1 4514 4515
3011 1 4517 4516
3012 1 4517 4518
3013 1 4520 4519
3014 1 4520 4521
3015 1 4523 4522
3016 1 4523 4524
3017 1 4526 4525
3018 1 4526 4527
3019 1 4529 4528
3020 1 4529 4530
3021 1 4532 4531
3022 1 4532 4533
3023 1 4535 4534
3024 1 4535 4536
3025 1 4538 4537
3026 1 4538 4539
3027 1 4541 4540
3028 1 4541 4542
3029 1 4544 4543
3030 1 4544 4545
3031 1 4547 4546
3032 1 4547 4548
3033 1 4550 4549
3034 1 4550 4551
3035 1 4553 4552
3036 1 4553 4554
3037 1 4556 4555
3038 1 4556 4557
3039 1 4559 4558
3040 1 4559 4560
3041 1 4562 4561
3042 1 4562 4563
3043 1 4565 4564
3044 1 4565 4566
3045 1 4568 4567
3046 1 4568 4569
3047 1 4571 4570
3048 1 4571 4572
3049 1 4574 4573
3050 1 4574 4575
3051 1 4577 4576
3052 1 4577 4578
3053 1 4580 4579
3054 1 4580 4581
3055 1 4583 4582
3056 1 4583 4584
3057 1 4586 4585
3058 1 4586 4587
3059 1 4589 4588
3060 1 4589 4590
3061 1 4592 4591
3062 1 4592 4593
3063 1 4595 4594
3064 1 4595 4596
3065 1 4598 4597
3066 1 4598 4599
3067 1 4601 4600
3068 1 4601 4602
3069 1 4604 4603
3070 1 4604 4605
3071 1 4607 4606
3072 1 4607 4608
3073 1 4610 4609
3074 1 4610 4611
3075 1 4613 4612
3076 1 4613 4614
3077 1 4616 4615
3078 1 4616 4617
3079 1 4619 4618
3080 1 4619 4620
3081 1 4622 4621
3082 1 4622 4623
3083 1 4625 4624
3084 1 4625 4626
3085 1 4628 4627
3086 1 4628 4629
3087 1 4631 4630
3088 1 4631 4632
3089 1 4634 4633
3090 1 4634 4635
3091 1 4637 4636
3092 1 4637 4638
3093 1 4640 4639
3094 1 4640 4641
3095 1 4643 4642
3096 1 4643 4644
3097 1 4646 4645
3098 1 4646 4647
3099 1 4649 4648
3100 1 4649 4650
3101 1 4652 4651
3102 1 4652 4653
3103 1 4655 4654
3104 1 4655 4656
3105 1 4658 4657
3106 1 4658 4659
3107 1 4661 4660
3108 1 4661 4662
3109 1 4664 4663
3110 1 4664 4665
3111 1 4667 4666
3112 1 4667 4668
3113 1 4670 4669
3114 1 4670 4671
3115 1 4673 4672
3116 1 4673 4674
3117 1 4676 4675
3118 1 4676 4677
3119 1 4679 4678
3120 1 4679 4680
3121 1 4682 4681
3122 1 4682 4683
3123 1 4685 4684
3124 1 4685 4686
3125 1 4688 4687
3126 1 4688 4689
3127 1 4691 4690
3128 1 4691 4692
3129 1 4694 4693
3130 1 4694 4695
3131 1 4697 4696
3132 1 4697 4698
3133 1 4700 4699
3134 1 4700 4701
3135 1 4703 4702
3136 1 4703 4704
3137 1 4706 4705
3138 1 4706 4707
3139 1 4709 4708
3140 1 4709 4710
3141 1 4712 4711
3142 1 4712 4713
3143 1 4715 4714
3144 1 4715 4716
3145 1 4718 4717
3146 1 4718 4719
3147 1 4721 4720
3148 1 4721 4722
3149 1 4724 4723
3150 1 4724 4725
3151 1 4727 4726
3152 1 4727 4728
3153 1 4730 4729
3154 1 4730 4731
3155 1 4733 4732
3156 1 4733 4734
3157 1 4736 4735
3158 1 4736 4737
3159 1 4739 4738
3160 1 4739 4740
3161 1 4742 4741
3162 1 4742 4743
3163 1 4745 4744
3164 1 4745 4746
3165 1 4748 4747
3166 1 4748 4749
3167 1 4751 4750
3168 1 4751 4752
3169 1 4754 4753
3170 1 4754 4755
3171 1 4757 4756
3172 1 4757 4758
3173 1 4760 4759
3174 1 4760 4761
3175 1 4763 4762
3176 1 4763 4764
3177 1 4766 4765
3178 1 4766 4767
3179 1 4769 4768
3180 1 4769 4770
3181 1 4772 4771
3182 1 4772 4773
3183 1 4775 4774
3184 1 4775 4776
3185 1 4778 4777
3186 1 4778 4779
3187 1 4781 4780
3188 1 4781 4782
3189 1 4784 4783
3190 1 4784 4785
3191 1 4787 4786
3192 1 4787 4788
3193 1 4790 4789
3194 1 4790 4791
3195 1 4793 4792
3196 1 4793 4794
3197 1 4796 4795
3198 1 4796 4797
3199 1 4799 4798
3200 1 4799 4800
3201 1 4802 4801
3202 1 4802 4803
3203 1 4805 4804
3204 1 4805 4806
3205 1 4808 4807
3206 1 4808 4809
3207 1 4811 4810
3208 1 4811 4812
3209 1 4814 4813
3210 1 4814 4815
3211 1 4817 4816
3212 1 4817 4818
3213 1 4820 4819
3214 1 4820 4821
3215 1 4823 4822
3216 1 4823 4824
3217 1 4826 4825
3218 1 4826 4827
3219 1 4829 4828
3220 1 4829 4830
3221 1 4832 4831
3222 1 4832 4833
3223 1 4835 4834
3224 1 4835 4836
3225 1 4838 4837
3226 1 4838 4839
3227 1 4841 4840
3228 1 4841 4842
3229 1 4844 4843
3230 1 4844 4845
3231 1 4847 4846
3232 1 4847 4848
3233 1 4850 4849
3234 1 4850 4851
3235 1 4853 4852
3236 1 4853 4854
3237 1 4856 4855
3238 1 4856 4857
3239 1 4859 4858
3240 1 4859 4860
3241 1 4862 4861
3242 1 4862 4863
3243 1 4865 4864
3244 1 4865 4866
3245 1 4868 4867
3246 1 4868 4869
3247 1 4871 4870
3248 1 4871 4872
3249 1 4874 4873
3250 1 4874 4875
3251 1 4877 4876
3252 1 4877 4878
3253 1 4880 4879
3254 1 4880 4881
3255 1 4883 4882
3256 1 4883 4884
3257 1 4886 4885
3258 1 4886 4887
3259 1 4889 4888
3260 1 4889 4890
3261 1 4892 4891
3262 1 4892 4893
3263 1 4895 4894
3264 1 4895 4896
3265 1 4898 4897
3266 1 4898 4899
3267 1 4901 4900
3268 1 4901 4902
3269 1 4904 4903
3270 1 4904 4905
3271 1 4907 4906
3272 1 4907 4908
3273 1 4910 4909
3274 1 4910 4911
3275 1 4913 4912
3276 1 4913 4914
3277 1 4916 4915
3278 1 4916 4917
3279 1 4919 4918
3280 1 4919 4920
3281 1 4922 4921
3282 1 4922 4923
3283 1 4925 4924
3284 1 4925 4926
3285 1 4928 4927
3286 1 4928 4929
3287 1 4931 4930
3288 1 4931 4932
3289 1 4934 4933
3290 1 4934 4935
3291 1 4937 4936
3292 1 4937 4938
3293 1 4940 4939
3294 1 4940 4941
3295 1 4943 4942
3296 1 4943 4944
3297 1 4946 4945
3298 1 4946 4947
3299 1 4949 4948
3300 1 4949 4950
3301 1 4952 4951
3302 1 4952 4953
3303 1 4955 4954
3304 1 4955 4956
3305 1 4958 4957
3306 1 4958 4959
3307 1 4961 4960
3308 1 4961 4962
3309 1 4964 4963
3310 1 4964 4965
3311 1 4967 4966
3312 1 4967 4968
3313 1 4970 4969
3314 1 4970 4971
3315 1 4973 4972
3316 1 4973 4974
3317 1 4976 4975
3318 1 4976 4977
3319 1 4979 4978
3320 1 4979 4980
3321 1 4982 4981
3322 1 4982 4983
3323 1 4985 4984
3324 1 4985 4986
3325 1 4988 4987
3326 1 4988 4989
3327 1 4991 4990
3328 1 4991 4992
3329 1 4994 4993
3330 1 4994 4995
3331 1 4997 4996
3332 1 4997 4998
3333 1 5000 4999
3334 1 5000 5001
3335 1 5003 5002
3336 1 5003 5004
3337 1 5006 5005
3338 1 5006 5007
3339 1 5009 5008
3340 1 5009 5010
3341 1 5012 5011
3342 1 5012 5013
3343 1 5015 5014
3344 1 5015 5016
3345 1 5018 5017
3346 1 5018 5019
3347 1 5021 5020
3348 1 5021 5022
3349 1 5024 5023
3350 1 5024 5025
3351 1 5027 5026
3352 1 5027 5028
3353 1 5030 5029
3354 1 5030 5031
3355 1 5033 5032
3356 1 5033 5034
3357 1 5036 5035
3358 1 5036 5037
3359 1 5039 5038
3360 1 5039 5040
3361 1 5042 5041
3362 1 5042 5043
3363 1 5045 5044
3364 1 5045 5046
3365 1 5048 5047
3366 1 5048 5049
3367 1 5051 5050
3368 1 5051 5052
3369 1 5054 5053
3370 1 5054 5055
3371 1 5057 5056
3372 1 5057 5058
3373 1 5060 5059
3374 1 5060 5061
3375 1 5063 5062
3376 1 5063 5064
3377 1 5066 5065
3378 1 5066 5067
3379 1 5069 5068
3380 1 5069 5070
3381 1 5072 5071
3382 1 5072 5073
3383 1 5075 5074
3384 1 5075 5076
3385 1 5078 5077
3386 1 5078 5079
3387 1 5081 5080
3388 1 5081 5082
3389 1 5084 5083
3390 1 5084 5085
3391 1 5087 5086
3392 1 5087 5088
3393 1 5090 5089
3394 1 5090 5091
3395 1 5093 5092
3396 1 5093 5094
3397 1 5096 5095
3398 1 5096 5097
3399 1 5099 5098
3400 1 5099 5100
3401 1 5102 5101
3402 1 5102 5103
3403 1 5105 5104
3404 1 5105 5106
3405 1 5108 5107
3406 1 5108 5109
3407 1 5111 5110
3408 1 5111 5112
3409 1 5114 5113
3410 1 5114 5115
3411 1 5117 5116
3412 1 5117 5118
3413 1 5120 5119
3414 1 5120 5121
3415 1 5123 5122
3416 1 5123 5124
3417 1 5126 5125
3418 1 5126 5127
3419 1 5129 5128
3420 1 5129 5130
3421 1 5132 5131
3422 1 5132 5133
3423 1 5135 5134
3424 1 5135 5136
3425 1 5138 5137
3426 1 5138 5139
3427 1 5141 5140
3428 1 5141 5142
3429 1 5144 5143
3430 1 5144 5145
3431 1 5147 5146
3432 1 5147 5148
3433 1 5150 5149
3434 1 5150 5151
3435 1 5153 5152
3436 1 5153 5154
3437 1 5156 5155
3438 1 5156 5157
3439 1 5159 5158
3440 1 5159 5160
3441 1 5162 5161
3442 1 5162 5163
3443 1 5165 5164
3444 1 5165 5166
3445 1 5168 5167
3446 1 5168 5169
3447 1 5171 5170
3448 1 5171 5172
3449 1 5174 5173
3450 1 5174 5175
3451 1 5177 5176
3452 1 5177 5178
3453 1 5180 5179
3454 1 5180 5181
3455 1 5183 5182
3456 1 5183 5184
3457 1 5186 5185
3458 1 5186 5187
3459 1 5189 5188
3460 1 5189 5190
3461 1 5192 5191
3462 1 5192 5193
3463 1 5195 5194
3464 1 5195 5196
3465 1 5198 5197
3466 1 5198 5199
3467 1 5201 5200
3468 1 5201 5202
3469 1 5204 5203
3470 1 5204 5205
3471 1 5207 5206
3472 1 5207 5208
3473 1 5210 5209
3474 1 5210 5211
3475 1 5213 5212
3476 1 5213 5214
3477 1 5216 5215
3478 1 5216 5217
3479 1 5219 5218
3480 1 5219 5220
3481 1 5222 5221
3482 1 5222 5223
3483 1 5225 5224
3484 1 5225 5226
3485 1 5228 5227
3486 1 5228 5229
3487 1 5231 5230
3488 1 5231 5232
3489 1 5234 5233
3490 1 5234 5235
3491 1 5237 5236
3492 1 5237 5238
3493 1 5240 5239
3494 1 5240 5241
3495 1 5243 5242
3496 1 5243 5244
3497 1 5246 5245
3498 1 5246 5247
3499 1 5249 5248
3500 1 5249 5250
3501 1 5252 5251
3502 1 5252 5253
3503 1 5255 5254
3504 1 5255 5256
3505 1 5258 5257
3506 1 5258 5259
3507 1 5261 5260
3508 1 5261 5262
3509 1 5264 5263
3510 1 5264 5265
3511 1 5267 5266
3512 1 5267 5268
3513 1 5270 5269
3514 1 5270 5271
3515 1 5273 5272
3516 1 5273 5274
3517 1 5276 5275
3518 1 5276 5277
3519 1 5279 5278
3520 1 5279 5280
3521 1 5282 5281
3522 1 5282 5283
3523 1 5285 5284
3524 1 5285 5286
3525 1 5288 5287
3526 1 5288 5289
3527 1 5291 5290
3528 1 5291 5292
3529 1 5294 5293
3530 1 5294 5295
3531 1 5297 5296
3532 1 5297 5298
3533 1 5300 5299
3534 1 5300 5301
3535 1 5303 5302
3536 1 5303 5304
3537 1 5306 5305
3538 1 5306 5307
3539 1 5309 5308
3540 1 5309 5310
3541 1 5312 5311
3542 1 5312 5313
3543 1 5315 5314
3544 1 5315 5316
3545 1 5318 5317
3546 1 5318 5319
3547 1 5321 5320
3548 1 5321 5322
3549 1 5324 5323
3550 1 5324 5325
3551 1 5327 5326
3552 1 5327 5328
3553 1 5330 5329
3554 1 5330 5331
3555 1 5333 5332
3556 1 5333 5334
3557 1 5336 5335
3558 1 5336 5337
3559 1 5339 5338
3560 1 5339 5340
3561 1 5342 5341
3562 1 5342 5343
3563 1 5345 5344
3564 1 5345 5346
3565 1 5348 5347
3566 1 5348 5349
3567 1 5351 5350
3568 1 5351 5352
3569 1 5354 5353
3570 1 5354 5355
3571 1 5357 5356
3572 1 5357 5358
3573 1 5360 5359
3574 1 5360 5361
3575 1 5363 5362
3576 1 5363 5364
3577 1 5366 5365
3578 1 5366 5367
3579 1 5369 5368
3580 1 5369 5370
3581 1 5372 5371
3582 1 5372 5373
3583 1 5375 5374
3584 1 5375 5376
3585 1 5378 5377
3586 1 5378 5379
3587 1 5381 5380
3588 1 5381 5382
3589 1 5384 5383
3590 1 5384 5385
3591 1 5387 5386
3592 1 5387 5388
3593 1 5390 5389
3594 1 5390 5391
3595 1 5393 5392
3596 1 5393 5394
3597 1 5396 5395
3598 1 5396 5397
3599 1 5399 5398
3600 1 5399 5400
3601 1 5402 5401
3602 1 5402 5403
3603 1 5405 5404
3604 1 5405 5406
3605 1 5408 5407
3606 1 5408 5409
3607 1 5411 5410
3608 1 5411 5412
3609 1 5414 5413
3610 1 5414 5415
3611 1 5417 5416
3612 1 5417 5418
3613 1 5420 5419
3614 1 5420 5421
3615 1 5423 5422
3616 1 5423 5424
3617 1 5426 5425
3618 1 5426 5427
3619 1 5429 5428
3620 1 5429 5430
3621 1 5432 5431
3622 1 5432 5433
3623 1 5435 5434
3624 1 5435 5436
3625 1 5438 5437
3626 1 5438 5439
3627 1 5441 5440
3628 1 5441 5442
3629 1 5444 5443
3630 1 5444 5445
3631 1 5447 5446
3632 1 5447 5448
3633 1 5450 5449
3634 1 5450 5451
3635 1 5453 5452
3636 1 5453 5454
3637 1 5456 5455
3638 1 5456 5457
3639 1 5459 5458
3640 1 5459 5460
3641 1 5462 5461
3642 1 5462 5463
3643 1 5465 5464
3644 1 5465 5466
3645 1 5468 5467
3646 1 5468 5469
3647 1 5471 5470
3648 1 5471 5472
3649 1 5474 5473
3650 1 5474 5475
3651 1 5477 5476
3652 1 5477 5478
3653 1 5480 5479
3654 1 5480 5481
3655 1 5483 5482
3656 1 5483 5484
3657 1 5486 5485
3658 1 5486 5487
3659 1 5489 5488
3660 1 5489 5490
3661 1 5492 5491
3662 1 5492 5493
3663 1 5495 5494
3664 1 5495 5496
3665 1 5498 5497
3666 1 5498 5499
3667 1 5501 5500
3668 1 5501 5502
3669 1 5504 5503
3670 1 5504 5505
3671 1 5507 5506
3672 1 5507 5508
3673 1 5510 5509
3674 1 5510 5511
3675 1 5513 5512
3676 1 5513 5514
3677 1 5516 5515
3678 1 5516 5517
3679 1 5519 5518
3680 1 5519 5520
3681 1 5522 5521
3682 1 5522 5523
3683 1 5525 5524
3684 1 5525 5526
3685 1 5528 5527
3686 1 5528 5529
3687 1 5531 5530
3688 1 5531 5532
3689 1 5534 5533
3690 1 5534 5535
3691 1 5537 5536
3692 1 5537 5538
3693 1 5540 5539
3694 1 5540 5541
3695 1 5543 5542
3696 1 5543 5544
3697 1 5546 5545
3698 1 5546 5547
3699 1 5549 5548
3700 1 5549 5550
3701 1 5552 5551
3702 1 5552 5553
3703 1 5555 5554
3704 1 5555 5556
3705 1 5558 5557
3706 1 5558 5559
3707 1 5561 5560
3708 1 5561 5562
3709 1 5564 5563
3710 1 5564 5565
3711 1 5567 5566
3712 1 5567 5568
3713 1 5570 5569
3714 1 5570 5571
3715 1 5573 5572
3716 1 5573 5574
3717 1 5576 5575
3718 1 5576 5577
3719 1 5579 5578
3720 1 5579 5580
3721 1 5582 5581
3722 1 5582 5583
3723 1 5585 5584
3724 1 5585 5586
3725 1 5588 5587
3726 1 5588 5589
3727 1 5591 5590
3728 1 5591 5592
3729 1 5594 5593
3730 1 5594 5595
3731 1 5597 5596
3732 1 5597 5598
3733 1 5600 5599
3734 1 5600 5601
3735 1 5603 5602
3736 1 5603 5604
3737 1 5606 5605
3738 1 5606 5607
3739 1 5609 5608
3740 1 5609 5610
3741 1 5612 5611
3742 1 5612 5613
3743 1 5615 5614
3744 1 5615 5616
3745 1 5618 5617
3746 1 5618 5619
3747 1 5621 5620
3748 1 5621 5622
3749 1 5624 5623
3750 1 5624 5625
3751 1 5627 5626
3752 1 5627 5628
3753 1 5630 5629
3754 1 5630 5631
3755 1 5633 5632
3756 1 5633 5634
3757 1 5636 5635
3758 1 5636 5637
3759 1 5639 5638
3760 1 5639 5640
3761 1 5642 5641
3762 1 5642 5643
3763 1 5645 5644
3764 1 5645 5646
3765 1 5648 5647
3766 1 5648 5649
3767 1 5651 5650
3768 1 5651 5652
3769 1 5654 5653
3770 1 5654 5655
3771 1 5657 5656
3772 1 5657 5658
3773 1 5660 5659
3774 1 5660 5661
3775 1 5663 5662
3776 1 5663 5664
3777 1 5666 5665
3778 1 5666 5667
3779 1 5669 5668
3780 1 5669 5670
3781 1 5672 5671
3782 1 5672 5673
3783 1 5675 5674
3784 1 5675 5676
3785 1 5678 5677
3786 1 5678 5679
3787 1 5681 5680
3788 1 5681 5682
3789 1 5684 5683
3790 1 5684 5685
3791 1 5687 5686
3792 1 5687 5688
3793 1 5690 5689
3794 1 5690 5691
3795 1 5693 5692
3796 1 5693 5694
3797 1 5696 5695
3798 1 5696 5697
3799 1 5699 5698
3800 1 5699 5700
3801 1 5702 5701
3802 1 5702 5703
3803 1 5705 5704
3804 1 5705 5706
3805 1 5708 5707
3806 1 5708 5709
3807 1 5711 5710
3808 1 5711 5712
3809 1 5714 5713
3810 1 5714 5715
3811 1 5717 5716
3812 1 5717 5718
3813 1 5720 5719
3814 1 5720 5721
3815 1 5723 5722
3816 1 5723 5724
3817 1 5726 5725
3818 1 5726 5727
3819 1 5729 5728
3820 1 5729 5730
3821 1 5732 5731
3822 1 5732 5733
3823 1 5735 5734
3824 1 5735 5736
3825 1 5738 5737
3826 1 5738 5739
3827 1 5741 5740
3828 1 5741 5742
3829 1 5744 5743
3830 1 5744 5745
3831 1 5747 5746
3832 1 5747 5748
3833 1 5750 5749
3834 1 5750 5751
3835 1 5753 5752
3836 1 5753 5754
3837 1 5756 5755
3838 1 5756 5757
3839 1 5759 5758
3840 1 5759 5760
3841 1 5762 5761
3842 1 5762 5763
3843 1 5765 5764
3844 1 5765 5766
3845 1 5768 5767
3846 1 5768 5769
3847 1 5771 5770
3848 1 5771 5772
3849 1 5774 5773
3850 1 5774 5775
3851 1 5777 5776
3852 1 5777 5778
3853 1 5780 5779
3854 1 5780 5781
3855 1 5783 5782
3856 1 5783 5784
3857 1 5786 5785
3858 1 5786 5787
3859 1 5789 5788
3860 1 5789 5790
3861 1 5792 5791
3862 1 5792 5793
3863 1 5795 5794
3864 1 5795 5796
3865 1 5798 5797
3866 1 5798 5799
3867 1 5801 5800
3868 1 5801 5802
3869 1 5804 5803
3870 1 5804 5805
3871 1 5807 5806
3872 1 5807 5808
3873 1 5810 5809
3874 1 5810 5811
3875 1 5813 5812
3876 1 5813 5814
3877 1 5816 5815
3878 1 5816 5817
3879 1 5819 5818
3880 1 5819 5820
3881 1 5822 5821
3882 1 5822 5823
3883 1 5825 5824
3884 1 5825 5826
3885 1 5828 5827
3886 1 5828 5829
3887 1 5831 5830
3888 1 5831 5832
3889 1 5834 5833
3890 1 5834 5835
3891 1 5837 5836
3892 1 5837 5838
3893 1 5840 5839
3894 1 5840 5841
3895 1 5843 5842
3896 1 5843 5844
3897 1 5846 5845
3898 1 5846 5847
3899 1 5849 5848
3900 1 5849 5850
3901 1 5852 5851
3902 1 5852 5853
3903 1 5855 5854
3904 1 5855 5856
3905 1 5858 5857
3906 1 5858 5859
3907 1 5861 5860
3908 1 5861 5862
3909 1 5864 5863
3910 1 5864 5865
3911 1 5867 5866
3912 1 5867 5868
3913 1 5870 5869
3914 1 5870 5871
3915 1 5873 5872
3916 1 5873 5874
3917 1 5876 5875
3918 1 5876 5877
3919 1 5879 5878
3920 1 5879 5880
3921 1 5882 5881
3922 1 5882 5883
3923 1 5885 5884
3924 1 5885 5886
3925 1 5888 5887
3926 1 5888 5889
3927 1 5891 5890
3928 1 5891 5892
3929 1 5894 5893
3930 1 5894 5895
3931 1 5897 5896
3932 1 5897 5898
3933 1 5900 5899
3934 1 5900 5901
3935 1 5903 5902
3936 1 5903 5904
3937 1 5906 5905
3938 1 5906 5907
3939 1 5909 5908
3940 1 5909 5910
3941 1 5912 5911
3942 1 5912 5913
3943 1 5915 5914
3944 1 5915 5916
3945 1 5918 5917
3946 1 5918 5919
3947 1 5921 5920
3948 1 5921 5922
3949 1 5924 5923
3950 1 5924 5925
3951 1 5927 5926
3952 1 5927 5928
3953 1 5930 5929
3954 1 5930 5931
3955 1 5933 5932
3956 1 5933 5934
3957 1 5936 5935
3958 1 5936 5937
3959 1 5939 5938
3960 1 5939 5940
3961 1 5942 5941
3962 1 5942 5943
3963 1 5945 5944
3964 1 5945 5946
3965 1 5948 5947
3966 1 5948 5949
3967 1 5951 5950
3968 1 5951 5952
3969 1 5954 5953
3970 1 5954 5955
3971 1 5957 5956
3972 1 5957 5958
3973 1 5960 5959
3974 1 5960 5961
3975 1 5963 5962
3976 1 5963 5964
3977 1 5966 5965
3978 1 5966 5967
3979 1 5969 5968
3980 1 5969 5970
3981 1 5972 5971
3982 1 5972 5973
3983 1 5975 5974
3984 1 5975 5976
3985 1 5978 5977
3986 1 5978 5979
3987 1 5981 5980
3988 1 5981 5982
3989 1 5984 5983
3990 1 5984 5985
3991 1 5987 5986
3992 1 5987 5988
3993 1 5990 5989
3994 1 5990 5991
3995 1 5993 5992
3996 1 5993 5994
3997 1 5996 5995
3998 1 5996 5997
3999 1 5999 5998
4000 1 5999 6000
4001 1 6002 6001
4002 1 6002 6003
4003 1 6005 6004
4004 1 6005 6006
4005 1 6008 6007
4006 1 6008 6009
4007 1 6011 6010
4008 1 6011 6012
4009 1 6014 6013
4010 1 6014 6015
4011 1 6017 6016
4012 1 6017 6018
4013 1 6020 6019
4014 1 6020 6021
4015 1 6023 6022
4016 1 6023 6024
4017 1 6026 6025
4018 1 6026 6027
4019 1 6029 6028
4020 1 6029 6030
4021 1 6032 6031
4022 1 6032 6033
4023 1 6035 6034
4024 1 6035 6036
4025 1 6038 6037
4026 1 6038 6039
4027 1 6041 6040
4028 1 6041 6042
4029 1 6044 6043
4030 1 6044 6045
4031 1 6047 6046
4032 1 6047 6048
4033 1 6050 6049
4034 1 6050 6051
4035 1 6053 6052
4036 1 6053 6054
4037 1 6056 6055
4038 1 6056 6057
4039 1 6059 6058
4040 1 6059 6060
4041 1 6062 6061
4042 1 6062 6063
4043 1 6065 6064
4044 1 6065 6066
4045 1 6068 6067
4046 1 6068 6069
4047 1 6071 6070
4048 1 6071 6072
4049 1 6074 6073
4050 1 6074 6075
4051 1 6077 6076
4052 1 6077 6078
4053 1 6080 6079
4054 1 6080 6081
4055 1 6083 6082
4056 1 6083 6084
4057 1 6086 6085
4058 1 6086 6087
4059 1 6089 6088
4060 1 6089 6090
4061 1 6092 6091
4062 1 6092 6093
4063 1 6095 6094
4064 1 6095 6096
4065 1 6098 6097
4066 1 6098 6099
4067 1 6101 6100
4068 1 6101 6102
4069 1 6104 6103
4070 1 6104 6105
4071 1 6107 6106
4072 1 6107 6108
4073 1 6110 6109
4074 1 6110 6111
4075 1 6113 6112
4076 1 6113 6114
4077 1 6116 6115
4078 1 6116 6117
4079 1 6119 6118
4080 1 6119 6120
4081 1 6122 6121
4082 1 6122 6123
4083 1 6125 6124
4084 1 6125 6126
4085 1 6128 6127
4086 1 6128 6129
4087 1 6131 6130
4088 1 6131 6132
4089 1 6134 6133
4090 1 6134 6135
4091 1 6137 6136
4092 1 6137 6138
4093 1 6140 6139
4094 1 6140 6141
4095 1 6143 6142
4096 1 6143 6144
4097 1 6146 6145
4098 1 6146 6147
4099 1 6149 6148
4100 1 6149 6150
4101 1 6152 6151
4102 1 6152 6153
4103 1 6155 6154
4104 1 6155 6156
4105 1 6158 6157
4106 1 6158 6159
4107 1 6161 6160
4108 1 6161 6162
4109 1 6164 6163
4110 1 6164 6165
4111 1 6167 6166
4112 1 6167 6168
4113 1 6170 6169
4114 1 6170 6171
4115 1 6173 6172
4116 1 6173 6174
4117 1 6176 6175
4118 1 6176 6177
4119 1 6179 6178
4120 1 6179 6180
4121 1 6182 6181
4122 1 6182 6183
4123 1 6185 6184
4124 1 6185 6186
4125 1 6188 6187
4126 1 6188 6189
4127 1 6191 6190
4128 1 6191 6192
4129 1 6194 6193
4130 1 6194 6195
4131 1 6197 6196
4132 1 6197 6198
4133 1 6200 6199
4134 1 6200 6201
4135 1 6203 6202
4136 1 6203 6204
4137 1 6206 6205
4138 1 6206 6207
4139 1 6209 6208
4140 1 6209 6210
4141 1 6212 6211
4142 1 6212 6213
4143 1 6215 6214
4144 1 6215 6216
4145 1 6218 6217
4146 1 6218 6219
4147 1 6221 6220
4148 1 6221 6222
4149 1 6224 6223
4150 1 6224 6225
4151 1 6227 6226
4152 1 6227 6228
4153 1 6230 6229
4154 1 6230 6231
4155 1 6233 6232
4156 1 6233 6234
4157 1 6236 6235
4158 1 6236 6237
4159 1 6239 6238
4160 1 6239 6240
4161 1 6242 6241
4162 1 6242 6243
4163 1 6245 6244
4164 1 6245 6246
4165 1 6248 6247
4166 1 6248 6249
4167 1 6251 6250
4168 1 6251 6252
4169 1 6254 6253
4170 1 6254 6255
4171 1 6257 6256
4172 1 6257 6258
4173 1 6260 6259
4174 1 6260 6261
4175 1 6263 6262
4176 1 6263 6264
4177 1 6266 6265
4178 1 6266 6267
4179 1 6269 6268
4180 1 6269 6270
4181 1 6272 6271
4182 1 6272 6273
4183 1 6275 6274
4184 1 6275 6276
4185 1 6278 6277
4186 1 6278 6279
4187 1 6281 6280
4188 1 6281 6282
4189 1 6284 6283
4190 1 6284 6285
4191 1 6287 6286
4192 1 6287 6288
4193 1 6290 6289
4194 1 6290 6291
4195 1 6293 6292
4196 1 6293 6294
4197 1 6296 6295
4198 1 6296 6297
4199 1 6299 6298
4200 1 6299 6300
4201 1 6302 6301
4202 1 6302 6303
4203 1 6305 6304
4204 1 6305 6306
4205 1 6308 6307
4206 1 6308 6309
4207 1 6311 6310
4208 1 6311 6312
4209 1 6314 6313
4210 1 6314 6315
4211 1 6317 6316
4212 1 6317 6318
4213 1 6320 6319
4214 1 6320 6321
4215 1 6323 6322
4216 1 6323 6324
4217 1 6326 6325
4218 1 6326 6327
4219 1 6329 6328
4220 1 6329 6330
4221 1 6332 6331
4222 1 6332 6333
4223 1 6335 6334
4224 1 6335 6336
4225 1 6338 6337
4226 1 6338 6339
4227 1 6341 6340
4228 1 6341 6342
4229 1 6344 6343
4230 1 6344 6345
4231 1 6347 6346
4232 1 6347 6348
4233 1 6350 6349
4234 1 6350 6351
4235 1 6353 6352
4236 1 6353 6354
4237 1 6356 6355
4238 1 6356 6357
4239 1 6359 6358
4240 1 6359 6360
4241 1 6362 6361
4242 1 6362 6363
4243 1 6365 6364
4244 1 6365 6366
4245 1 6368 6367
4246 1 6368 6369
4247 1 6371 6370
4248 1 6371 6372
4249 1 6374 6373
4250 1 6374 6375
4251 1 6377 6376
4252 1 6377 6378
4253 1 6380 6379
4254 1 6380 6381
4255 1 6383 6382
4256 1 6383 6384
4257 1 6386 6385
4258 1 6386 6387
4259 1 6389 6388
4260 1 6389 6390
4261 1 6392 6391
4262 1 6392 6393
4263 1 6395 6394
4264 1 6395 6396
4265 1 6398 6397
4266 1 6398 6399
4267 1 6401 6400
4268 1 6401 6402
4269 1 6404 6403
4270 1 6404 6405
4271 1 6407 6406
4272 1 6407 6408
4273 1 6410 6409
4274 1 6410 6411
4275 1 6413 6412
4276 1 6413 6414
4277 1 6416 6415
4278 1 6416 6417
4279 1 6419 6418
4280 1 6419 6420
4281 1 6422 6421
4282 1 6422 6423
4283 1 6425 6424
4284 1 6425 6426
4285 1 6428 6427
4286 1 6428 6429
4287 1 6431 6430
4288 1 6431 6432
4289 1 6434 6433
4290 1 6434 6435
4291 1 6437 6436
4292 1 6437 6438
4293 1 6440 6439
4294 1 6440 6441
4295 1 6443 6442
4296 1 6443 6444
4297 1 6446 6445
4298 1 6446 6447
4299 1 6449 6448
4300 1 6449 6450
4301 1 6452 6451
4302 1 6452 6453
4303 1 6455 6454
4304 1 6455 6456
4305 1 6458 6457
4306 1 6458 6459
4307 1 6461 6460
4308 1 6461 6462
4309 1 6464 6463
4310 1 6464 6465
4311 1 6467 6466
4312 1 6467 6468
4313 1 6470 6469
4314 1 6470 6471
4315 1 6473 6472
4316 1 6473 6474
4317 1 6476 6475
4318 1 6476 6477
4319 1 6479 6478
4320 1 6479 6480
4321 1 6482 6481
4322 1 6482 6483
4323 1 6485 6484
4324 1 6485 6486
4325 1 6488 6487
4326 1 6488 6489
4327 1 6491 6490
4328 1 6491 6492
4329 1 6494 6493
4330 1 6494 6495
4331 1 6497 6496
4332 1 6497 6498
4333 1 6500 6499
4334 1 6500 6501
4335 1 6503 6502
4336 1 6503 6504
4337 1 6506 6505
4338 1 6506 6507
4339 1 6509 6508
4340 1 6509 6510
4341 1 6512 6511
4342 1 6512 6513
4343 1 6515 6514
4344 1 6515 6516
4345 1 6518 6517
4346 1 6518 6519
4347 1 6521 6520
4348 1 6521 6522
4349 1 6524 6523
4350 1 6524 6525
4351 1 6527 6526
4352 1 6527 6528
4353 1 6530 6529
4354 1 6530 6531
4355 1 6533 6532
4356 1 6533 6534
4357 1 6536 6535
4358 1 6536 6537
4359 1 6539 6538
4360 1 6539 6540
4361 1 6542 6541
4362 1 6542 6543
4363 1 6545 6544
4364 1 6545 6546
4365 1 6548 6547
4366 1 6548 6549
4367 1 6551 6550
4368 1 6551 6552
4369 1 6554 6553
4370 1 6554 6555
4371 1 6557 6556
4372 1 6557 6558
4373 1 6560 6559
4374 1 6560 6561
4375 1 6563 6562
4376 1 6563 6564
4377 1 6566 6565
4378 1 6566 6567
4379 1 6569 6568
4380 1 6569 6570
4381 1 6572 6571
4382 1 6572 6573
4383 1 6575 6574
4384 1 6575 6576
4385 1 6578 6577
4386 1 6578 6579
4387 1 6581 6580
4388 1 6581 6582
4389 1 6584 6583
4390 1 6584 6585
4391 1 6587 6586
4392 1 6587 6588
4393 1 6590 6589
4394 1 6590 6591
4395 1 6593 6592
4396 1 6593 6594
4397 1 6596 6595
4398 1 6596 6597
4399 1 6599 6598
4400 1 6599 6600
4401 1 6602 6601
4402 1 6602 6603
4403 1 6605 6604
4404 1 6605 6606
4405 1 6608 6607
4406 1 6608 6609
4407 1 6611 6610
4408 1 6611 6612
4409 1 6614 6613
4410 1 6614 6615
4411 1 6617 6616
4412 1 6617 6618
4413 1 6620 6619
4414 1 6620 6621
4415 1 6623 6622
4416 1 6623 6624
4417 1 6626 6625
4418 1 6626 6627
4419 1 6629 6628
4420 1 6629 6630
4421 1 6632 6631
4422 1 6632 6633
4423 1 6635 6634
4424 1 6635 6636
4425 1 6638 6637
4426 1 6638 6639
4427 1 6641 6640
4428 1 6641 6642
4429 1 6644 6643
4430 1 6644 6645
4431 1 6647 6646
4432 1 6647 6648
4433 1 6650 6649
4434 1 6650 6651
4435 1 6653 6652
4436 1 6653 6654
4437 1 6656 6655
4438 1 6656 6657
4439 1 6659 6658
4440 1 6659 6660
4441 1 6662 6661
4442 1 6662 6663
4443 1 6665 6664
4444 1 6665 6666
4445 1 6668 6667
4446 1 6668 6669
4447 1 6671 6670
4448 1 6671 6672
4449 1 6674 6673
4450 1 6674 6675
4451 1 6677 6676
4452 1 6677 6678
4453 1 6680 6679
4454 1 6680 6681
4455 1 6683 6682
4456 1 6683 6684
4457 1 6686 6685
4458 1 6686 6687
4459 1 6689 6688
4460 1 6689 6690
4461 1 6692 6691
4462 1 6692 6693
4463 1 6695 6694
4464 1 6695 6696
4465 1 6698 6697
4466 1 6698 6699
4467 1 6701 6700
4468 1 6701 6702
4469 1 6704 6703
4470 1 6704 6705
4471 1 6707 6706
4472 1 6707 6708
4473 1 6710 6709
4474 1 6710 6711
4475 1 6713 6712
4476 1 6713 6714
4477 1 6716 6715
4478 1 6716 6717
4479 1 6719 6718
4480 1 6719 6720
4481 1 6722 6721
4482 1 6722 6723
4483 1 6725 6724
4484 1 6725 6726
4485 1 6728 6727
4486 1 6728 6729
4487 1 6731 6730
4488 1 6731 6732
4489 1 6734 6733
4490 1 6734 6735
4491 1 6737 6736
4492 1 6737 6738
4493 1 6740 6739
4494 1 6740 6741
4495 1 6743 6742
4496 1 6743 6744
4497 1 6746 6745
4498 1 6746 6747
4499 1 6749 6748
4500 1 6749 6750
4501 1 6752 6751
4502 1 6752 6753
4503 1 6755 6754
4504 1 6755 6756
4505 1 6758 6757
4506 1 6758 6759
4507 1 6761 6760
4508 1 6761 6762
4509 1 6764 6763
4510 1 6764 6765
4511 1 6767 6766
4512 1 6767 6768
4513 1 6770 6769
4514 1 6770 6771
4515 1 6773 6772
4516 1 6773 6774
4517 1 6776 6775
4518 1 6776 6777
4519 1 6779 6778
4520 1 6779 6780
4521 1 6782 6781
4522 1 6782 6783
4523 1 6785 6784
4524 1 6785 6786
4525 1 6788 6787
4526 1 6788 6789
4527 1 6791 6790
4528 1 6791 6792
4529 1 6794 6793
4530 1 6794 6795
4531 1 6797 6796
4532 1 6797 6798
4533 1 6800 6799
4534 1 6800 6801
4535 1 6803 6802
4536 1 6803 6804
4537 1 6806 6805
4538 1 6806 6807
4539 1 6809 6808
4540 1 6809 6810
4541 1 6812 6811
4542 1 6812 6813
4543 1 6815 6814
4544 1 6815 6816
4545 1 6818 6817
4546 1 6818 6819
4547 1 6821 6820
4548 1 6821 6822
4549 1 6824 6823
4550 1 6824 6825
4551 1 6827 6826
4552 1 6827 6828
4553 1 6830 6829
4554 1 6830 6831
4555 1 6833 6832
4556 1 6833 6834
4557 1 6836 6835
4558 1 6836 6837
4559 1 6839 6838
4560 1 6839 6840
4561 1 6842 6841
4562 1 6842 6843
4563 1 6845 6844
4564 1 6845 6846
4565 1 6848 6847
4566 1 6848 6849
4567 1 6851 6850
4568 1 6851 6852
4569 1 6854 6853
4570 1 6854 6855
4571 1 6857 6856
4572 1 6857 6858
4573 1 6860 6859
4574 1 6860 6861
4575 1 6863 6862
4576 1 6863 6864
4577 1 6866 6865
4578 1 6866 6867
4579 1 6869 6868
4580 1 6869 6870
4581 1 6872 6871
4582 1 6872 6873
4583 1 6875 6874
4584 1 6875 6876
4585 1 6878 6877
4586 1 6878 6879
4587 1 6881 6880
4588 1 6881 6882
4589 1 6884 6883
4590 1 6884 6885
4591 1 6887 6886
4592 1 6887 6888
4593 1 6890 6889
4594 1 6890 6891
4595 1 6893 6892
4596 1 6893 6894
4597 1 6896 6895
4598 1 6896 6897
4599 1 6899 6898
4600 1 6899 6900
4601 1 6902 6901
4602 1 6902 6903
4603 1 6905 6904
4604 1 6905 6906
4605 1 6908 6907
4606 1 6908 6909
4607 1 6911 6910
4608 1 6911 6912
4609 1 6914 6913
4610 1 6914 6915
4611 1 6917 6916
4612 1 6917 6918
4613 1 6920 6919
4614 1 6920 6921
4615 1 6923 6922
4616 1 6923 6924
4617 1 6926 6925
4618 1 6926 6927
4619 1 6929 6928
4620 1 6929 6930
4621 1 6932 6931
4622 1 6932 6933
4623 1 6935 6934
4624 1 6935 6936
4625 1 6938 6937
4626 1 6938 6939
4627 1 6941 6940
4628 1 6941 6942
4629 1 6944 6943
4630 1 6944 6945
4631 1 6947 6946
4632 1 6947 6948
4633 1 6950 6949
4634 1 6950 6951
4635 1 6953 6952
4636 1 6953 6954
4637 1 6956 6955
4638 1 6956 6957
4639 1 6959 6958
4640 1 6959 6960
4641 1 6962 6961
4642 1 6962 6963
4643 1 6965 6964
4644 1 6965 6966
4645 1 6968 6967
4646 1 6968 6969
4647 1 6971 6970
4648 1 6971 6972
4649 1 6974 6973
4650 1 6974 6975
4651 1 6977 6976
4652 1 6977 6978
4653 1 6980 6979
4654 1 6980 6981
4655 1 6983 6982
4656 1 6983 6984
4657 1 6986 6985
4658 1 6986 6987
4659 1 6989 6988
4660 1 6989 6990
4661 1 6992 6991
4662 1 6992 6993
4663 1 6995 6994
4664 1 6995 6996
4665 1 6998 6997
4666 1 6998 6999
4667 1 7001 7000
4668 1 7001 7002
4669 1 7004 7003
4670 1 7004 7005
4671 1 7007 7006
4672 1 7007 7008
4673 1 7010 7009
4674 1 7010 7011
4675 1 7013 7012
4676 1 7013 7014
4677 1 7016 7015
4678 1 7016 7017
4679 1 7019 7018
4680 1 7019 7020
4681 1 7022 7021
4682 1 7022 7023
4683 1 7025 7024
4684 1 7025 7026
4685 1 7028 7027
4686 1 7028 7029
4687 1 7031 7030
4688 1 7031 7032
4689 1 7034 7033
4690 1 7034 7035
4691 1 7037 7036
4692 1 7037 7038
4693 1 7040 7039
4694 1 7040 7041
4695 1 7043 7042
4696 1 7043 7044
4697 1 7046 7045
4698 1 7046 7047
4699 1 7049 7048
4700 1 7049 7050
4701 1 7052 7051
4702 1 7052 7053
4703 1 7055 7054
4704 1 7055 7056
4705 1 7058 7057
4706 1 7058 7059
4707 1 7061 7060
4708 1 7061 7062
4709 1 7064 7063
4710 1 7064 7065
4711 1 7067 7066
4712 1 7067 7068
4713 1 7070 7069
4714 1 7070 7071
4715 1 7073 7072
4716 1 7073 7074
4717 1 7076 7075
4718 1 7076 7077
4719 1 7079 7078
4720 1 7079 7080
4721 1 7082 7081
4722 1 7082 7083
4723 1 7085 7084
4724 1 7085 7086
4725 1 7088 7087
4726 1 7088 7089
4727 1 7091 7090
4728 1 7091 7092
4729 1 7094 7093
4730 1 7094 7095
4731 1 7097 7096
4732 1 7097 7098
4733 1 7100 7099
4734 1 7100 7101
4735 1 7103 7102
4736 1 7103 7104
4737 1 7106 7105
4738 1 7106 7107
4739 1 7109 7108
4740 1 7109 7110
4741 1 7112 7111
4742 1 7112 7113
4743 1 7115 7114
4744 1 7115 7116
4745 1 7118 7117
4746 1 7118 7119
4747 1 7121 7120
4748 1 7121 7122
4749 1 7124 7123
4750 1 7124 7125
4751 1 7127 7126
4752 1 7127 7128
4753 1 7130 7129
4754 1 7130 7131
4755 1 7133 7132
4756 1 7133 7134
4757 1 7136 7135
4758 1 7136 7137
4759 1 7139 7138
4760 1 7139 7140
4761 1 7142 7141
4762 1 7142 7143
4763 1 7145 7144
4764 1 7145 7146
4765 1 7148 7147
4766 1 7148 7149
4767 1 7151 7150
4768 1 7151 7152
4769 1 7154 7153
4770 1 7154 7155
4771 1 7157 7156
4772 1 7157 7158
4773 1 7160 7159
4774 1 7160 7161
4775 1 7163 7162
4776 1 7163 7164
4777 1 7166 7165
4778 1 7166 7167
4779 1 7169 7168
4780 1 7169 7170
4781 1 7172 7171
4782 1 7172 7173
4783 1 7175 7174
4784 1 7175 7176
4785 1 7178 7177
4786 1 7178 7179
4787 1 7181 7180
4788 1 7181 7182
4789 1 7184 7183
4790 1 7184 7185
4791 1 7187 7186
4792 1 7187 7188
4793 1 7190 7189
4794 1 7190 7191
4795 1 7193 7192
4796 1 7193 7194
4797 1 7196 7195
4798 1 7196 7197
4799 1 7199 7198
4800 1 7199 7200
4801 1 7202 7201
4802 1 7202 7203
4803 1 7205 7204
4804 1 7205 7206
4805 1 7208 7207
4806 1 7208 7209
4807 1 7211 7210
4808 1 7211 7212
4809 1 7214 7213
4810 1 7214 7215
4811 1 7217 7216
4812 1 7217 7218
4813 1 7220 7219
4814 1 7220 7221
4815 1 7223 7222
4816 1 7223 7224
4817 1 7226 7225
4818 1 7226 7227
4819 1 7229 7228
4820 1 7229 7230
4821 1 7232 7231
4822 1 7232 7233
4823 1 7235 7234
4824 1 7235 7236
4825 1 7238 7237
4826 1 7238 7239
4827 1 7241 7240
4828 1 7241 7242
4829 1 7244 7243
4830 1 7244 7245
4831 1 7247 7246
4832 1 7247 7248
4833 1 7250 7249
4834 1 7250 7251
4835 1 7253 7252
4836 1 7253 7254
4837 1 7256 7255
4838 1 7256 7257
4839 1 7259 7258
4840 1 7259 7260
4841 1 7262 7261
4842 1 7262 7263
4843 1 7265 7264
4844 1 7265 7266
4845 1 7268 7267
4846 1 7268 7269
4847 1 7271 7270
4848 1 7271 7272
4849 1 7274 7273
4850 1 7274 7275
4851 1 7277 7276
4852 1 7277 7278
4853 1 7280 7279
4854 1 7280 7281
4855 1 7283 7282
4856 1 7283 7284
4857 1 7286 7285
4858 1 7286 7287
4859 1 7289 7288
4860 1 7289 7290
4861 1 7292 7291
4862 1 7292 7293
4863 1 7295 7294
4864 1 7295 7296
4865 1 7298 7297
4866 1 7298 7299
4867 1 7301 7300
4868 1 7301 7302
4869 1 7304 7303
4870 1 7304 7305
4871 1 7307 7306
4872 1 7307 7308
4873 1 7310 7309
4874 1 7310 7311
4875 1 7313 7312
4876 1 7313 7314
4877 1 7316 7315
4878 1 7316 7317
4879 1 7319 7318
4880 1 7319 7320
4881 1 7322 7321
4882 1 7322 7323
4883 1 7325 7324
4884 1 7325 7326
4885 1 7328 7327
4886 1 7328 7329
4887 1 7331 7330
4888 1 7331 7332
4889 1 7334 7333
4890 1 7334 7335
4891 1 7337 7336
4892 1 7337 7338
4893 1 7340 7339
4894 1 7340 7341
4895 1 7343 7342
4896 1 7343 7344
4897 1 7346 7345
4898 1 7346 7347
4899 1 7349 7348
4900 1 7349 7350
4901 1 7352 7351
4902 1 7352 7353
4903 1 7355 7354
4904 1 7355 7356
4905 1 7358 7357
4906 1 7358 7359
4907 1 7361 7360
4908 1 7361 7362
4909 1 7364 7363
4910 1 7364 7365
4911 1 7367 7366
4912 1 7367 7368
4913 1 7370 7369
4914 1 7370 7371
4915 1 7373 7372
4916 1 7373 7374
4917 1 7376 7375
4918 1 7376 7377
4919 1 7379 7378
4920 1 7379 7380
4921 1 7382 7381
4922 1 7382 7383
4923 1 7385 7384
4924 1 7385 7386
4925 1 7388 7387
4926 1 7388 7389
4927 1 7391 7390
4928 1 7391 7392
4929 1 7394 7393
4930 1 7394 7395
4931 1 7397 7396
4932 1 7397 7398
4933 1 7400 7399
4934 1 7400 7401
4935 1 7403 7402
4936 1 7403 7404
4937 1 7406 7405
4938 1 7406 7407
4939 1 7409 7408
4940 1 7409 7410
4941 1 7412 7411
4942 1 7412 7413
4943 1 7415 7414
4944 1 7415 7416
4945 1 7418 7417
4946 1 7418 7419
4947 1 7421 7420
4948 1 7421 7422
4949 1 7424 7423
4950 1 7424 7425
4951 1 7427 7426
4952 1 7427 7428
4953 1 7430 7429
4954 1 7430 7431
4955 1 7433 7432
4956 1 7433 7434
4957 1 7436 7435
4958 1 7436 7437
4959 1 7439 7438
4960 1 7439 7440
4961 1 7442 7441
4962 1 7442 7443
4963 1 7445 7444
4964 1 7445 7446
4965 1 7448 7447
4966 1 7448 7449
4967 1 7451 7450
4968 1 7451 7452
4969 1 7454 7453
4970 1 7454 7455
4971 1 7457 7456
4972 1 7457 7458
4973 1 7460 7459
4974 1 7460 7461
4975 1 7463 7462
4976 1 7463 7464
4977 1 7466 7465
4978 1 7466 7467
4979 1 7469 7468
4980 1 7469 7470
4981 1 7472 7471
4982 1 7472 7473
4983 1 7475 7474
4984 1 7475 7476
4985 1 7478 7477
4986 1 7478 7479
4987 1 7481 7480
4988 1 7481 7482
4989 1 7484 7483
4990 1 7484 7485
4991 1 7487 7486
4992 1 7487 7488
4993 1 7490 7489
4994 1 7490 7491
4995 1 7493 7492
4996 1 7493 7494
4997 1 7496 7495
4998 1 7496 7497
4999 1 7499 7498
5000 1 7499 7500
5001 1 7502 7501
5002 1 7502 7503
5003 1 7505 7504
5004 1 7505 7506
5005 1 7508 7507
5006 1 7508 7509
5007 1 7511 7510
5008 1 7511 7512
5009 1 7514 7513
5010 1 7514 7515
5011 1 7517 7516
5012 1 7517 7518
5013 1 7520 7519
5014 1 7520 7521
5015 1 7523 7522
5016 1 7523 7524
5017 1 7526 7525
5018 1 7526 7527
5019 1 7529 7528
5020 1 7529 7530
5021 1 7532 7531
5022 1 7532 7533
5023 1 7535 7534
5024 1 7535 7536
5025 1 7538 7537
5026 1 7538 7539
5027 1 7541 7540
5028 1 7541 7542
5029 1 7544 7543
5030 1 7544 7545
5031 1 7547 7546
5032 1 7547 7548
5033 1 7550 7549
5034 1 7550 7551
5035 1 7553 7552
5036 1 7553 7554
5037 1 7556 7555
5038 1 7556 7557
5039 1 7559 7558
5040 1 7559 7560
5041 1 7562 7561
5042 1 7562 7563
5043 1 7565 7564
5044 1 7565 7566
5045 1 7568 7567
5046 1 7568 7569
5047 1 7571 7570
5048 1 7571 7572
5049 1 7574 7573
5050 1 7574 7575
5051 1 7577 7576
5052 1 7577 7578
5053 1 7580 7579
5054 1 7580 7581
5055 1 7583 7582
5056 1 7583 7584
5057 1 7586 7585
5058 1 7586 7587
5059 1 7589 7588
5060 1 7589 7590
5061 1 7592 7591
5062 1 7592 7593
5063 1 7595 7594
5064 1 7595 7596
5065 1 7598 7597
5066 1 7598 7599
5067 1 7601 7600
5068 1 7601 7602
5069 1 7604 7603
5070 1 7604 7605
5071 1 7607 7606
5072 1 7607 7608
5073 1 7610 7609
5074 1 7610 7611
5075 1 7613 7612
5076 1 7613 7614
5077 1 7616 7615
5078 1 7616 7617
5079 1 7619 7618
5080 1 7619 7620
5081 1 7622 7621
5082 1 7622 7623
5083 1 7625 7624
5084 1 7625 7626
5085 1 7628 7627
5086 1 7628 7629
5087 1 7631 7630
5088 1 7631 7632
5089 1 7634 7633
5090 1 7634 7635
5091 1 7637 7636
5092 1 7637 7638
5093 1 7640 7639
5094 1 7640 7641
5095 1 7643 7642
5096 1 7643 7644
5097 1 7646 7645
5098 1 7646 7647
5099 1 7649 7648
5100 1 7649 7650
5101 1 7652 7651
5102 1 7652 7653
5103 1 7655 7654
5104 1 7655 7656
5105 1 7658 7657
5106 1 7658 7659
5107 1 7661 7660
5108 1 7661 7662
5109 1 7664 7663
5110 1 7664 7665
5111 1 7667 7666
5112 1 7667 7668
5113 1 7670 7669
5114 1 7670 7671
5115 1 7673 7672
5116 1 7673 7674
5117 1 7676 7675
5118 1 7676 7677
5119 1 7679 7678
5120 1 7679 7680
5121 1 7682 7681
5122 1 7682 7683
5123 1 7685 7684
5124 1 7685 7686
5125 1 7688 7687
5126 1 7688 7689
5127 1 7691 7690
5128 1 7691 7692
5129 1 7694 7693
5130 1 7694 7695
5131 1 7697 7696
5132 1 7697 7698
5133 1 7700 7699
5134 1 7700 7701
5135 1 7703 7702
5136 1 7703 7704
5137 1 7706 7705
5138 1 7706 7707
5139 1 7709 7708
5140 1 7709 7710
5141 1 7712 7711
5142 1 7712 7713
5143 1 7715 7714
5144 1 7715 7716
5145 1 7718 7717
5146 1 7718 7719
5147 1 7721 7720
5148 1 7721 7722
5149 1 7724 7723
5150 1 7724 7725
5151 1 7727 7726
5152 1 7727 7728
5153 1 7730 7729
5154 1 7730 7731
5155 1 7733 7732
5156 1 7733 7734
5157 1 7736 7735
5158 1 7736 7737
5159 1 7739 7738
5160 1 7739 7740
5161 1 7742 7741
5162 1 7742 7743
5163 1 7745 7744
5164 1 7745 7746
5165 1 7748 7747
5166 1 7748 7749
5167 1 7751 7750
5168 1 7751 7752
5169 1 7754 7753
5170 1 7754 7755
5171 1 7757 7756
5172 1 7757 7758
5173 1 7760 7759
5174 1 7760 7761
5175 1 7763 7762
5176 1 7763 7764
5177 1 7766 7765
5178 1 7766 7767
5179 1 7769 7768
5180 1 7769 7770
5181 1 7772 7771
5182 1 7772 7773
5183 1 7775 7774
5184 1 7775 7776
5185 1 7778 7777
5186 1 7778 7779
5187 1 7781 7780
5188 1 7781 7782
5189 1 7784 7783
5190 1 7784 7785
5191 1 7787 7786
5192 1 7787 7788
5193 1 7790 7789
5194 1 7790 7791
5195 1 7793 7792
5196 1 7793 7794
5197 1 7796 7795
5198 1 7796 7797
5199 1 7799 7798
5200 1 7799 7800
5201 1 7802 7801
5202 1 7802 7803
5203 1 7805 7804
5204 1 7805 7806
5205 1 7808 7807
5206 1 7808 7809
5207 1 7811 7810
5208 1 7811 7812
5209 1 7814 7813
5210 1 7814 7815
5211 1 7817 7816
5212 1 7817 7818
5213 1 7820 7819
5214 1 7820 7821
5215 1 7823 7822
5216 1 7823 7824
5217 1 7826 7825
5218 1 7826 7827
5219 1 7829 7828
5220 1 7829 7830
5221 1 7832 7831
5222 1 7832 7833
5223 1 7835 7834
5224 1 7835 7836
5225 1 7838 7837
5226 1 7838 7839
5227 1 7841 7840
5228 1 7841 7842
5229 1 7844 7843
5230 1 7844 7845
5231 1 7847 7846
5232 1 7847 7848
5233 1 7850 7849
5234 1 7850 7851
5235 1 7853 7852
5236 1 7853 7854
5237 1 7856 7855
5238 1 7856 7857
5239 1 7859 7858
5240 1 7859 7860
5241 1 7862 7861
5242 1 7862 7863
5243 1 7865 7864
5244 1 7865 7866
5245 1 7868 7867
5246 1 7868 7869
5247 1 7871 7870
5248 1 7871 7872
5249 1 7874 7873
5250 1 7874 7875
5251 1 7877 7876
5252 1 7877 7878
5253 1 7880 7879
5254 1 7880 7881
5255 1 7883 7882
5256 1 7883 7884
5257 1 7886 7885
5258 1 7886 7887
5259 1 7889 7888
5260 1 7889 7890
5261 1 7892 7891
5262 1 7892 7893
5263 1 7895 7894
5264 1 7895 7896
5265 1 7898 7897
5266 1 7898 7899
5267 1 7901 7900
5268 1 7901 7902
5269 1 7904 7903
5270 1 7904 7905
5271 1 7907 7906
5272 1 7907 7908
5273 1 7910 7909
5274 1 7910 7911
5275 1 7913 7912
5276 1 7913 7914
5277 1 7916 7915
5278 1 7916 7917
5279 1 7919 7918
5280 1 7919 7920
5281 1 7922 7921
5282 1 7922 7923
5283 1 7925 7924
5284 1 7925 7926
5285 1 7928 7927
5286 1 7928 7929
5287 1 7931 7930
5288 1 7931 7932
5289 1 7934 7933
5290 1 7934 7935
5291 1 7937 7936
5292 1 7937 7938
5293 1 7940 7939
5294 1 7940 7941
5295 1 7943 7942
5296 1 7943 7944
5297 1 7946 7945
5298 1 7946 7947
5299 1 7949 7948
5300 1 7949 7950
5301 1 7952 7951
5302 1 7952 7953
5303 1 7955 7954
5304 1 7955 7956
5305 1 7958 7957
5306 1 7958 7959
5307 1 7961 7960
5308 1 7961 7962
5309 1 7964 7963
5310 1 7964 7965
5311 1 7967 7966
5312 1 7967 7968
5313 1 7970 7969
5314 1 7970 7971
5315 1 7973 7972
5316 1 7973 7974
5317 1 7976 7975
5318 1 7976 7977
5319 1 7979 7978
5320 1 7979 7980
5321 1 7982 7981
5322 1 7982 7983
5323 1 7985 7984
5324 1 7985 7986
5325 1 7988 7987
5326 1 7988 7989
5327 1 7991 7990
5328 1 7991 7992
5329 1 7994 7993
5330 1 7994 7995
5331 1 7997 7996
5332 1 7997 7998
5333 1 8000 7999
5334 1 8000 8001
5335 1 8003 8002
5336 1 8003 8004
5337 1 8006 8005
5338 1 8006 8007
5339 1 8009 8008
5340 1 8009 8010
5341 1 8012 8011
5342 1 8012 8013
5343 1 8015 8014
5344 1 8015 8016
5345 1 8018 8017
5346 1 8018 8019
5347 1 8021 8020
5348 1 8021 8022
5349 1 8024 8023
5350 1 8024 8025
5351 1 8027 8026
5352 1 8027 8028
5353 1 8030 8029
5354 1 8030 8031
5355 1 8033 8032
5356 1 8033 8034
5357 1 8036 8035
5358 1 8036 8037
5359 1 8039 8038
5360 1 8039 8040
5361 1 8042 8041
5362 1 8042 8043
5363 1 8045 8044
5364 1 8045 8046
5365 1 8048 8047
5366 1 8048 8049
5367 1 8051 8050
5368 1 8051 8052
5369 1 8054 8053
5370 1 8054 8055
5371 1 8057 8056
5372 1 8057 8058
5373 1 8060 8059
5374 1 8060 8061
5375 1 8063 8062
5376 1 8063 8064
5377 1 8066 8065
5378 1 8066 8067
5379 1 8069 8068
5380 1 8069 8070
5381 1 8072 8071
5382 1 8072 8073
5383 1 8075 8074
5384 1 8075 8076
5385 1 8078 8077
5386 1 8078 8079
5387 1 8081 8080
5388 1 8081 8082
5389 1 8084 8083
5390 1 8084 8085
5391 1 8087 8086
5392 1 8087 8088
5393 1 8090 8089
5394 1 8090 8091
5395 1 8093 8092
5396 1 8093 8094
5397 1 8096 8095
5398 1 8096 8097
5399 1 8099 8098
5400 1 8099 8100
5401 1 8102 8101
5402 1 8102 8103
5403 1 8105 8104
5404 1 8105 8106
5405 1 8108 8107
5406 1 8108 8109
5407 1 8111 8110
5408 1 8111 8112
5409 1 8114 8113
5410 1 8114 8115
5411 1 8117 8116
5412 1 8117 8118
5413 1 8120 8119
5414 1 8120 8121
5415 1 8123 8122
5416 1 8123 8124
5417 1 8126 8125
5418 1 8126 8127
5419 1 8129 8128
5420 1 8129 8130
5421 1 8132 8131
5422 1 8132 8133
5423 1 8135 8134
5424 1 8135 8136
5425 1 8138 8137
5426 1 8138 8139
5427 1 8141 8140
5428 1 8141 8142
5429 1 8144 8143
5430 1 8144 8145
5431 1 8147 8146
5432 1 8147 8148
5433 1 8150 8149
5434 1 8150 8151
5435 1 8153 8152
5436 1 8153 8154
5437 1 8156 8155
5438 1 8156 8157
5439 1 8159 8158
5440 1 8159 8160
5441 1 8162 8161
5442 1 8162 8163
5443 1 8165 8164
5444 1 8165 8166
5445 1 8168 8167
5446 1 8168 8169
5447 1 8171 8170
5448 1 8171 8172
5449 1 8174 8173
5450 1 8174 8175
5451 1 8177 8176
5452 1 8177 8178
5453 1 8180 8179
5454 1 8180 8181
5455 1 8183 8182
5456 1 8183 8184
5457 1 8186 8185
5458 1 8186 8187
5459 1 8189 8188
5460 1 8189 8190
5461 1 8192 8191
5462 1 8192 8193
5463 1 8195 8194
5464 1 8195 8196
5465 1 8198 8197
5466 1 8198 8199
5467 1 8201 8200
5468 1 8201 8202
5469 1 8204 8203
5470 1 8204 8205
5471 1 8207 8206
5472 1 8207 8208
5473 1 8210 8209
5474 1 8210 8211
5475 1 8213 8212
5476 1 8213 8214
5477 1 8216 8215
5478 1 8216 8217
5479 1 8219 8218
5480 1 8219 8220
5481 1 8222 8221
5482 1 8222 8223
5483 1 8225 8224
5484 1 8225 8226
5485 1 8228 8227
5486 1 8228 8229
5487 1 8231 8230
5488 1 8231 8232
5489 1 8234 8233
5490 1 8234 8235
5491 1 8237 8236
5492 1 8237 8238
5493 1 8240 8239
5494 1 8240 8241
5495 1 8243 8242
5496 1 8243 8244
5497 1 8246 8245
5498 1 8246 8247
5499 1 8249 8248
5500 1 8249 8250
5501 1 8252 8251
5502 1 8252 8253
5503 1 8255 8254
5504 1 8255 8256
5505 1 8258 8257
5506 1 8258 8259
5507 1 8261 8260
5508 1 8261 8262
5509 1 8264 8263
5510 1 8264 8265
5511 1 8267 8266
5512 1 8267 8268
5513 1 8270 8269
5514 1 8270 8271
5515 1 8273 8272
5516 1 8273 8274
5517 1 8276 8275
5518 1 8276 8277
5519 1 8279 8278
5520 1 8279 8280
5521 1 8282 8281
5522 1 8282 8283
5523 1 8285 8284
5524 1 8285 8286
5525 1 8288 8287
5526 1 8288 8289
5527 1 8291 8290
5528 1 8291 8292
5529 1 8294 8293
5530 1 8294 8295
5531 1 8297 8296
5532 1 8297 8298
5533 1 8300 8299
5534 1 8300 8301
5535 1 8303 8302
5536 1 8303 8304
5537 1 8306 8305
5538 1 8306 8307
5539 1 8309 8308
5540 1 8309 8310
5541 1 8312 8311
5542 1 8312 8313
5543 1 8315 8314
5544 1 8315 8316
5545 1 8318 8317
5546 1 8318 8319
5547 1 8321 8320
5548 1 8321 8322
5549 1 8324 8323
5550 1 8324 8325
5551 1 8327 8326
5552 1 8327 8328
5553 1 8330 8329
5554 1 8330 8331
5555 1 8333 8332
5556 1 8333 8334
5557 1 8336 8335
5558 1 8336 8337
5559 1 8339 8338
5560 1 8339 8340
5561 1 8342 8341
5562 1 8342 8343
5563 1 8345 8344
5564 1 8345 8346
5565 1 8348 8347
5566 1 8348 8349
5567 1 8351 8350
5568 1 8351 8352
5569 1 8354 8353
5570 1 8354 8355
5571 1 8357 8356
5572 1 8357 8358
5573 1 8360 8359
5574 1 8360 8361
5575 1 8363 8362
5576 1 8363 8364
5577 1 8366 8365
5578 1 8366 8367
5579 1 8369 8368
5580 1 8369 8370
5581 1 8372 8371
5582 1 8372 8373
5583 1 8375 8374
5584 1 8375 8376
5585 1 8378 8377
5586 1 8378 8379
5587 1 8381 8380
5588 1 8381 8382
5589 1 8384 8383
5590 1 8384 8385
5591 1 8387 8386
5592 1 8387 8388
5593 1 8390 8389
5594 1 8390 8391
5595 1 8393 8392
5596 1 8393 8394
5597 1 8396 8395
5598 1 8396 8397
5599 1 8399 8398
5600 1 8399 8400
5601 1 8402 8401
5602 1 8402 8403
5603 1 8405 8404
5604 1 8405 8406
5605 1 8408 8407
5606 1 8408 8409
5607 1 8411 8410
5608 1 8411 8412
5609 1 8414 8413
5610 1 8414 8415
5611 1 8417 8416
5612 1 8417 8418
5613 1 8420 8419
5614 1 8420 8421
5615 1 8423 8422
5616 1 8423 8424
5617 1 8426 8425
5618 1 8426 8427
5619 1 8429 8428
5620 1 8429 8430
5621 1 8432 8431
5622 1 8432 8433
5623 1 8435 8434
5624 1 8435 8436
5625 1 8438 8437
5626 1 8438 8439
5627 1 8441 8440
5628 1 8441 8442
5629 1 8444 8443
5630 1 8444 8445
5631 1 8447 8446
5632 1 8447 8448
5633 1 8450 8449
5634 1 8450 8451
5635 1 8453 8452
5636 1 8453 8454
5637 1 8456 8455
5638 1 8456 8457
5639 1 8459 8458
5640 1 8459 8460
5641 1 8462 8461
5642 1 8462 8463
5643 1 8465 8464
5644 1 8465 8466
5645 1 8468 8467
5646 1 8468 8469
5647 1 8471 8470
5648 1 8471 8472
5649 1 8474 8473
5650 1 8474 8475
5651 1 8477 8476
5652 1 8477 8478
5653 1 8480 8479
5654 1 8480 8481
5655 1 8483 8482
5656 1 8483 8484
5657 1 8486 8485
5658 1 8486 8487
5659 1 8489 8488
5660 1 8489 8490
5661 1 8492 8491
5662 1 8492 8493
5663 1 8495 8494
5664 1 8495 8496
5665 1 8498 8497
5666 1 8498 8499
5667 1 8501 8500
5668 1 8501 8502
5669 1 8504 8503
5670 1 8504 8505
5671 1 8507 8506
5672 1 8507 8508
5673 1 8510 8509
5674 1 8510 8511
5675 1 8513 8512
5676 1 8513 8514
5677 1 8516 8515
5678 1 8516 8517
5679 1 8519 8518
5680 1 8519 8520
5681 1 8522 8521
5682 1 8522 8523
5683 1 8525 8524
5684 1 8525 8526
5685 1 8528 8527
5686 1 8528 8529
5687 1 8531 8530
5688 1 8531 8532
5689 1 8534 8533
5690 1 8534 8535
5691 1 8537 8536
5692 1 8537 8538
5693 1 8540 8539
5694 1 8540 8541
5695 1 8543 8542
5696 1 8543 8544
5697 1 8546 8545
5698 1 8546 8547
5699 1 8549 8548
5700 1 8549 8550
5701 1 8552 8551
5702 1 8552 8553
5703 1 8555 8554
5704 1 8555 8556
5705 1 8558 8557
5706 1 8558 8559
5707 1 8561 8560
5708 1 8561 8562
5709 1 8564 8563
5710 1 8564 8565
5711 1 8567 8566
5712 1 8567 8568
5713 1 8570 8569
5714 1 8570 8571
5715 1 8573 8572
5716 1 8573 8574
5717 1 8576 8575
5718 1 8576 8577
5719 1 8579 8578
5720 1 8579 8580
5721 1 8582 8581
5722 1 8582 8583
5723 1 8585 8584
5724 1 8585 8586
5725 1 8588 8587
5726 1 8588 8589
5727 1 8591 8590
5728 1 8591 8592
5729 1 8594 8593
5730 1 8594 8595
5731 1 8597 8596
5732 1 8597 8598
5733 1 8600 8599
5734 1 8600 8601
5735 1 8603 8602
5736 1 8603 8604
5737 1 8606 8605
5738 1 8606 8607
5739 1 8609 8608
5740 1 8609 8610
5741 1 8612 8611
5742 1 8612 8613
5743 1 8615 8614
5744 1 8615 8616
5745 1 8618 8617
5746 1 8618 8619
5747 1 8621 8620
5748 1 8621 8622
5749 1 8624 8623
5750 1 8624 8625
5751 1 8627 8626
5752 1 8627 8628
5753 1 8630 8629
5754 1 8630 8631
5755 1 8633 8632
5756 1 8633 8634
5757 1 8636 8635
5758 1 8636 8637
5759 1 8639 8638
5760 1 8639 8640
5761 1 8642 8641
5762 1 8642 8643
5763 1 8645 8644
5764 1 8645 8646
5765 1 8648 8647
5766 1 8648 8649
5767 1 8651 8650
5768 1 8651 8652
5769 1 8654 8653
5770 1 8654 8655
5771 1 8657 8656
5772 1 8657 8658
5773 1 8660 8659
5774 1 8660 8661
5775 1 8663 8662
5776 1 8663 8664
5777 1 8666 8665
5778 1 8666 8667
5779 1 8669 8668
5780 1 8669 8670
5781 1 8672 8671
5782 1 8672 8673
5783 1 8675 8674
5784 1 8675 8676
5785 1 8678 8677
5786 1 8678 8679
5787 1 8681 8680
5788 1 8681 8682
5789 1 8684 8683
5790 1 8684 8685
5791 1 8687 8686
5792 1 8687 8688
5793 1 8690 8689
5794 1 8690 8691
5795 1 8693 8692
5796 1 8693 8694
5797 1 8696 8695
5798 1 8696 8697
5799 1 8699 8698
5800 1 8699 8700
5801 1 8702 8701
5802 1 8702 8703
5803 1 8705 8704
5804 1 8705 8706
5805 1 8708 8707
5806 1 8708 8709
5807 1 8711 8710
5808 1 8711 8712
5809 1 8714 8713
5810 1 8714 8715
5811 1 8717 8716
5812 1 8717 8718
5813 1 8720 8719
5814 1 8720 8721
5815 1 8723 8722
5816 1 8723 8724
5817 1 8726 8725
5818 1 8726 8727
5819 1 8729 8728
5820 1 8729 8730
5821 1 8732 8731
5822 1 8732 8733
5823 1 8735 8734
5824 1 8735 8736
5825 1 8738 8737
5826 1 8738 8739
5827 1 8741 8740
5828 1 8741 8742
5829 1 8744 8743
5830 1 8744 8745
5831 1 8747 8746
5832 1 8747 8748
5833 1 8750 8749
5834 1 8750 8751
5835 1 8753 8752
5836 1 8753 8754
5837 1 8756 8755
5838 1 8756 8757
5839 1 8759 8758
5840 1 8759 8760
5841 1 8762 8761
5842 1 8762 8763
5843 1 8765 8764
5844 1 8765 8766
5845 1 8768 8767
5846 1 8768 8769
5847 1 8771 8770
5848 1 8771 8772
5849 1 8774 8773
5850 1 8774 8775
5851 1 8777 8776
5852 1 8777 8778
5853 1 8780 8779
5854 1 8780 8781
5855 1 8783 8782
5856 1 8783 8784
5857 1 8786 8785
5858 1 8786 8787
5859 1 8789 8788
5860 1 8789 8790
5861 1 8792 8791
5862 1 8792 8793
5863 1 8795 8794
5864 1 8795 8796
5865 1 8798 8797
5866 1 8798 8799
5867 1 8801 8800
5868 1 8801 8802
5869 1 8804 8803
5870 1 8804 8805
5871 1 8807 8806
5872 1 8807 8808
5873 1 8810 8809
5874 1 8810 8811
5875 1 8813 8812
5876 1 8813 8814
5877 1 8816 8815
5878 1 8816 8817
5879 1 8819 8818
5880 1 8819 8820
5881 1 8822 8821
5882 1 8822 8823
5883 1 8825 8824
5884 1 8825 8826
5885 1 8828 8827
5886 1 8828 8829
5887 1 8831 8830
5888 1 8831 8832
5889 1 8834 8833
5890 1 8834 8835
5891 1 8837 8836
5892 1 8837 8838
5893 1 8840 8839
5894 1 8840 8841
5895 1 8843 8842
5896 1 8843 8844
5897 1 8846 8845
5898 1 8846 8847
5899 1 8849 8848
5900 1 8849 8850
5901 1 8852 8851
5902 1 8852 8853
5903 1 8855 8854
5904 1 8855 8856
5905 1 8858 8857
5906 1 8858 8859
5907 1 8861 8860
5908 1 8861 8862
5909 1 8864 8863
5910 1 8864 8865
5911 1 8867 8866
5912 1 8867 8868
5913 1 8870 8869
5914 1 8870 8871
5915 1 8873 8872
5916 1 8873 8874
5917 1 8876 8875
5918 1 8876 8877
5919 1 8879 8878
5920 1 8879 8880
5921 1 8882 8881
5922 1 8882 8883
5923 1 8885 8884
5924 1 8885 8886
5925 1 8888 8887
5926 1 8888 8889
5927 1 8891 8890
5928 1 8891 8892
5929 1 8894 8893
5930 1 8894 8895
5931 1 8897 8896
5932 1 8897 8898
5933 1 8900 8899
5934 1 8900 8901
5935 1 8903 8902
5936 1 8903 8904
5937 1 8906 8905
5938 1 8906 8907
5939 1 8909 8908
5940 1 8909 8910
5941 1 8912 8911
5942 1 8912 8913
5943 1 8915 8914
5944 1 8915 8916
5945 1 8918 8917
5946 1 8918 8919
5947 1 8921 8920
5948 1 8921 8922
5949 1 8924 8923
5950 1 8924 8925
5951 1 8927 8926
5952 1 8927 8928
5953 1 8930 8929
5954 1 8930 8931
5955 1 8933 8932
5956 1 8933 8934
5957 1 8936 8935
5958 1 8936 8937
5959 1 8939 8938
5960 1 8939 8940
5961 1 8942 8941
5962 1 8942 8943
5963 1 8945 8944
5964 1 8945 8946
5965 1 8948 8947
5966 1 8948 8949
5967 1 8951 8950
5968 1 8951 8952
5969 1 8954 8953
5970 1 8954 8955
5971 1 8957 8956
5972 1 8957 8958
5973 1 8960 8959
5974 1 8960 8961
5975 1 8963 8962
5976 1 8963 8964
5977 1 8966 8965
5978 1 8966 8967
5979 1 8969 8968
5980 1 8969 8970
5981 1 8972 8971
5982 1 8972 8973
5983 1 8975 8974
5984 1 8975 8976
5985 1 8978 8977
5986 1 8978 8979
5987 1 8981 8980
5988 1 8981 8982
5989 1 8984 8983
5990 1 8984 8985
5991 1 8987 8986
5992 1 8987 8988
5993 1 8990 8989
5994 1 8990 8991
5995 1 8993 8992
5996 1 8993 8994
5997 1 8996 8995
5998 1 8996 8997
5999 1 8999 8998
6000 1 8999 9000
6001 1 9002 9001
6002 1 9002 9003
6003 1 9005 9004
6004 1 9005 9006
6005 1 9008 9007
6006 1 9008 9009
6007 1 9011 9010
6008 1 9011 9012
6009 1 9014 9013
6010 1 9014 9015
6011 1 9017 9016
6012 1 9017 9018
6013 1 9020 9019
6014 1 9020 9021
6015 1 9023 9022
6016 1 9023 9024
6017 1 9026 9025
6018 1 9026 9027
6019 1 9029 9028
6020 1 9029 9030
6021 1 9032 9031
6022 1 9032 9033
6023 1 9035 9034
6024 1 9035 9036
6025 1 9038 9037
6026 1 9038 9039
6027 1 9041 9040
6028 1 9041 9042
6029 1 9044 9043
6030 1 9044 9045
6031 1 9047 9046
6032 1 9047 9048
6033 1 9050 9049
6034 1 9050 9051
6035 1 9053 9052
6036 1 9053 9054
6037 1 9056 9055
6038 1 9056 9057
6039 1 9059 9058
6040 1 9059 9060
6041 1 9062 9061
6042 1 9062 9063
6043 1 9065 9064
6044 1 9065 9066
6045 1 9068 9067
6046 1 9068 9069
6047 1 9071 9070
6048 1 9071 9072
6049 1 9074 9073
6050 1 9074 9075
6051 1 9077 9076
6052 1 9077 9078
6053 1 9080 9079
6054 1 9080 9081
6055 1 9083 9082
6056 1 9083 9084
6057 1 9086 9085
6058 1 9086 9087
6059 1 9089 9088
6060 1 9089 9090
6061 1 9092 9091
6062 1 9092 9093
6063 1 9095 9094
6064 1 9095 9096
6065 1 9098 9097
6066 1 9098 9099
6067 1 9101 9100
6068 1 9101 9102
6069 1 9104 9103
6070 1 9104 9105
6071 1 9107 9106
6072 1 9107 9108
6073 1 9110 9109
6074 1 9110 9111
6075 1 9113 9112
6076 1 9113 9114
6077 1 9116 9115
6078 1 9116 9117
6079 1 9119 9118
6080 1 9119 9120

Angles

1 1 1 2 3
2 1 4 5 6
3 1 7 8 9
4 1 10 11 12
5 1 13 14 15
6 1 16 17 18
7 1 19 20 21
8 1 22 23 24
9 1 25 26 27
10 1 28 29 30
11 1 31 32 33
12 1 34 35 36
13 1 37 38 39
14 1 40 41 42
15 1 43 44 45
16 1 46 47 48
17 1 49 50 51
18 1 52 53 54
19 1 55 56 57
20 1 58 59 60
21 1 61 62 63
22 1 64 65 66
23 1 67 68 69
24 1 70 71 72
25 1 73 74 75
26 1 76 77 78
27 1 79 80 81
28 1 82 83 84
29 1 85 86 87
30 1 88 89 90
31 1 91 92 93
32 1 94 95 96
33 1 97 98 99
34 1 100 101 102
35 1 103 104 105
36 1 106 107 108
37 1 109 110 111
38 1 112 113 114
39 1 115 116 117
40 1 118 119 120
41 1 121 122 123
42 1 124 125 126
43 1 127 128 129
44 1 130 131 132
45 1 133 134 135
46 1 136 137 138
47 1 139 140 141
48 1 142 143 144
49 1 145 146 147
50 1 148 149 150
51 1 151 152 153
52 1 154 155 156
53 1 157 158 159
54 1 160 161 162
55 1 163 164 165
56 1 166 167 168
57 1 169 170 171
58 1 172 173 174
59 1 175 176 177
60 1 178 179 180
61 1 181 182 183
62 1 184 185 186
63 1 187 188 189
64 1 190 191 192
65 1 193 194 195
66 1 196 197 198
67 1 199 200 201
68 1 202 203 204
69 1 205 206 207
70 1 208 209 210
71 1 211 212 213
72 1 214 215 216
73 1 217 218 219
74 1 220 221 222
75 1 223 224 225
76 1 226 227 228
77 1 229 230 231
78 1 232 233 234
79 1 235 236 237
80 1 238 239 240
81 1 241 242 243
82 1 244 245 246
83 1 247 248 249
84 1 250 251 252
85 1 253 254 255
86 1 256 257 258
87 1 259 260 261
88 1 262 263 264
89 1 265 266 267
90 1 268 269 270
91 1 271 272 273
92 1 274 275 276
93 1 277 278 279
94 1 280 281 282
95 1 283 284 285
96 1 286 287 288
97 1 289 290 291
98 1 292 293 294
99 1 295 296 297
100 1 298 299 300
101 1 301 302 303
102 1 304 305 306
103 1 307 308 309
104 1 310 311 312
105 1 313 314 315
106 1 316 317 318
107 1 319 320 321
108 1 322 323 324
109 1 325 326 327
110 1 328 329 330
111 1 331 332 333
112 1 334 335 336
113 1 337 338 339
114 1 340 341 342
115 1 343 344 345
116 1 346 347 348
117 1 349 350 351
118 1 352 353 354
119 1 355 356 357
120 1 358 359 360
121 1 361 362 363
122 1 364 365 366
123 1 367 368 369
124 1 370 371 372
125 1 373 374 375
126 1 376 377 378
127 1 379 380 381
128 1 382 383 384
129 1 385 386 387
130 1 388 389 390
131 1 391 392 393
132 1 394 395 396
133 1 397 398 399
134 1 400 401 402
135 1 403 404 405
136 1 406 407 408
137 1 409 410 411
138 1 412 413 414
139 1 415 416 417
140 1 418 419 420
141 1 421 422 423
142 1 424 425 426
143 1 427 428 429
144 1 430 431 432
145 1 433 434 435
146 1 436 437 438
147 1 439 440 441
148 1 442 443 444
149 1 445 446 447
150 1 448 449 450
151 1 451 452 453
152 1 454 455 456
153 1 457 458 459
154 1 460 461 462
155 1 463 464 465
156 1 466 467 468
157 1 469 470 471
158 1 472 473 474
159 1 475 476 477
160 1 478 479 480
161 1 481 482 483
162 1 484 485 486
163 1 487 488 489
164 1 490 491 492
165 1 493 494 495
166 1 496 497 498
167 1 499 500 501
168 1 502 503 504
169 1 505 506 507
170 1 508 509 510
171 1 511 512 513
172 1 514 515 516
173 1 517 518 519
174 1 520 521 522
175 1 523 524 525
176 1 526 527 528
177 1 529 530 531
178 1 532 533 534
179 1 535 536 537
180 1 538 539 540
181 1 541 542 543
182 1 544 545 546
183 1 547 548 549
184 1 550 551 552
185 1 553 554 555
186 1 556 557 558
187 1 559 560 561
188 1 562 563 564
189 1 565 566 567
190 1 568 569 570
191 1 571 572 573
192 1 574 575 576
193 1 577 578 579
194 1 580 581 582
195 1 583 584 585
196 1 586 587 588
197 1 589 590 591
198 1 592 593 594
199 1 595 596 597
200 1 598 599 600
201 1 601 602 603
202 1 604 605 606
203 1 607 608 609
204 1 610 611 612
205 1 613 614 615
206 1 616 617 618
207 1 619 620 621
208 1 622 623 624
209 1 625 626 627
210 1 628 629 630
211 1 631 632 633
212 1 634 635 636
213 1 637 638 639
214 1 640 641 642
215 1 643 644 645
216 1 646 647 648
217 1 649 650 651
218 1 652 653 654
219 1 655 656 657
220 1 658 659 660
221 1 661 662 663
222 1 664 665 666
223 1 667 668 669
224 1 670 671 672
225 1 673 674 675
226 1 676 677 678
227 1 679 680 681
228 1 682 683 684
229 1 685 686 687
230 1 688 689 690
231 1 691 692 693
232 1 694 695 696
233 1 697 698 699
234 1 700 701 702
235 1 703 704 705
236 1 706 707 708
237 1 709 710 711
238 1 712 713 714
239 1 715 716 717
240 1 718 719 720
241 1 721 722 723
242 1 724 725 726
243 1 727 728 729
244 1 730 731 732
245 1 733 734 735
246 1 736 737 738
247 1 739 740 741
248 1 742 743 744
249 1 745 746 747
250 1 748 749 750
251 1 751 752 753
252 1 754 755 756
253 1 757 758 759
254 1 760 761 762
255 1 763 764 765
256 1 766 767 768
257 1 769 770 771
258 1 772 773 774
259 1 775 776 777
260 1 778 779 780
261 1 781 782 783
262 1 784 785 786
263 1 787 788 789
264 1 790 791 792
265 1 793 794 795
266 1 796 797 798
267 1 799 800 801
268 1 802 803 804
269 1 805 806 807
270 1 808 809 810
271 1 811 812 813
272 1 814 815 816
273 1 817 818 819
274 1 820 821 822
275 1 823 824 825
276 1 826 827 828
277 1 829 830 831
278 1 832 833 834
279 1 835 836 837
280 1 838 839 840
281 1 841 842 843
282 1 844 845 846
283 1 847 848 849
284 1 850 851 852
285 1 853 854 855
286 1 856 857 858
287 1 859 860 861
288 1 862 863 864
289 1 865 866 867
290 1 868 869 870
291 1 871 872 873
292 1 874 875 876
293 1 877 878 879
294 1 880 881 882
295 1 883 884 885
296 1 886 887 888
297 1 889 890 891
298 1 892 893 894
299 1 895 896 897
300 1 898 899 900
301 1 901 902 903
302 1 904 905 906
303 1 907 908 909
304 1 910 911 912
305 1 913 914 915
306 1 916 917 918
307 1 919 920 921
308 1 922 923 924
309 1 925 926 927
310 1 928 929 930
311 1 931 932 933
312 1 934 935 936
313 1 937 938 939
314 1 940 941 942
315 1 943 944 945
316 1 946 947 948
317 1 949 950 951
318 1 952 953 954
319 1 955 956 957
320 1 958 959 960
321 1 961 962 963
322 1 964 965 966
323 1 967 968 969
324 1 970 971 972
325 1 973 974 975
326 1 976 977 978
327 1 979 980 981
328 1 982 983 984
329 1 985 986 987
330 1 988 989 990
331 1 991 992 993
332 1 994 995 996
333 1 997 998 999
334 1 1000 1001 1002
335 1 1003 1004 1005
336 1 1006 1007 1008
337 1 1009 1010 1011
338 1 1012 1013 1014
339 1 1015 1016 1017
340 1 1018 1019 1020
341 1 1021 1022 1023
342 1 1024 1025 1026
343 1 1027 1028 1029
344 1 1030 1031 1032
345 1 1033 1034 1035
346 1 1036 1037 1038
347 1 1039 1040 1041
348 1 1042 1043 1044
349 1 1045 1046 1047
350 1 1048 1049 1050
351 1 1051 1052 1053
352 1 1054 1055 1056
353 1 1057 1058 1059
354 1 1060 1061 1062
355 1 1063 1064 1065
356 1 1066 1067 1068
357 1 1069 1070 1071
358 1 1072 1073 1074
359 1 1075 1076 1077
360 1 1078 1079 1080
361 1 1081 1082 1083
362 1 1084 1085 1086
363 1 1087 1088 1089
364 1 1090 1091 1092
365 1 1093 1094 1095
366 1 1096 1097 1098
367 1 1099 1100 1101
368 1 1102 1103 1104
369 1 1105 1106 1107
370 1 1108 1109 1110
371 1 1111 1112 1113
372 1 1114 1115 1116
373 1 1117 1118 1119
374 1 1120 1121 1122
375 1 1123 1124 1125
376 1 1126 1127 1128
377 1 1129 1130 1131
378 1 1132 1133 1134
379 1 1135 1136 1137
380 1 1138 1139 1140
381 1 1141 1142 1143
382 1 1144 1145 1146
383 1 1147 1148 1149
384 1 1150 1151 1152
385 1 1153 1154 1155
386 1 1156 1157 1158
387 1 1159 1160 1161
388 1 1162 1163 1164
389 1 1165 1166 1167
390 1 1168 1169 1170
391 1 1171 1172 1173
392 1 1174 1175 1176
393 1 1177 1178 1179
394 1 1180 1181 1182
395 1 1183 1184 1185
396 1 1186 1187 1188
397 1 1189 1190 1191
398 1 1192 1193 1194
399 1 1195 1196 1197
400 1 1198 1199 1200
401 1 1201 1202 1203
402 1 1204 1205 1206
403 1 1207 1208 1209
404 1 1210 1211 1212
405 1 1213 1214 1215
406 1 1216 1217 1218
407 1 1219 1220 1221
408 1 1222 1223 1224
409 1 1225 1226 1227
410 1 1228 1229 1230
411 1 1231 1232 1233
412 1 1234 1235 1236
413 1 1237 1238 1239
414 1 1240 1241 1242
415 1 1243 1244 1245
416 1 1246 1247 1248
417 1 1249 1250 1251
418 1 1252 1253 1254
419 1 1255 1256 1257
420 1 1258 1259 1260
421 1 1261 1262 1263
422 1 1264 1265 1266
423 1 1267 1268 1269
424 1 1270 1271 1272
425 1 1273 1274 1275
426 1 1276 1277 1278
427 1 1279 1280 1281
428 1 1282 1283 1284
429 1 1285 1286 1287
430 1 1288 1289 1290
431 1 1291 1292 1293
432 1 1294 1295 1296
433 1 1297 1298 1299
434 1 1300 1301 1302
435 1 1303 1304 1305
436 1 1306 1307 1308
437 1 1309 1310 1311
438 1 1312 1313 1314
439 1 1315 1316 1317
440 1 1318 1319 1320
441 1 1321 1322 1323
442 1 1324 1325 1326
443 1 1327 1328 1329
444 1 1330 1331 1332
445 1 1333 1334 1335
446 1 1336 1337 1338
447 1 1339 1340 1341
448 1 1342 1343 1344
449 1 1345 1346 1347
450 1 1348 1349 1350
451 1 1351 1352 1353
452 1 1354 1355 1356
453 1 1357 1358 1359
454 1 1360 1361 1362
455 1 1363 1364 1365
456 1 1366 1367 1368
457 1 1369 1370 1371
458 1 1372 1373 1374
459 1 1375 1376 1377
460 1 1378 1379 1380
461 1 1381 1382 1383
462 1 1384 1385 1386
463 1 1387 1388 1389
464 1 1390 1391 1392
465 1 1393 1394 1395
466 1 1396 1397 1398
467 1 1399 1400 1401
468 1 1402 1403 1404
469 1 1405 1406 1407
470 1 1408 1409 1410
471 1 1411 1412 1413
472 1 1414 1415 1416
473 1 1417 1418 1419
474 1 1420 1421 1422
475 1 1423 1424 1425
476 1 1426 1427 1428
477 1 1429 1430 1431
478 1 1432 1433 1434
479 1 1435 1436 1437
480 1 1438 1439 1440
481 1 1441 1442 1443
482 1 1444 1445 1446
483 1 1447 1448 1449
484 1 1450 1451 1452
485 1 1453 1454 1455
486 1 1456 1457 1458
487 1 1459 1460 1461
488 1 1462 1463 1464
489 1 1465 1466 1467
490 1 1468 1469 1470
491 1 1471 1472 1473
492 1 1474 1475 1476
493 1 1477 1478 1479
494 1 1480 1481 1482
495 1 1483 1484 1485
496 1 1486 1487 1488
497 1 1489 1490 1491
498 1 1492 1493 1494
499 1 1495 1496 1497
500 1 1498 1499 1500
501 1 1501 1502 1503
502 1 1504 1505 1506
503 1 1507 1508 1509
504 1 1510 1511 1512
505 1 1513 1514 1515
506 1 1516 1517 1518
507 1 1519 1520 1521
508 1 1522 1523 1524
509 1 1525 1526 1527
510 1 1528 1529 1530
511 1 1531 1532 1533
512 1 1534 1535 1536
513 1 1537 1538 1539
514 1 1540 1541 1542
515 1 1543 1544 1545
516 1 1546 1547 1548
517 1 1549 1550 1551
518 1 1552 1553 1554
519 1 1555 1556 1557
520 1 1558 1559 1560
521 1 1561 1562 1563
522 1 1564 1565 1566
523 1 1567 1568 1569
524 1 1570 1571 1572
525 1 1573 1574 1575
526 1 1576 1577 1578
527 1 1579 1580 1581
528 1 1582 1583 1584
529 1 1585 1586 1587
530 1 1588 1589 1590
531 1 1591 1592 1593
532 1 1594 1595 1596
533 1 1597 1598 1599
534 1 1600 1601 1602
535 1 1603 1604 1605
536 1 1606 1607 1608
537 1 1609 1610 1611
538 1 1612 1613 1614
539 1 1615 1616 1617
540 1 1618 1619 1620
541 1 1621 1622 1623
542 1 1624 1625 1626
543 1 1627 1628 1629
544 1 1630 1631 1632
545 1 1633 1634 1635
546 1 1636 1637 1638
547 1 1639 1640 1641
548 1 1642 1643 1644
549 1 1645 1646 1647
550 1 1648 1649 1650
551 1 1651 1652 1653
552 1 1654 1655 1656
553 1 1657 1658 1659
554 1 1660 1661 1662
555 1 1663 1664 1665
556 1 1666 1667 1668
557 1 1669 1670 1671
558 1 1672 1673 1674
559 1 1675 1676 1677
560 1 1678 1679 1680
561 1 1681 1682 1683
562 1 1684 1685 1686
563 1 1687 1688 1689
564 1 1690 1691 1692
565 1 1693 1694 1695
566 1 1696 1697 1698
567 1 1699 1700 1701
568 1 1702 1703 1704
569 1 1705 1706 1707
570 1 1708 1709 1710
571 1 1711 1712 1713
572 1 1714 1715 1716
573 1 1717 1718 1719
574 1 1720 1721 1722
575 1 1723 1724 1725
576 1 1726 1727 1728
577 1 1729 1730 1731
578 1 1732 1733 1734
579 1 1735 1736 1737
580 1 1738 1739 1740
581 1 1741 1742 1743
582 1 1744 1745 1746
583 1 1747 1748 1749
584 1 1750 1751 1752
585 1 1753 1754 1755
586 1 1756 1757 1758
587 1 1759 1760 1761
588 1 1762 1763 1764
589 1 1765 1766 1767
590 1 1768 1769 1770
591 1 1771 1772 1773
592 1 1774 1775 1776
593 1 1777 1778 1779
594 1 1780 1781 1782
595 1 1783 1784 1785
596 1 1786 1787 1788
597 1 1789 1790 1791
598 1 1792 1793 1794
599 1 1795 1796 1797
600 1 1798 1799 1800
601 1 1801 1802 1803
602 1 1804 1805 1806
603 1 1807 1808 1809
604 1 1810 1811 1812
605 1 1813 1814 1815
606 1 1816 1817 1818
607 1 1819 1820 1821
608 1 1822 1823 1824
609 1 1825 1826 1827
610 1 1828 1829 1830
611 1 1831 1832 1833
612 1 1834 1835 1836
613 1 1837 1838 1839
614 1 1840 1841 1842
615 1 1843 1844 1845
616 1 1846 1847 1848
617 1 1849 1850 1851
618 1 1852 1853 1854
619 1 1855 1856 1857
620 1 1858 1859 1860
621 1 1861 1862 1863
622 1 1864 1865 1866
623 1 1867 1868 1869
624 1 1870 1871 1872
625 1 1873 1874 1875
626 1 1876 1877 1878
627 1 1879 1880 1881
628 1 1882 1883 1884
629 1 1885 1886 1887
630 1 1888 1889 1890
631 1 1891 1892 1893
632 1 1894 1895 1896
633 1 1897 1898 1899
634 1 1900 1901 1902
635 1 1903 1904 1905
636 1 1906 1907 1908
637 1 1909 1910 1911
638 1 1912 1913 1914
639 1 1915 1916 1917
640 1 1918 1919 1920
641 1 1921 1922 1923
642 1 1924 1925 1926
643 1 1927 1928 1929
644 1 1930 1931 1932
645 1 1933 1934 1935
646 1 1936 1937 1938
647 1 1939 1940 1941
648 1 1942 1943 1944
649 1 1945 1946 1947
650 1 1948 1949 1950
651 1 1951 1952 1953
652 1 1954 1955 1956
653 1 1957 1958 1959
654 1 1960 1961 1962
655 1 1963 1964 1965
656 1 1966 1967 1968
657 1 1969 1970 1971
658 1 1972 1973 1974
659 1 1975 1976 1977
660 1 1978 1979 1980
661 1 1981 1982 1983
662 1 1984 1985 1986
663 1 1987 1988 1989
664 1 1990 1991 1992
665 1 1993 1994 1995
666 1 1996 1997 1998
667 1 1999 2000 2001
668 1 2002 2003 2004
669 1 2005 2006 2007
670 1 2008 2009 2010
671 1 2011 2012 2013
672 1 2014 2015 2016
673 1 2017 2018 2019
674 1 2020 2021 2022
675 1 2023 2024 2025
676 1 2026 2027 2028
677 1 2029 2030 2031
678 1 2032 2033 2034
679 1 2035 2036 2037
680 1 2038 2039 2040
681 1 2041 2042 2043
682 1 2044 2045 2046
683 1 2047 2048 2049
684 1 2050 2051 2052
685 1 2053 2054 2055
686 1 2056 2057 2058
687 1 2059 2060 2061
688 1 2062 2063 2064
689 1 2065 2066 2067
690 1 2068 2069 2070
691 1 2071 2072 2073
692 1 2074 2075 2076
693 1 2077 2078 2079
694 1 2080 2081 2082
695 1 2083 2084 2085
696 1 2086 2087 2088
697 1 2089 2090 2091
698 1 2092 2093 2094
699 1 2095 2096 2097
700 1 2098 2099 2100
701 1 2101 2102 2103
702 1 2104 2105 2106
703 1 2107 2108 2109
704 1 2110 2111 2112
705 1 2113 2114 2115
706 1 2116 2117 2118
707 1 2119 2120 2121
708 1 2122 2123 2124
709 1 2125 2126 2127
710 1 2128 2129 2130
711 1 2131 2132 2133
712 1 2134 2135 2136
713 1 2137 2138 2139
714 1 2140 2141 2142
715 1 2143 2144 2145
716 1 2146 2147 2148
717 1 2149 2150 2151
718 1 2152 2153 2154
719 1 2155 2156 2157
720 1 2158 2159 2160
721 1 2161 2162 2163
722 1 2164 2165 2166
723 1 2167 2168 2169
724 1 2170 2171 2172
725 1 2173 2174 2175
726 1 2176 2177 2178
727 1 2179 2180 2181
728 1 2182 2183 2184
729 1 2185 2186 2187
730 1 2188 2189 2190
731 1 2191 2192 2193
732 1 2194 2195 2196
733 1 2197 2198 2199
734 1 2200 2201 2202
735 1 2203 2204 2205
736 1 2206 2207 2208
737 1 2209 2210 2211
738 1 2212 2213 2214
739 1 2215 2216 2217
740 1 2218 2219 2220
741 1 2221 2222 2223
742 1 2224 2225 2226
743 1 2227 2228 2229
744 1 2230 2231 2232
745 1 2233 2234 2235
746 1 2236 2237 2238
747 1 2239 2240 2241
748 1 2242 2243 2244
749 1 2245 2246 2247
750 1 2248 2249 2250
751 1 2251 2252 2253
752 1 2254 2255 2256
753 1 2257 2258 2259
754 1 2260 2261 2262
755 1 2263 2264 2265
756 1 2266 2267 2268
757 1 2269 2270 2271
758 1 2272 2273 2274
759 1 2275 2276 2277
760 1 2278 2279 2280
761 1 2281 2282 2283
762 1 2284 2285 2286
763 1 2287 2288 2289
764 1 2290 2291 2292
765 1 2293 2294 2295
766 1 2296 2297 2298
767 1 2299 2300 2301
768 1 2302 2303 2304
769 1 2305 2306 2307
770 1 2308 2309 2310
771 1 2311 2312 2313
772 1 2314 2315 2316
773 1 2317 2318 2319
774 1 2320 2321 2322
775 1 2323 2324 2325
776 1 2326 2327 2328
777 1 2329 2330 2331
778 1 2332 2333 2334
779 1 2335 2336 2337
780 1 2338 2339 2340
781 1 2341 2342 2343
782 1 2344 2345 2346
783 1 2347 2348 2349
784 1 2350 2351 2352
785 1 2353 2354 2355
786 1 2356 2357 2358
787 1 2359 2360 2361
788 1 2362 2363 2364
789 1 2365 2366 2367
790 1 2368 2369 2370
791 1 2371 2372 2373
792 1 2374 2375 2376
793 1 2377 2378 2379
794 1 2380 2381 2382
795 1 2383 2384 2385
796 1 2386 2387 2388
797 1 2389 2390 2391
798 1 2392 2393 2394
799 1 2395 2396 2397
800 1 2398 2399 2400
801 1 2401 2402 2403
802 1 2404 2405 2406
803 1 2407 2408 2409
804 1 2410 2411 2412
805 1 2413 2414 2415
806 1 2416 2417 2418
807 1 2419 2420 2421
808 1 2422 2423 2424
809 1 2425 2426 2427
810 1 2428 2429 2430
811 1 2431 2432 2433
812 1 2434 2435 2436
813 1 2437 2438 2439
814 1 2440 2441 2442
815 1 2443 2444 2445
816 1 2446 2447 2448
817 1 2449 2450 2451
818 1 2452 2453 2454
819 1 2455 2456 2457
820 1 2458 2459 2460
821 1 2461 2462 2463
822 1 2464 2465 2466
823 1 2467 2468 2469
824 1 2470 2471 2472
825 1 2473 2474 2475
826 1 2476 2477 2478
827 1 2479 2480 2481
828 1 2482 2483 2484
829 1 2485 2486 2487
830 1 2488 2489 2490
831 1 2491 2492 2493
832 1 2494 2495 2496
833 1 2497 2498 2499
834 1 2500 2501 2502
835 1 2503 2504 2505
836 1 2506 2507 2508
837 1 2509 2510 2511
838 1 2512 2513 2514
839 1 2515 2516 2517
840 1 2518 2519 2520
841 1 2521 2522 2523
842 1 2524 2525 2526
843 1 2527 2528 2529
844 1 2530 2531 2532
845 1 2533 2534 2535
846 1 2536 2537 2538
847 1 2539 2540 2541
848 1 2542 2543 2544
849 1 2545 2546 2547
850 1 2548 2549 2550
851 1 2551 2552 2553
852 1 2554 2555 2556
853 1 2557 2558 2559
854 1 2560 2561 2562
855 1 2563 2564 2565
856 1 2566 2567 2568
857 1 2569 2570 2571
858 1 2572 2573 2574
859 1 2575 2576 2577
860 1 2578 2579 2580
861 1 2581 2582 2583
862 1 2584 2585 2586
863 1 2587 2588 2589
864 1 2590 2591 2592
865 1 2593 2594 2595
866 1 2596 2597 2598
867 1 2599 2600 2601
868 1 2602 2603 2604
869 1 2605 2606 2607
870 1 2608 2609 2610
871 1 2611 2612 2613
872 1 2614 2615 2616
873 1 2617 2618 2619
874 1 2620 2621 2622
875 1 2623 2624 2625
876 1 2626 2627 2628
877 1 2629 2630 2631
878 1 2632 2633 2634
879 1 2635 2636 2637
880 1 2638 2639 2640
881 1 2641 2642 2643
882 1 2644 2645 2646
883 1 2647 2648 2649
884 1 2650 2651 2652
885 1 2653 2654 2655
886 1 2656 2657 2658
887 1 2659 2660 2661
888 1 2662 2663 2664
889 1 2665 2666 2667
890 1 2668 2669 2670
891 1 2671 2672 2673
892 1 2674 2675 2676
893 1 2677 2678 2679
894 1 2680 2681 2682
895 1 2683 2684 2685
896 1 2686 2687 2688
897 1 2689 2690 2691
898 1 2692 2693 2694
899 1 2695 2696 2697
900 1 2698 2699 2700
901 1 2701 2702 2703
902 1 2704 2705 2706
903 1 2707 2708 2709
904 1 2710 2711 2712
905 1 2713 2714 2715
906 1 2716 2717 2718
907 1 2719 2720 2721
908 1 2722 2723 2724
909 1 2725 2726 2727
910 1 2728 2729 2730
911 1 2731 2732 2733
912 1 2734 2735 2736
913 1 2737 2738 2739
914 1 2740 2741 2742
915 1 2743 2744 2745
916 1 2746 2747 2748
917 1 2749 2750 2751
918 1 2752 2753 2754
919 1 2755 2756 2757
920 1 2758 2759 2760
921 1 2761 2762 2763
922 1 2764 2765 2766
923 1 2767 2768 2769
924 1 2770 2771 2772
925 1 2773 2774 2775
926 1 2776 2777 2778
927 1 2779 2780 2781
928 1 2782 2783 2784
929 1 2785 2786 2787
930 1 2788 2789 2790
931 1 2791 2792 2793
932 1 2794 2795 2796
933 1 2797 2798 2799
934 1 2800 2801 2802
935 1 2803 2804 2805
936 1 2806 2807 2808
937 1 2809 2810 2811
938 1 2812 2813 2814
939 1 2815 2816 2817
940 1 2818 2819 2820
941 1 2821 2822 2823
942 1 2824 2825 2826
943 1 2827 2828 2829
944 1 2830 2831 2832
945 1 2833 2834 2835
946 1 2836 2837 2838
947 1 2839 2840 2841
948 1 2842 2843 2844
949 1 2845 2846 2847
950 1 2848 2849 2850
951 1 2851 2852 2853
952 1 2854 2855 2856
953 1 2857 2858 2859
954 1 2860 2861 2862
955 1 2863 2864 2865
956 1 2866 2867 2868
957 1 2869 2870 2871
958 1 2872 2873 2874
959 1 2875 2876 2877
960 1 2878 2879 2880
961 1 2881 2882 2883
962 1 2884 2885 2886
963 1 2887 2888 2889
964 1 2890 2891 2892
965 1 2893 2894 2895
966 1 2896 2897 2898
967 1 2899 2900 2901
968 1 2902 2903 2904
969 1 2905 2906 2907
970 1 2908 2909 2910
971 1 2911 2912 2913
972 1 2914 2915 2916
973 1 2917 2918 2919
974 1 2920 2921 2922
975 1 2923 2924 2925
976 1 2926 2927 2928
977 1 2929 2930 2931
978 1 2932 2933 2934
979 1 2935 2936 2937
980 1 2938 2939 2940
981 1 2941 2942 2943
982 1 2944 2945 2946
983 1 2947 2948 2949
984 1 2950 2951 2952
985 1 2953 2954 2955
986 1 2956 2957 2958
987 1 2959 2960 2961
988 1 2962 2963 2964
989 1 2965 2966 2967
990 1 2968 2969 2970
991 1 2971 2972 2973
992 1 2974 2975 2976
993 1 2977 2978 2979
994 1 2980 2981 2982
995 1 2983 2984 2985
996 1 2986 2987 2988
997 1 2989 2990 2991
998 1 2992 2993 2994
999 1 2995 2996 2997
1000 1 2998 2999 3000
1001 1 3001 3002 3003
1002 1 3004 3005 3006
1003 1 3007 3008 3009
1004 1 3010 3011 3012
1005 1 3013 3014 3015
1006 1 3016 3017 3018
1007 1 3019 3020 3021
1008 1 3022 3023 3024
1009 1 3025 3026 3027
1010 1 3028 3029 3030
1011 1 3031 3032 3033
1012 1 3034 3035 3036
1013 1 3037 3038 3039
1014 1 3040 3041 3042
1015 1 3043 3044 3045
1016 1 3046 3047 3048
1017 1 3049 3050 3051
1018 1 3052 3053 3054
1019 1 3055 3056 3057
1020 1 3058 3059 3060
1021 1 3061 3062 3063
1022 1 3064 3065 3066
1023 1 3067 3068 3069
1024 1 3070 3071 3072
1025 1 3073 3074 3075
1026 1 3076 3077 3078
1027 1 3079 3080 3081
1028 1 3082 3083 3084
1029 1 3085 3086 3087
1030 1 3088 3089 3090
1031 1 3091 3092 3093
1032 1 3094 3095 3096
1033 1 3097 3098 3099
1034 1 3100 3101 3102
1035 1 3103 3104 3105
1036 1 3106 3107 3108
1037 1 3109 3110 3111
1038 1 3112 3113 3114
1039 1 3115 3116 3117
1040 1 3118 3119 3120
1041 1 3121 3122 3123
1042 1 3124 3125 3126
1043 1 3127 3128 3129
1044 1 3130 3131 3132
1045 1 3133 3134 3135
1046 1 3136 3137 3138
1047 1 3139 3140 3141
1048 1 3142 3143 3144
1049 1 3145 3146 3147
1050 1 3148 3149 3150
1051 1 3151 3152 3153
1052 1 3154 3155 3156
1053 1 3157 3158 3159
1054 1 3160 3161 3162
1055 1 3163 3164 3165
1056 1 3166 3167 3168
1057 1 3169 3170 3171
1058 1 3172 3173 3174
1059 1 3175 3176 3177
1060 1 3178 3179 3180
1061 1 3181 3182 3183
1062 1 3184 3185 3186
1063 1 3187 3188 3189
1064 1 3190 3191 3192
1065 1 3193 3194 3195
1066 1 3196 3197 3198
1067 1 3199 3200 3201
1068 1 3202 3203 3204
1069 1 3205 3206 3207
1070 1 3208 3209 3210
1071 1 3211 3212 3213
1072 1 3214 3215 3216
1073 1 3217 3218 3219
1074 1 3220 3221 3222
1075 1 3223 3224 3225
1076 1 3226 3227 3228
1077 1 3229 3230 3231
1078 1 3232 3233 3234
1079 1 3235 3236 3237
1080 1 3238 3239 3240
1081 1 3241 3242 3243
1082 1 3244 3245 3246
1083 1 3247 3248 3249
1084 1 3250 3251 3252
1085 1 3253 3254 3255
1086 1 3256 3257 3258
1087 1 3259 3260 3261
1088 1 3262 3263 3264
1089 1 3265 3266 3267
1090 1 3268 3269 3270
1091 1 3271 3272 3273
1092 1 3274 3275 3276
1093 1 3277 3278 3279
1094 1 3280 3281 3282
1095 1 3283 3284 3285
1096 1 3286 3287 3288
1097 1 3289 3290 3291
1098 1 3292 3293 3294
1099 1 3295 3296 3297
1100 1 3298 3299 3300
1101 1 3301 3302 3303
1102 1 3304 3305 3306
1103 1 3307 3308 3309
1104 1 3310 3311 3312
1105 1 3313 3314 3315
1106 1 3316 3317 3318
1107 1 3319 3320 3321
1108 1 3322 3323 3324
1109 1 3325 3326 3327
1110 1 3328 3329 3330
1111 1 3331 3332 3333
1112 1 3334 3335 3336
1113 1 3337 3338 3339
1114 1 3340 3341 3342
1115 1 3343 3344 3345
1116 1 3346 3347 3348
1117 1 3349 3350 3351
1118 1 3352 3353 3354
1119 1 3355 3356 3357
1120 1 3358 3359 3360
1121 1 3361 3362 3363
1122 1 3364 3365 3366
1123 1 3367 3368 3369
1124 1 3370 3371 3372
1125 1 3373 3374 3375
1126 1 3376 3377 3378
1127 1 3379 3380 3381
1128 1 3382 3383 3384
1129 1 3385 3386 3387
1130 1 3388 3389 3390
1131 1 3391 3392 3393
1132 1 3394 3395 3396
1133 1 3397 3398 3399
1134 1 3400 3401 3402
1135 1 3403 3404 3405
1136 1 3406 3407 3408
1137 1 3409 3410 3411
1138 1 3412 3413 3414
1139 1 3415 3416 3417
1140 1 3418 3419 3420
1141 1 3421 3422 3423
1142 1 3424 3425 3426
1143 1 3427 3428 3429
1144 1 3430 3431 3432
1145 1 3433 3434 3435
1146 1 3436 3437 3438
1147 1 3439 3440 3441
1148 1 3442 3443 3444
1149 1 3445 3446 3447
1150 1 3448 3449 3450
1151 1 3451 3452 3453
1152 1 3454 3455 3456
1153 1 3457 3458 3459
1154 1 3460 3461 3462
1155 1 3463 3464 3465
1156 1 3466 3467 3468
1157 1 3469 3470 3471
1158 1 3472 3473 3474
1159 1 3475 3476 3477
1160 1 3478 3479 3480
1161 1 3481 3482 3483
1162 1 3484 3485 3486
1163 1 3487 3488 3489
1164 1 3490 3491 3492
1165 1 3493 3494 3495
1166 1 3496 3497 3498
1167 1 3499 3500 3501
1168 1 3502 3503 3504
1169 1 3505 3506 3507
1170 1 3508 3509 3510
1171 1 3511 3512 3513
1172 1 3514 3515 3516
1173 1 3517 3518 3519
1174 1 3520 3521 3522
1175 1 3523 3524 3525
1176 1 3526 3527 3528
1177 1 3529 3530 3531
1178 1 3532 3533 3534
1179 1 3535 3536 3537
1180 1 3538 3539 3540
1181 1 3541 3542 3543
1182 1 3544 3545 3546
1183 1 3547 3548 3549
1184 1 3550 3551 3552
1185 1 3553 3554 3555
1186 1 3556 3557 3558
1187 1 3559 3560 3561
1188 1 3562 3563 3564
1189 1 3565 3566 3567
1190 1 3568 3569 3570
1191 1 3571 3572 3573
1192 1 3574 3575 3576
1193 1 3577 3578 3579
1194 1 3580 3581 3582
1195 1 3583 3584 3585
1196 1 3586 3587 3588
1197 1 3589 3590 3591
1198 1 3592 3593 3594
1199 1 3595 3596 3597
1200 1 3598 3599 3600
1201 1 3601 3602 3603
1202 1 3604 3605 3606
1203 1 3607 3608 3609
1204 1 3610 3611 3612
1205 1 3613 3614 3615
1206 1 3616 3617 3618
1207 1 3619 3620 3621
1208 1 3622 3623 3624
1209 1 3625 3626 3627
1210 1 3628 3629 3630
1211 1 3631 3632 3633
1212 1 3634 3635 3636
1213 1 3637 3638 3639
1214 1 3640 3641 3642
1215 1 3643 3644 3645
1216 1 3646 3647 3648
1217 1 3649 3650 3651
1218 1 3652 3653 3654
1219 1 3655 3656 3657
1220 1 3658 3659 3660
1221 1 3661 3662 3663
1222 1 3664 3665 3666
1223 1 3667 3668 3669
1224 1 3670 3671 3672
1225 1 3673 3674 3675
1226 1 3676 3677 3678
1227 1 3679 3680 3681
1228 1 3682 3683 3684
1229 1 3685 3686 3687
1230 1 3688 3689 3690
1231 1 3691 3692 3693
1232 1 3694 3695 3696
1233 1 3697 3698 3699
1234 1 3700 3701 3702
1235 1 3703 3704 3705
1236 1 3706 3707 3708
1237 1 3709 3710 3711
1238 1 3712 3713 3714
1239 1 3715 3716 3717
1240 1 3718 3719 3720
1241 1 3721 3722 3723
1242 1 3724 3725 3726
1243 1 3727 3728 3729
1244 1 3730 3731 3732
1245 1 3733 3734 3735
1246 1 3736 3737 3738
1247 1 3739 3740 3741
1248 1 3742 3743 3744
1249 1 3745 3746 3747
1250 1 3748 3749 3750
1251 1 3751 3752 3753
1252 1 3754 3755 3756
1253 1 3757 3758 3759
1254 1 3760 3761 3762
1255 1 3763 3764 3765
1256 1 3766 3767 3768
1257 1 3769 3770 3771
1258 1 3772 3773 3774
1259 1 3775 3776 3777
1260 1 3778 3779 3780
1261 1 3781 3782 3783
1262 1 3784 3785 3786
1263 1 3787 3788 3789
1264 1 3790 3791 3792
1265 1 3793 3794 3795
1266 1 3796 3797 3798
1267 1 3799 3800 3801
1268 1 3802 3803 3804
1269 1 3805 3806 3807
1270 1 3808 3809 3810
1271 1 3811 3812 3813
1272 1 3814 3815 3816
1273 1 3817 3818 3819
1274 1 3820 3821 3822
1275 1 3823 3824 3825
1276 1 3826 3827 3828
1277 1 3829 3830 3831
1278 1 3832 3833 3834
1279 1 3835 3836 3837
1280 1 3838 3839 3840
1281 1 3841 3842 3843
1282 1 3844 3845 3846
1283 1 3847 3848 3849
1284 1 3850 3851 3852
1285 1 3853 3854 3855
1286 1 3856 3857 3858
1287 1 3859 3860 3861
1288 1 3862 3863 3864
1289 1 3865 3866 3867
1290 1 3868 3869 3870
1291 1 3871 3872 3873
1292 1 3874 3875 3876
1293 1 3877 3878 3879
1294 1 3880 3881 3882
1295 1 3883 3884 3885
1296 1 3886 3887 3888
1297 1 3889 3890 3891
1298 1 3892 3893 3894
1299 1 3895 3896 3897
1300 1 3898 3899 3900
1301 1 3901 3902 3903
1302 1 3904 3905 3906
1303 1 3907 3908 3909
1304 1 3910 3911 3912
1305 1 3913 3914 3915
1306 1 3916 3917 3918
1307 1 3919 3920 3921
1308 1 3922 3923 3924
1309 1 3925 3926 3927
1310 1 3928 3929 3930
1311 1 3931 3932 3933
1312 1 3934 3935 3936
1313 1 3937 3938 3939
1314 1 3940 3941 3942
1315 1 3943 3944 3945
1316 1 3946 3947 3948
1317 1 3949 3950 3951
1318 1 3952 3953 3954
1319 1 3955 3956 3957
1320 1 3958 3959 3960
1321 1 3961 3962 3963
1322 1 3964 3965 3966
1323 1 3967 3968 3969
1324 1 3970 3971 3972
1325 1 3973 3974 3975
1326 1 3976 3977 3978
1327 1 3979 3980 3981
1328 1 3982 3983 3984
1329 1 3985 3986 3987
1330 1 3988 3989 3990
1331 1 3991 3992 3993
1332 1 3994 3995 3996
1333 1 3997 3998 3999
1334 1 4000 4001 4002
1335 1 4003 4004 4005
1336 1 4006 4007 4008
1337 1 4009 4010 4011
1338 1 4012 4013 4014
1339 1 4015 4016 4017
1340 1 4018 4019 4020
1341 1 4021 4022 4023
1342 1 4024 4025 4026
1343 1 4027 4028 4029
1344 1 4030 4031 4032
1345 1 4033 4034 4035
1346 1 4036 4037 4038
1347 1 4039 4040 4041
1348 1 4042 4043 4044
1349 1 4045 4046 4047
1350 1 4048 4049 4050
1351 1 4051 4052 4053
1352 1 4054 4055 4056
1353 1 4057 4058 4059
1354 1 4060 4061 4062
1355 1 4063 4064 4065
1356 1 4066 4067 4068
1357 1 4069 4070 4071
1358 1 4072 4073 4074
1359 1 4075 4076 4077
1360 1 4078 4079 4080
1361 1 4081 4082 4083
1362 1 4084 4085 4086
1363 1 4087 4088 4089
1364 1 4090 4091 4092
1365 1 4093 4094 4095
1366 1 4096 4097 4098
1367 1 4099 4100 4101
1368 1 4102 4103 4104
1369 1 4105 4106 4107
1370 1 4108 4109 4110
1371 1 4111 4112 4113
1372 1 4114 4115 4116
1373 1 4117 4118 4119
1374 1 4120 4121 4122
1375 1 4123 4124 4125
1376 1 4126 4127 4128
1377 1 4129 4130 4131
1378 1 4132 4133 4134
1379 1 4135 4136 4137
1380 1 4138 4139 4140
1381 1 4141 4142 4143
1382 1 4144 4145 4146
1383 1 4147 4148 4149
1384 1 4150 4151 4152
1385 1 4153 4154 4155
1386 1 4156 4157 4158
1387 1 4159 4160 4161
1388 1 4162 4163 4164
1389 1 4165 4166 4167
1390 1 4168 4169 4170
1391 1 4171 4172 4173
1392 1 4174 4175 4176
1393 1 4177 4178 4179
1394 1 4180 4181 4182
1395 1 4183 4184 4185
1396 1 4186 4187 4188
1397 1 4189 4190 4191
1398 1 4192 4193 4194
1399 1 4195 4196 4197
1400 1 4198 4199 4200
1401 1 4201 4202 4203
1402 1 4204 4205 4206
1403 1 4207 4208 4209
1404 1 4210 4211 4212
1405 1 4213 4214 4215
1406 1 4216 4217 4218
1407 1 4219 4220 4221
1408 1 4222 4223 4224
1409 1 4225 4226 4227
1410 1 4228 4229 4230
1411 1 4231 4232 4233
1412 1 4234 4235 4236
1413 1 4237 4238 4239
1414 1 4240 4241 4242
1415 1 4243 4244 4245
1416 1 4246 4247 4248
1417 1 4249 4250 4251
1418 1 4252 4253 4254
1419 1 4255 4256 4257
1420 1 4258 4259 4260
1421 1 4261 4262 4263
1422 1 4264 4265 4266
1423 1 4267 4268 4269
1424 1 4270 4271 4272
1425 1 4273 4274 4275
1426 1 4276 4277 4278
1427 1 4279 4280 4281
1428 1 4282 4283 4284
1429 1 4285 4286 4287
1430 1 4288 4289 4290
1431 1 4291 4292 4293
1432 1 4294 4295 4296
1433 1 4297 4298 4299
1434 1 4300 4301 4302
1435 1 4303 4304 4305
1436 1 4306 4307 4308
1437 1 4309 4310 4311
1438 1 4312 4313 4314
1439 1 4315 4316 4317
1440 1 4318 4319 4320
1441 1 4321 4322 4323
1442 1 4324 4325 4326
1443 1 4327 4328 4329
1444 1 4330 4331 4332
1445 1 4333 4334 4335
1446 1 4336 4337 4338
1447 1 4339 4340 4341
1448 1 4342 4343 4344
1449 1 4345 4346 4347
1450 1 4348 4349 4350
1451 1 4351 4352 4353
1452 1 4354 4355 4356
1453 1 4357 4358 4359
1454 1 4360 4361 4362
1455 1 4363 4364 4365
1456 1 4366 4367 4368
1457 1 4369 4370 4371
1458 1 4372 4373 4374
1459 1 4375 4376 4377
1460 1 4378 4379 4380
1461 1 4381 4382 4383
1462 1 4384 4385 4386
1463 1 4387 4388 4389
1464 1 4390 4391 4392
1465 1 4393 4394 4395
1466 1 4396 4397 4398
1467 1 4399 4400 4401
1468 1 4402 4403 4404
1469 1 4405 4406 4407
1470 1 4408 4409 4410
1471 1 4411 4412 4413
1472 1 4414 4415 4416
1473 1 4417 4418 4419
1474 1 4420 4421 4422
1475 1 4423 4424 4425
1476 1 4426 4427 4428
1477 1 4429 4430 4431
1478 1 4432 4433 4434
1479 1 4435 4436 4437
1480 1 4438 4439 4440
1481 1 4441 4442 4443
1482 1 4444 4445 4446
1483 1 4447 4448 4449
1484 1 4450 4451 4452
1485 1 4453 4454 4455
1486 1 4456 4457 4458
1487 1 4459 4460 4461
1488 1 4462 4463 4464
1489 1 4465 4466 4467
1490 1 4468 4469 4470
1491 1 4471 4472 4473
1492 1 4474 4475 4476
1493 1 4477 4478 4479
1494 1 4480 4481 4482
1495 1 4483 4484 4485
1496 1 4486 4487 4488
1497 1 4489 4490 4491
1498 1 4492 4493 4494
1499 1 4495 4496 4497
1500 1 4498 4499 4500
1501 1 4501 4502 4503
1502 1 4504 4505 4506
1503 1 4507 4508 4509
1504 1 4510 4511 4512
1505 1 4513 4514 4515
1506 1 4516 4517 4518
1507 1 4519 4520 4521
1508 1 4522 4523 4524
1509 1 4525 4526 4527
1510 1 4528 4529 4530
1511 1 4531 4532 4533
1512 1 4534 4535 4536
1513 1 4537 4538 4539
1514 1 4540 4541 4542
1515 1 4543 4544 4545
1516 1 4546 4547 4548
1517 1 4549 4550 4551
1518 1 4552 4553 4554
1519 1 4555 4556 4557
1520 1 4558 4559 4560
1521 1 4561 4562 4563
1522 1 4564 4565 4566
1523 1 4567 4568 4569
1524 1 4570 4571 4572
1525 1 4573 4574 4575
1526 1 4576 4577 4578
1527 1 4579 4580 4581
1528 1 4582 4583 4584
1529 1 4585 4586 4587
1530 1 4588 4589 4590
1531 1 4591 4592 4593
1532 1 4594 4595 4596
1533 1 4597 4598 4599
1534 1 4600 4601 4602
1535 1 4603 4604 4605
1536 1 4606 4607 4608
1537 1 4609 4610 4611
1538 1 4612 4613 4614
1539 1 4615 4616 4617
1540 1 4618 4619 4620
1541 1 4621 4622 4623
1542 1 4624 4625 4626
1543 1 4627 4628 4629
1544 1 4630 4631 4632
1545 1 4633 4634 4635
1546 1 4636 4637 4638
1547 1 4639 4640 4641
1548 1 4642 4643 4644
1549 1 4645 4646 4647
1550 1 4648 4649 4650
1551 1 4651 4652 4653
1552 1 4654 4655 4656
1553 1 4657 4658 4659
1554 1 4660 4661 4662
1555 1 4663 4664 4665
1556 1 4666 4667 4668
1557 1 4669 4670 4671
1558 1 4672 4673 4674
1559 1 4675 4676 4677
1560 1 4678 4679 4680
1561 1 4681 4682 4683
1562 1 4684 4685 4686
1563 1 4687 4688 4689
1564 1 4690 4691 4692
1565 1 4693 4694 4695
1566 1 4696 4697 4698
1567 1 4699 4700 4701
1568 1 4702 4703 4704
1569 1 4705 4706 4707
1570 1 4708 4709 4710
1571 1 4711 4712 4713
1572 1 4714 4715 4716
1573 1 4717 4718 4719
1574 1 4720 4721 4722
1575 1 4723 4724 4725
1576 1 4726 4727 4728
1577 1 4729 4730 4731
1578 1 4732 4733 4734
1579 1 4735 4736 4737
1580 1 4738 4739 4740
1581 1 4741 4742 4743
1582 1 4744 4745 4746
1583 1 4747 4748 4749
1584 1 4750 4751 4752
1585 1 4753 4754 4755
1586 1 4756 4757 4758
1587 1 4759 4760 4761
1588 1 4762 4763 4764
1589 1 4765 4766 4767
1590 1 4768 4769 4770
1591 1 4771 4772 4773
1592 1 4774 4775 4776
1593 1 4777 4778 4779
1594 1 4780 4781 4782
1595 1 4783 4784 4785
1596 1 4786 4787 4788
1597 1 4789 4790 4791
1598 1 4792 4793 4794
1599 1 4795 4796 4797
1600 1 4798 4799 4800
1601 1 4801 4802 4803
1602 1 4804 4805 4806
1603 1 4807 4808 4809
1604 1 4810 4811 4812
1605 1 4813 4814 4815
1606 1 4816 4817 4818
1607 1 4819 4820 4821
1608 1 4822 4823 4824
1609 1 4825 4826 4827
1610 1 4828 4829 4830
1611 1 4831 4832 4833
1612 1 4834 4835 4836
1613 1 4837 4838 4839
1614 1 4840 4841 4842
1615 1 4843 4844 4845
1616 1 4846 4847 4848
1617 1 4849 4850 4851
1618 1 4852 4853 4854
1619 1 4855 4856 4857
1620 1 4858 4859 4860
1621 1 4861 4862 4863
1622 1 4864 4865 4866
1623 1 4867 4868 4869
1624 1 4870 4871 4872
1625 1 4873 4874 4875
1626 1 4876 4877 4878
1627 1 4879 4880 4881
1628 1 4882 4883 4884
1629 1 4885 4886 4887
1630 1 4888 4889 4890
1631 1 4891 4892 4893
1632 1 4894 4895 4896
1633 1 4897 4898 4899
1634 1 4900 4901 4902
1635 1 4903 4904 4905
1636 1 4906 4907 4908
1637 1 4909 4910 4911
1638 1 4912 4913 4914
1639 1 4915 4916 4917
1640 1 4918 4919 4920
1641 1 4921 4922 4923
1642 1 4924 4925 4926
1643 1 4927 4928 4929
1644 1 4930 4931 4932
1645 1 4933 4934 4935
1646 1 4936 4937 4938
1647 1 4939 4940 4941
1648 1 4942 4943 4944
1649 1 4945 4946 4947
1650 1 4948 4949 4950
1651 1 4951 4952 4953
1652 1 4954 4955 4956
1653 1 4957 4958 4959
1654 1 4960 4961 4962
1655 1 4963 4964 4965
1656 1 4966 4967 4968
1657 1 4969 4970 4971
1658 1 4972 4973 4974
1659 1 4975 4976 4977
1660 1 4978 4979 4980
1661 1 4981 4982 4983
1662 1 4984 4985 4986
1663 1 4987 4988 4989
1664 1 4990 4991 4992
1665 1 4993 4994 4995
1666 1 4996 4997 4998
1667 1 4999 5000 5001
1668 1 5002 5003 5004
1669 1 5005 5006 5007
1670 1 5008 5009 5010
1671 1 5011 5012 5013
1672 1 5014 5015 5016
1673 1 5017 5018 5019
1674 1 5020 5021 5022
1675 1 5023 5024 5025
1676 1 5026 5027 5028
1677 1 5029 5030 5031
1678 1 5032 5033 5034
1679 1 5035 5036 5037
1680 1 5038 5039 5040
1681 1 5041 5042 5043
1682 1 5044 5045 5046
1683 1 5047 5048 5049
1684 1 5050 5051 5052
1685 1 5053 5054 5055
1686 1 5056 5057 5058
1687 1 5059 5060 5061
1688 1 5062 5063 5064
1689 1 5065 5066 5067
1690 1 5068 5069 5070
1691 1 5071 5072 5073
1692 1 5074 5075 5076
1693 1 5077 5078 5079
1694 1 5080 5081 5082
1695 1 5083 5084 5085
1696 1 5086 5087 5088
1697 1 5089 5090 5091
1698 1 5092 5093 5094
1699 1 5095 5096 5097
1700 1 5098 5099 5100
1701 1 5101 5102 5103
1702 1 5104 5105 5106
1703 1 5107 5108 5109
1704 1 5110 5111 5112
1705 1 5113 5114 5115
1706 1 5116 5117 5118
1707 1 5119 5120 5121
1708 1 5122 5123 5124
1709 1 5125 5126 5127
1710 1 5128 5129 5130
1711 1 5131 5132 5133
1712 1 5134 5135 5136
1713 1 5137 5138 5139
1714 1 5140 5141 5142
1715 1 5143 5144 5145
1716 1 5146 5147 5148
1717 1 5149 5150 5151
1718 1 5152 5153 5154
1719 1 5155 5156 5157
1720 1 5158 5159 5160
1721 1 5161 5162 5163
1722 1 5164 5165 5166
1723 1 5167 5168 5169
1724 1 5170 5171 5172
1725 1 5173 5174 5175
1726 1 5176 5177 5178
1727 1 5179 5180 5181
1728 1 5182 5183 5184
1729 1 5185 5186 5187
1730 1 5188 5189 5190
1731 1 5191 5192 5193
1732 1 5194 5195 5196
1733 1 5197 5198 5199
1734 1 5200 5201 5202
1735 1 5203 5204 5205
1736 1 5206 5207 5208
1737 1 5209 5210 5211
1738 1 5212 5213 5214
1739 1 5215 5216 5217
1740 1 5218 5219 5220
1741 1 5221 5222 5223
1742 1 5224 5225 5226
1743 1 5227 5228 5229
1744 1 5230 5231 5232
1745 1 5233 5234 5235
1746 1 5236 5237 5238
1747 1 5239 5240 5241
1748 1 5242 5243 5244
1749 1 5245 5246 5247
1750 1 5248 5249 5250
1751 1 5251 5252 5253
1752 1 5254 5255 5256
1753 1 5257 5258 5259
1754 1 5260 5261 5262
1755 1 5263 5264 5265
1756 1 5266 5267 5268
1757 1 5269 5270 5271
1758 1 5272 5273 5274
1759 1 5275 5276 5277
1760 1 5278 5279 5280
1761 1 5281 5282 5283
1762 1 5284 5285 5286
1763 1 5287 5288 5289
1764 1 5290 5291 5292
1765 1 5293 5294 5295
1766 1 5296 5297 5298
1767 1 5299 5300 5301
1768 1 5302 5303 5304
1769 1 5305 5306 5307
1770 1 5308 5309 5310
1771 1 5311 5312 5313
1772 1 5314 5315 5316
1773 1 5317 5318 5319
1774 1 5320 5321 5322
1775 1 5323 5324 5325
1776 1 5326 5327 5328
1777 1 5329 5330 5331
1778 1 5332 5333 5334
1779 1 5335 5336 5337
1780 1 5338 5339 5340
1781 1 5341 5342 5343
1782 1 5344 5345 5346
1783 1 5347 5348 5349
1784 1 5350 5351 5352
1785 1 5353 5354 5355
1786 1 5356 5357 5358
1787 1 5359 5360 5361
1788 1 5362 5363 5364
1789 1 5365 5366 5367
1790 1 5368 5369 5370
1791 1 5371 5372 5373
1792 1 5374 5375 5376
1793 1 5377 5378 5379
1794 1 5380 5381 5382
1795 1 5383 5384 5385
1796 1 5386 5387 5388
1797 1 5389 5390 5391
1798 1 5392 5393 5394
1799 1 5395 5396 5397
1800 1 5398 5399 5400
1801 1 5401 5402 5403
1802 1 5404 5405 5406
1803 1 5407 5408 5409
1804 1 5410 5411 5412
1805 1 5413 5414 5415
1806 1 5416 5417 5418
1807 1 5419 5420 5421
1808 1 5422 5423 5424
1809 1 5425 5426 5427
1810 1 5428 5429 5430
1811 1 5431 5432 5433
1812 1 5434 5435 5436
1813 1 5437 5438 5439
1814 1 5440 5441 5442
1815 1 5443 5444 5445
1816 1 5446 5447 5448
1817 1 5449 5450 5451
1818 1 5452 5453 5454
1819 1 5455 5456 5457
1820 1 5458 5459 5460
1821 1 5461 5462 5463
1822 1 5464 5465 5466
1823 1 5467 5468 5469
1824 1 5470 5471 5472
1825 1 5473 5474 5475
1826 1 5476 5477 5478
1827 1 5479 5480 5481
1828 1 5482 5483 5484
1829 1 5485 5486 5487
1830 1 5488 5489 5490
1831 1 5491 5492 5493
1832 1 5494 5495 5496
1833 1 5497 5498 5499
1834 1 5500 5501 5502
1835 1 5503 5504 5505
1836 1 5506 5507 5508
1837 1 5509 5510 5511
1838 1 5512 5513 5514
1839 1 5515 5516 5517
1840 1 5518 5519 5520
1841 1 5521 5522 5523
1842 1 5524 5525 5526
1843 1 5527 5528 5529
1844 1 5530 5531 5532
1845 1 5533 5534 5535
1846 1 5536 5537 5538
1847 1 5539 5540 5541
1848 1 5542 5543 5544
1849 1 5545 5546 5547
1850 1 5548 5549 5550
1851 1 5551 5552 5553
1852 1 5554 5555 5556
1853 1 5557 5558 5559
1854 1 5560 5561 5562
1855 1 5563 5564 5565
1856 1 5566 5567 5568
1857 1 5569 5570 5571
1858 1 5572 5573 5574
1859 1 5575 5576 5577
1860 1 5578 5579 5580
1861 1 5581 5582 5583
1862 1 5584 5585 5586
1863 1 5587 5588 5589
1864 1 5590 5591 5592
1865 1 5593 5594 5595
1866 1 5596 5597 5598
1867 1 5599 5600 5601
1868 1 5602 5603 5604
1869 1 5605 5606 5607
1870 1 5608 5609 5610
1871 1 5611 5612 5613
1872 1 5614 5615 5616
1873 1 5617 5618 5619
1874 1 5620 5621 5622
1875 1 5623 5624 5625
1876 1 5626 5627 5628
1877 1 5629 5630 5631
1878 1 5632 5633 5634
1879 1 5635 5636 5637
1880 1 5638 5639 5640
1881 1 5641 5642 5643
1882 1 5644 5645 5646
1883 1 5647 5648 5649
1884 1 5650 5651 5652
1885 1 5653 5654 5655
1886 1 5656 5657 5658
1887 1 5659 5660 5661
1888 1 5662 5663 5664
1889 1 5665 5666 5667
1890 1 5668 5669 5670
1891 1 5671 5672 5673
1892 1 5674 5675 5676
1893 1 5677 5678 5679
1894 1 5680 5681 5682
1895 1 5683 5684 5685
1896 1 5686 5687 5688
1897 1 5689 5690 5691
1898 1 5692 5693 5694
1899 1 5695 5696 5697
1900 1 5698 5699 5700
1901 1 5701 5702 5703
1902 1 5704 5705 5706
1903 1 5707 5708 5709
1904 1 5710 5711 5712
1905 1 5713 5714 5715
1906 1 5716 5717 5718
1907 1 5719 5720 5721
1908 1 5722 5723 5724
1909 1 5725 5726 5727
1910 1 5728 5729 5730
1911 1 5731 5732 5733
1912 1 5734 5735 5736
1913 1 5737 5738 5739
1914 1 5740 5741 5742
1915 1 5743 5744 5745
1916 1 5746 5747 5748
1917 1 5749 5750 5751
1918 1 5752 5753 5754
1919 1 5755 5756 5757
1920 1 5758 5759 5760
1921 1 5761 5762 5763
1922 1 5764 5765 5766
1923 1 5767 5768 5769
1924 1 5770 5771 5772
1925 1 5773 5774 5775
1926 1 5776 5777 5778
1927 1 5779 5780 5781
1928 1 5782 5783 5784
1929 1 5785 5786 5787
1930 1 5788 5789 5790
1931 1 5791 5792 5793
1932 1 5794 5795 5796
1933 1 5797 5798 5799
1934 1 5800 5801 5802
1935 1 5803 5804 5805
1936 1 5806 5807 5808
1937 1 5809 5810 5811
1938 1 5812 5813 5814
1939 1 5815 5816 5817
1940 1 5818 5819 5820
1941 1 5821 5822 5823
1942 1 5824 5825 5826
1943 1 5827 5828 5829
1944 1 5830 5831 5832
1945 1 5833 5834 5835
1946 1 5836 5837 5838
1947 1 5839 5840 5841
1948 1 5842 5843 5844
1949 1 5845 5846 5847
1950 1 5848 5849 5850
1951 1 5851 5852 5853
1952 1 5854 5855 5856
1953 1 5857 5858 5859
1954 1 5860 5861 5862
1955 1 5863 5864 5865
1956 1 5866 5867 5868
1957 1 5869 5870 5871
1958 1 5872 5873 5874
1959 1 5875 5876 5877
1960 1 5878 5879 5880
1961 1 5881 5882 5883
1962 1 5884 5885 5886
1963 1 5887 5888 5889
1964 1 5890 5891 5892
1965 1 5893 5894 5895
1966 1 5896 5897 5898
1967 1 5899 5900 5901
1968 1 5902 5903 5904
1969 1 5905 5906 5907
1970 1 5908 5909 5910
1971 1 5911 5912 5913
1972 1 5914 5915 5916
1973 1 5917 5918 5919
1974 1 5920 5921 5922
1975 1 5923 5924 5925
1976 1 5926 5927 5928
1977 1 5929 5930 5931
1978 1 5932 5933 5934
1979 1 5935 5936 5937
1980 1 5938 5939 5940
1981 1 5941 5942 5943
1982 1 5944 5945 5946
1983 1 5947 5948 5949
1984 1 5950 5951 5952
1985 1 5953 5954 5955
1986 1 5956 5957 5958
1987 1 5959 5960 5961
1988 1 5962 5963 5964
1989 1 5965 5966 5967
1990 1 5968 5969 5970
1991 1 5971 5972 5973
1992 1 5974 5975 5976
1993 1 5977 5978 5979
1994 1 5980 5981 5982
1995 1 5983 5984 5985
1996 1 5986 5987 5988
1997 1 5989 5990 5991
1998 1 5992 5993 5994
1999 1 5995 5996 5997
2000 1 5998 5999 6000
2001 1 6001 6002 6003
2002 1 6004 6005 6006
2003 1 6007 6008 6009
2004 1 6010 6011 6012
2005 1 6013 6014 6015
2006 1 6016 6017 6018
2007 1 6019 6020 6021
2008 1 6022 6023 6024
2009 1 6025 6026 6027
2010 1 6028 6029 6030
2011 1 6031 6032 6033
2012 1 6034 6035 6036
2013 1 6037 6038 6039
2014 1 6040 6041 6042
2015 1 6043 6044 6045
2016 1 6046 6047 6048
2017 1 6049 6050 6051
2018 1 6052 6053 6054
2019 1 6055 6056 6057
2020 1 6058 6059 6060
2021 1 6061 6062 6063
2022 1 6064 6065 6066
2023 1 6067 6068 6069
2024 1 6070 6071 6072
2025 1 6073 6074 6075
2026 1 6076 6077 6078
2027 1 6079 6080 6081
2028 1 6082 6083 6084
2029 1 6085 6086 6087
2030 1 6088 6089 6090
2031 1 6091 6092 6093
2032 1 6094 6095 6096
2033 1 6097 6098 6099
2034 1 6100 6101 6102
2035 1 6103 6104 6105
2036 1 6106 6107 6108
2037 1 6109 6110 6111
2038 1 6112 6113 6114
2039 1 6115 6116 6117
2040 1 6118 6119 6120
2041 1 6121 6122 6123
2042 1 6124 6125 6126
2043 1 6127 6128 6129
2044 1 6130 6131 6132
2045 1 6133 6134 6135
2046 1 6136 6137 6138
2047 1 6139 6140 6141
2048 1 6142 6143 6144
2049 1 6145 6146 6147
2050 1 6148 6149 6150
2051 1 6151 6152 6153
2052 1 6154 6155 6156
2053 1 6157 6158 6159
2054 1 6160 6161 6162
2055 1 6163 6164 6165
2056 1 6166 6167 6168
2057 1 6169 6170 6171
2058 1 6172 6173 6174
2059 1 6175 6176 6177
2060 1 6178 6179 6180
2061 1 6181 6182 6183
2062 1 6184 6185 6186
2063 1 6187 6188 6189
2064 1 6190 6191 6192
2065 1 6193 6194 6195
2066 1 6196 6197 6198
2067 1 6199 6200 6201
2068 1 6202 6203 6204
2069 1 6205 6206 6207
2070 1 6208 6209 6210
2071 1 6211 6212 6213
2072 1 6214 6215 6216
2073 1 6217 6218 6219
2074 1 6220 6221 6222
2075 1 6223 6224 6225
2076 1 6226 6227 6228
2077 1 6229 6230 6231
2078 1 6232 6233 6234
2079 1 6235 6236 6237
2080 1 6238 6239 6240
2081 1 6241 6242 6243
2082 1 6244 6245 6246
2083 1 6247 6248 6249
2084 1 6250 6251 6252
2085 1 6253 6254 6255
2086 1 6256 6257 6258
2087 1 6259 6260 6261
2088 1 6262 6263 6264
2089 1 6265 6266 6267
2090 1 6268 6269 6270
2091 1 6271 6272 6273
2092 1 6274 6275 6276
2093 1 6277 6278 6279
2094 1 6280 6281 6282
2095 1 6283 6284 6285
2096 1 6286 6287 6288
2097 1 6289 6290 6291
2098 1 6292 6293 6294
2099 1 6295 6296 6297
2100 1 6298 6299 6300
2101 1 6301 6302 6303
2102 1 6304 6305 6306
2103 1 6307 6308 6309
2104 1 6310 6311 6312
2105 1 6313 6314 6315
2106 1 6316 6317 6318
2107 1 6319 6320 6321
2108 1 6322 6323 6324
2109 1 6325 6326 6327
2110 1 6328 6329 6330
2111 1 6331 6332 6333
2112 1 6334 6335 6336
2113 1 6337 6338 6339
2114 1 6340 6341 6342
2115 1 6343 6344 6345
2116 1 6346 6347 6348
2117 1 6349 6350 6351
2118 1 6352 6353 6354
2119 1 6355 6356 6357
2120 1 6358 6359 6360
2121 1 6361 6362 6363
2122 1 6364 6365 6366
2123 1 6367 6368 6369
2124 1 6370 6371 6372
2125 1 6373 6374 6375
2126 1 6376 6377 6378
2127 1 6379 6380 6381
2128 1 6382 6383 6384
2129 1 6385 6386 6387
2130 1 6388 6389 6390
2131 1 6391 6392 6393
2132 1 6394 6395 6396
2133 1 6397 6398 6399
2134 1 6400 6401 6402
2135 1 6403 6404 6405
2136 1 6406 6407 6408
2137 1 6409 6410 6411
2138 1 6412 6413 6414
2139 1 6415 6416 6417
2140 1 6418 6419 6420
2141 1 6421 6422 6423
2142 1 6424 6425 6426
2143 1 6427 6428 6429
2144 1 6430 6431 6432
2145 1 6433 6434 6435
2146 1 6436 6437 6438
2147 1 6439 6440 6441
2148 1 6442 6443 6444
2149 1 6445 6446 6447
2150 1 6448 6449 6450
2151 1 6451 6452 6453
2152 1 6454 6455 6456
2153 1 6457 6458 6459
2154 1 6460 6461 6462
2155 1 6463 6464 6465
2156 1 6466 6467 6468
2157 1 6469 6470 6471
2158 1 6472 6473 6474
2159 1 6475 6476 6477
2160 1 6478 6479 6480
2161 1 6481 6482 6483
2162 1 6484 6485 6486
2163 1 6487 6488 6489
2164 1 6490 6491 6492
2165 1 6493 6494 6495
2166 1 6496 6497 6498
2167 1 6499 6500 6501
2168 1 6502 6503 6504
2169 1 6505 6506 6507
2170 1 6508 6509 6510
2171 1 6511 6512 6513
2172 1 6514 6515 6516
2173 1 6517 6518 6519
2174 1 6520 6521 6522
2175 1 6523 6524 6525
2176 1 6526 6527 6528
2177 1 6529 6530 6531
2178 1 6532 6533 6534
2179 1 6535 6536 6537
2180 1 6538 6539 6540
2181 1 6541 6542 6543
2182 1 6544 6545 6546
2183 1 6547 6548 6549
2184 1 6550 6551 6552
2185 1 6553 6554 6555
2186 1 6556 6557 6558
2187 1 6559 6560 6561
2188 1 6562 6563 6564
2189 1 6565 6566 6567
2190 1 6568 6569 6570
2191 1 6571 6572 6573
2192 1 6574 6575 6576
2193 1 6577 6578 6579
2194 1 6580 6581 6582
2195 1 6583 6584 6585
2196 1 6586 6587 6588
2197 1 6589 6590 6591
2198 1 6592 6593 6594
2199 1 6595 6596 6597
2200 1 6598 6599 6600
2201 1 6601 6602 6603
2202 1 6604 6605 6606
2203 1 6607 6608 6609
2204 1 6610 6611 6612
2205 1 6613 6614 6615
2206 1 6616 6617 6618
2207 1 6619 6620 6621
2208 1 6622 6623 6624
2209 1 6625 6626 6627
2210 1 6628 6629 6630
2211 1 6631 6632 6633
2212 1 6634 6635 6636
2213 1 6637 6638 6639
2214 1 6640 6641 6642
2215 1 6643 6644 6645
2216 1 6646 6647 6648
2217 1 6649 6650 6651
2218 1 6652 6653 6654
2219 1 6655 6656 6657
2220 1 6658 6659 6660
2221 1 6661 6662 6663
2222 1 6664 6665 6666
2223 1 6667 6668 6669
2224 1 6670 6671 6672
2225 1 6673 6674 6675
2226 1 6676 6677 6678
2227 1 6679 6680 6681
2228 1 6682 6683 6684
2229 1 6685 6686 6687
2230 1 6688 6689 6690
2231 1 6691 6692 6693
2232 1 6694 6695 6696
2233 1 6697 6698 6699
2234 1 6700 6701 6702
2235 1 6703 6704 6705
2236 1 6706 6707 6708
2237 1 6709 6710 6711
2238 1 6712 6713 6714
2239 1 6715 6716 6717
2240 1 6718 6719 6720
2241 1 6721 6722 6723
2242 1 6724 6725 6726
2243 1 6727 6728 6729
2244 1 6730 6731 6732
2245 1 6733 6734 6735
2246 1 6736 6737 6738
2247 1 6739 6740 6741
2248 1 6742 6743 6744
2249 1 6745 6746 6747
2250 1 6748 6749 6750
2251 1 6751 6752 6753
2252 1 6754 6755 6756
2253 1 6757 6758 6759
2254 1 6760 6761 6762
2255 1 6763 6764 6765
2256 1 6766 6767 6768
2257 1 6769 6770 6771
2258 1 6772 6773 6774
2259 1 6775 6776 6777
2260 1 6778 6779 6780
2261 1 6781 6782 6783
2262 1 6784 6785 6786
2263 1 6787 6788 6789
2264 1 6790 6791 6792
2265 1 6793 6794 6795
2266 1 6796 6797 6798
2267 1 6799 6800 6801
2268 1 6802 6803 6804
2269 1 6805 6806 6807
2270 1 6808 6809 6810
2271 1 6811 6812 6813
2272 1 6814 6815 6816
2273 1 6817 6818 6819
2274 1 6820 6821 6822
2275 1 6823 6824 6825
2276 1 6826 6827 6828
2277 1 6829 6830 6831
2278 1 6832 6833 6834
2279 1 6835 6836 6837
2280 1 6838 6839 6840
2281 1 6841 6842 6843
2282 1 6844 6845 6846
2283 1 6847 6848 6849
2284 1 6850 6851 6852
2285 1 6853 6854 6855
2286 1 6856 6857 6858
2287 1 6859 6860 6861
2288 1 6862 6863 6864
2289 1 6865 6866 6867
2290 1 6868 6869 6870
2291 1 6871 6872 6873
2292 1 6874 6875 6876
2293 1 6877 6878 6879
2294 1 6880 6881 6882
2295 1 6883 6884 6885
2296 1 6886 6887 6888
2297 1 6889 6890 6891
2298 1 6892 6893 6894
2299 1 6895 6896 6897
2300 1 6898 6899 6900
2301 1 6901 6902 6903
2302 1 6904 6905 6906
2303 1 6907 6908 6909
2304 1 6910 6911 6912
2305 1 6913 6914 6915
2306 1 6916 6917 6918
2307 1 6919 6920 6921
2308 1 6922 6923 6924
2309 1 6925 6926 6927
2310 1 6928 6929 6930
2311 1 6931 6932 6933
2312 1 6934 6935 6936
2313 1 6937 6938 6939
2314 1 6940 6941 6942
2315 1 6943 6944 6945
2316 1 6946 6947 6948
2317 1 6949 6950 6951
2318 1 6952 6953 6954
2319 1 6955 6956 6957
2320 1 6958 6959 6960
2321 1 6961 6962 6963
2322 1 6964 6965 6966
2323 1 6967 6968 6969
2324 1 6970 6971 6972
2325 1 6973 6974 6975
2326 1 6976 6977 6978
2327 1 6979 6980 6981
2328 1 6982 6983 6984
2329 1 6985 6986 6987
2330 1 6988 6989 6990
2331 1 6991 6992 6993
2332 1 6994 6995 6996
2333 1 6997 6998 6999
2334 1 7000 7001 7002
2335 1 7003 7004 7005
2336 1 7006 7007 7008
2337 1 7009 7010 7011
2338 1 7012 7013 7014
2339 1 7015 7016 7017
2340 1 7018 7019 7020
2341 1 7021 7022 7023
2342 1 7024 7025 7026
2343 1 7027 7028 7029
2344 1 7030 7031 7032
2345 1 7033 7034 7035
2346 1 7036 7037 7038
2347 1 7039 7040 7041
2348 1 7042 7043 7044
2349 1 7045 7046 7047
2350 1 7048 7049 7050
2351 1 7051 7052 7053
2352 1 7054 7055 7056
2353 1 7057 7058 7059
2354 1 7060 7061 7062
2355 1 7063 7064 7065
2356 1 7066 7067 7068
2357 1 7069 7070 7071
2358 1 7072 7073 7074
2359 1 7075 7076 7077
2360 1 7078 7079 7080
2361 1 7081 7082 7083
2362 1 7084 7085 7086
2363 1 7087 7088 7089
2364 1 7090 7091 7092
2365 1 7093 7094 7095
2366 1 7096 7097 7098
2367 1 7099 7100 7101
2368 1 7102 7103 7104
2369 1 7105 7106 7107
2370 1 7108 7109 7110
2371 1 7111 7112 7113
2372 1 7114 7115 7116
2373 1 7117 7118 7119
2374 1 7120 7121 7122
2375 1 7123 7124 7125
2376 1 7126 7127 7128
2377 1 7129 7130 7131
2378 1 7132 7133 7134
2379 1 7135 7136 7137
2380 1 7138 7139 7140
2381 1 7141 7142 7143
2382 1 7144 7145 7146
2383 1 7147 7148 7149
2384 1 7150 7151 7152
2385 1 7153 7154 7155
2386 1 7156 7157 7158
2387 1 7159 7160 7161
2388 1 7162 7163 7164
2389 1 7165 7166 7167
2390 1 7168 7169 7170
2391 1 7171 7172 7173
2392 1 7174 7175 7176
2393 1 7177 7178 7179
2394 1 7180 7181 7182
2395 1 7183 7184 7185
2396 1 7186 7187 7188
2397 1 7189 7190 7191
2398 1 7192 7193 7194
2399 1 7195 7196 7197
2400 1 7198 7199 7200
2401 1 7201 7202 7203
2402 1 7204 7205 7206
2403 1 7207 7208 7209
2404 1 7210 7211 7212
2405 1 7213 7214 7215
2406 1 7216 7217 7218
2407 1 7219 7220 7221
2408 1 7222 7223 7224
2409 1 7225 7226 7227
2410 1 7228 7229 7230
2411 1 7231 7232 7233
2412 1 7234 7235 7236
2413 1 7237 7238 7239
2414 1 7240 7241 7242
2415 1 7243 7244 7245
2416 1 7246 7247 7248
2417 1 7249 7250 7251
2418 1 7252 7253 7254
2419 1 7255 7256 7257
2420 1 7258 7259 7260
2421 1 7261 7262 7263
2422 1 7264 7265 7266
2423 1 7267 7268 7269
2424 1 7270 7271 7272
2425 1 7273 7274 7275
2426 1 7276 7277 7278
2427 1 7279 7280 7281
2428 1 7282 7283 7284
2429 1 7285 7286 7287
2430 1 7288 7289 7290
2431 1 7291 7292 7293
2432 1 7294 7295 7296
2433 1 7297 7298 7299
2434 1 7300 7301 7302
2435 1 7303 7304 7305
2436 1 7306 7307 7308
2437 1 7309 7310 7311
2438 1 7312 7313 7314
2439 1 7315 7316 7317
2440 1 7318 7319 7320
2441 1 7321 7322 7323
2442 1 7324 7325 7326
2443 1 7327 7328 7329
2444 1 7330 7331 7332
2445 1 7333 7334 7335
2446 1 7336 7337 7338
2447 1 7339 7340 7341
2448 1 7342 7343 7344
2449 1 7345 7346 7347
2450 1 7348 7349 7350
2451 1 7351 7352 7353
2452 1 7354 7355 7356
2453 1 7357 7358 7359
2454 1 7360 7361 7362
2455 1 7363 7364 7365
2456 1 7366 7367 7368
2457 1 7369 7370 7371
2458 1 7372 7373 7374
2459 1 7375 7376 7377
2460 1 7378 7379 7380
2461 1 7381 7382 7383
2462 1 7384 7385 7386
2463 1 7387 7388 7389
2464 1 7390 7391 7392
2465 1 7393 7394 7395
2466 1 7396 7397 7398
2467 1 7399 7400 7401
2468 1 7402 7403 7404
2469 1 7405 7406 7407
2470 1 7408 7409 7410
2471 1 7411 7412 7413
2472 1 7414 7415 7416
2473 1 7417 7418 7419
2474 1 7420 7421 7422
2475 1 7423 7424 7425
2476 1 7426 7427 7428
2477 1 7429 7430 7431
2478 1 7432 7433 7434
2479 1 7435 7436 7437
2480 1 7438 7439 7440
2481 1 7441 7442 7443
2482 1 7444 7445 7446
2483 1 7447 7448 7449
2484 1 7450 7451 7452
2485 1 7453 7454 7455
2486 1 7456 7457 7458
2487 1 7459 7460 7461
2488 1 7462 7463 7464
2489 1 7465 7466 7467
2490 1 7468 7469 7470
2491 1 7471 7472 7473
2492 1 7474 7475 7476
2493 1 7477 7478 7479
2494 1 7480 7481 7482
2495 1 7483 7484 7485
2496 1 7486 7487 7488
2497 1 7489 7490 7491
2498 1 7492 7493 7494
2499 1 7495 7496 7497
2500 1 7498 7499 7500
2501 1 7501 7502 7503
2502 1 7504 7505 7506
2503 1 7507 7508 7509
2504 1 7510 7511 7512
2505 1 7513 7514 7515
2506 1 7516 7517 7518
2507 1 7519 7520 7521
2508 1 7522 7523 7524
2509 1 7525 7526 7527
2510 1 7528 7529 7530
2511 1 7531 7532 7533
2512 1 7534 7535 7536
2513 1 7537 7538 7539
2514 1 7540 7541 7542
2515 1 7543 7544 7545
2516 1 7546 7547 7548
2517 1 7549 7550 7551
2518 1 7552 7553 7554
2519 1 7555 7556 7557
2520 1 7558 7559 7560
2521 1 7561 7562 7563
2522 1 7564 7565 7566
2523 1 7567 7568 7569
2524 1 7570 7571 7572
2525 1 7573 7574 7575
2526 1 7576 7577 7578
2527 1 7579 7580 7581
2528 1 7582 7583 7584
2529 1 7585 7586 7587
2530 1 7588 7589 7590
2531 1 7591 7592 7593
2532 1 7594 7595 7596
2533 1 7597 7598 7599
2534 1 7600 7601 7602
2535 1 7603 7604 7605
2536 1 7606 7607 7608
2537 1 7609 7610 7611
2538 1 7612 7613 7614
2539 1 7615 7616 7617
2540 1 7618 7619 7620
2541 1 7621 7622 7623
2542 1 7624 7625 7626
2543 1 7627 7628 7629
2544 1 7630 7631 7632
2545 1 7633 7634 7635
2546 1 7636 7637 7638
2547 1 7639 7640 7641
2548 1 7642 7643 7644
2549 1 7645 7646 7647
2550 1 7648 7649 7650
2551 1 7651 7652 7653
2552 1 7654 7655 7656
2553 1 7657 7658 7659
2554 1 7660 7661 7662
2555 1 7663 7664 7665
2556 1 7666 7667 7668
2557 1 7669 7670 7671
2558 1 7672 7673 7674
2559 1 7675 7676 7677
2560 1 7678 7679 7680
2561 1 7681 7682 7683
2562 1 7684 7685 7686
2563 1 7687 7688 7689
2564 1 7690 7691 7692
2565 1 7693 7694 7695
2566 1 7696 7697 7698
2567 1 7699 7700 7701
2568 1 7702 7703 7704
2569 1 7705 7706 7707
2570 1 7708 7709 7710
2571 1 7711 7712 7713
2572 1 7714 7715 7716
2573 1 7717 7718 7719
2574 1 7720 7721 7722
2575 1 7723 7724 7725
2576 1 7726 7727 7728
2577 1 7729 7730 7731
2578 1 7732 7733 7734
2579 1 7735 7736 7737
2580 1 7738 7739 7740
2581 1 7741 7742 7743
2582 1 7744 7745 7746
2583 1 7747 7748 7749
2584 1 7750 7751 7752
2585 1 7753 7754 7755
2586 1 7756 7757 7758
2587 1 7759 7760 7761
2588 1 7762 7763 7764
2589 1 7765 7766 7767
2590 1 7768 7769 7770
2591 1 7771 7772 7773
2592 1 7774 7775 7776
2593 1 7777 7778 7779
2594 1 7780 7781 7782
2595 1 7783 7784 7785
2596 1 7786 7787 7788
2597 1 7789 7790 7791
2598 1 7792 7793 7794
2599 1 7795 7796 7797
2600 1 7798 7799 7800
2601 1 7801 7802 7803
2602 1 7804 7805 7806
2603 1 7807 7808 7809
2604 1 7810 7811 7812
2605 1 7813 7814 7815
2606 1 7816 7817 7818
2607 1 7819 7820 7821
2608 1 7822 7823 7824
2609 1 7825 7826 7827
2610 1 7828 7829 7830
2611 1 7831 7832 7833
2612 1 7834 7835 7836
2613 1 7837 7838 7839
2614 1 7840 7841 7842
2615 1 7843 7844 7845
2616 1 7846 7847 7848
2617 1 7849 7850 7851
2618 1 7852 7853 7854
2619 1 7855 7856 7857
2620 1 7858 7859 7860
2621 1 7861 7862 7863
2622 1 7864 7865 7866
2623 1 7867 7868 7869
2624 1 7870 7871 7872
2625 1 7873 7874 7875
2626 1 7876 7877 7878
2627 1 7879 7880 7881
2628 1 7882 7883 7884
2629 1 7885 7886 7887
2630 1 7888 7889 7890
2631 1 7891 7892 7893
2632 1 7894 7895 7896
2633 1 7897 7898 7899
2634 1 7900 7901 7902
2635 1 7903 7904 7905
2636 1 7906 7907 7908
2637 1 7909 7910 7911
2638 1 7912 7913 7914
2639 1 7915 7916 7917
2640 1 7918 7919 7920
2641 1 7921 7922 7923
2642 1 7924 7925 7926
2643 1 7927 7928 7929
2644 1 7930 7931 7932
2645 1 7933 7934 7935
2646 1 7936 7937 7938
2647 1 7939 7940 7941
2648 1 7942 7943 7944
2649 1 7945 7946 7947
2650 1 7948 7949 7950
2651 1 7951 7952 7953
2652 1 7954 7955 7956
2653 1 7957 7958 7959
2654 1 7960 7961 7962
2655 1 7963 7964 7965
2656 1 7966 7967 7968
2657 1 7969 7970 7971
2658 1 7972 7973 7974
2659 1 7975 7976 7977
2660 1 7978 7979 7980
2661 1 7981 7982 7983
2662 1 7984 7985 7986
2663 1 7987 7988 7989
2664 1 7990 7991 7992
2665 1 7993 7994 7995
2666 1 7996 7997 7998
2667 1 7999 8000 8001
2668 1 8002 8003 8004
2669 1 8005 8006 8007
2670 1 8008 8009 8010
2671 1 8011 8012 8013
2672 1 8014 8015 8016
2673 1 8017 8018 8019
2674 1 8020 8021 8022
2675 1 8023 8024 8025
2676 1 8026 8027 8028
2677 1 8029 8030 8031
2678 1 8032 8033 8034
2679 1 8035 8036 8037
2680 1 8038 8039 8040
2681 1 8041 8042 8043
2682 1 8044 8045 8046
2683 1 8047 8048 8049
2684 1 8050 8051 8052
2685 1 8053 8054 8055
2686 1 8056 8057 8058
2687 1 8059 8060 8061
2688 1 8062 8063 8064
2689 1 8065 8066 8067
2690 1 8068 8069 8070
2691 1 8071 8072 8073
2692 1 8074 8075 8076
2693 1 8077 8078 8079
2694 1 8080 8081 8082
2695 1 8083 8084 8085
2696 1 8086 8087 8088
2697 1 8089 8090 8091
2698 1 8092 8093 8094
2699 1 8095 8096 8097
2700 1 8098 8099 8100
2701 1 8101 8102 8103
2702 1 8104 8105 8106
2703 1 8107 8108 8109
2704 1 8110 8111 8112
2705 1 8113 8114 8115
2706 1 8116 8117 8118
2707 1 8119 8120 8121
2708 1 8122 8123 8124
2709 1 8125 8126 8127
2710 1 8128 8129 8130
2711 1 8131 8132 8133
2712 1 8134 8135 8136
2713 1 8137 8138 8139
2714 1 8140 8141 8142
2715 1 8143 8144 8145
2716 1 8146 8147 8148
2717 1 8149 8150 8151
2718 1 8152 8153 8154
2719 1 8155 8156 8157
2720 1 8158 8159 8160
2721 1 8161 8162 8163
2722 1 8164 8165 8166
2723 1 8167 8168 8169
2724 1 8170 8171 8172
2725 1 8173 8174 8175
2726 1 8176 8177 8178
2727 1 8179 8180 8181
2728 1 8182 8183 8184
2729 1 8185 8186 8187
2730 1 8188 8189 8190
2731 1 8191 8192 8193
2732 1 8194 8195 8196
2733 1 8197 8198 8199
2734 1 8200 8201 8202
2735 1 8203 8204 8205
2736 1 8206 8207 8208
2737 1 8209 8210 8211
2738 1 8212 8213 8214
2739 1 8215 8216 8217
2740 1 8218 8219 8220
2741 1 8221 8222 8223
2742 1 8224 8225 8226
2743 1 8227 8228 8229
2744 1 8230 8231 8232
2745 1 8233 8234 8235
2746 1 8236 8237 8238
2747 1 8239 8240 8241
2748 1 8242 8243 8244
2749 1 8245 8246 8247
2750 1 8248 8249 8250
2751 1 8251 8252 8253
2752 1 8254 8255 8256
2753 1 8257 8258 8259
2754 1 8260 8261 8262
2755 1 8263 8264 8265
2756 1 8266 8267 8268
2757 1 8269 8270 8271
2758 1 8272 8273 8274
2759 1 8275 8276 8277
2760 1 8278 8279 8280
2761 1 8281 8282 8283
2762 1 8284 8285 8286
2763 1 8287 8288 8289
2764 1 8290 8291 8292
2765 1 8293 8294 8295
2766 1 8296 8297 8298
2767 1 8299 8300 8301
2768 1 8302 8303 8304
2769 1 8305 8306 8307
2770 1 8308 8309 8310
2771 1 8311 8312 8313
2772 1 8314 8315 8316
2773 1 8317 8318 8319
2774 1 8320 8321 8322
2775 1 8323 8324 8325
2776 1 8326 8327 8328
2777 1 8329 8330 8331
2778 1 8332 8333 8334
2779 1 8335 8336 8337
2780 1 8338 8339 8340
2781 1 8341 8342 8343
2782 1 8344 8345 8346
2783 1 8347 8348 8349
2784 1 8350 8351 8352
2785 1 8353 8354 8355
2786 1 8356 8357 8358
2787 1 8359 8360 8361
2788 1 8362 8363 8364
2789 1 8365 8366 8367
2790 1 8368 8369 8370
2791 1 8371 8372 8373
2792 1 8374 8375 8376
2793 1 8377 8378 8379
2794 1 8380 8381 8382
2795 1 8383 8384 8385
2796 1 8386 8387 8388
2797 1 8389 8390 8391
2798 1 8392 8393 8394
2799 1 8395 8396 8397
2800 1 8398 8399 8400
2801 1 8401 8402 8403
2802 1 8404 8405 8406
2803 1 8407 8408 8409
2804 1 8410 8411 8412
2805 1 8413 8414 8415
2806 1 8416 8417 8418
2807 1 8419 8420 8421
2808 1 8422 8423 8424
2809 1 8425 8426 8427
2810 1 8428 8429 8430
2811 1 8431 8432 8433
2812 1 8434 8435 8436
2813 1 8437 8438 8439
2814 1 8440 8441 8442
2815 1 8443 8444 8445
2816 1 8446 8447 8448
2817 1 8449 8450 8451
2818 1 8452 8453 8454
2819 1 8455 8456 8457
2820 1 8458 8459 8460
2821 1 8461 8462 8463
2822 1 8464 8465 8466
2823 1 8467 8468 8469
2824 1 8470 8471 8472
2825 1 8473 8474 8475
2826 1 8476 8477 8478
2827 1 8479 8480 8481
2828 1 8482 8483 8484
2829 1 8485 8486 8487
2830 1 8488 8489 8490
2831 1 8491 8492 8493
2832 1 8494 8495 8496
2833 1 8497 8498 8499
2834 1 8500 8501 8502
2835 1 8503 8504 8505
2836 1 8506 8507 8508
2837 1 8509 8510 8511
2838 1 8512 8513 8514
2839 1 8515 8516 8517
2840 1 8518 8519 8520
2841 1 8521 8522 8523
2842 1 8524 8525 8526
2843 1 8527 8528 8529
2844 1 8530 8531 8532
2845 1 8533 8534 8535
2846 1 8536 8537 8538
2847 1 8539 8540 8541
2848 1 8542 8543 8544
2849 1 8545 8546 8547
2850 1 8548 8549 8550
2851 1 8551 8552 8553
2852 1 8554 8555 8556
2853 1 8557 8558 8559
2854 1 8560 8561 8562
2855 1 8563 8564 8565
2856 1 8566 8567 8568
2857 1 8569 8570 8571
2858 1 8572 8573 8574
2859 1 8575 8576 8577
2860 1 8578 8579 8580
2861 1 8581 8582 8583
2862 1 8584 8585 8586
2863 1 8587 8588 8589
2864 1 8590 8591 8592
2865 1 8593 8594 8595
2866 1 8596 8597 8598
2867 1 8599 8600 8601
2868 1 8602 8603 8604
2869 1 8605 8606 8607
2870 1 8608 8609 8610
2871 1 8611 8612 8613
2872 1 8614 8615 8616
2873 1 8617 8618 8619
2874 1 8620 8621 8622
2875 1 8623 8624 8625
2876 1 8626 8627 8628
2877 1 8629 8630 8631
2878 1 8632 8633 8634
2879 1 8635 8636 8637
2880 1 8638 8639 8640
2881 1 8641 8642 8643
2882 1 8644 8645 8646
2883 1 8647 8648 8649
2884 1 8650 8651 8652
2885 1 8653 8654 8655
2886 1 8656 8657 8658
2887 1 8659 8660 8661
2888 1 8662 8663 8664
2889 1 8665 8666 8667
2890 1 8668 8669 8670
2891 1 8671 8672 8673
2892 1 8674 8675 8676
2893 1 8677 8678 8679
2894 1 8680 8681 8682
2895 1 8683 8684 8685
2896 1 8686 8687 8688
2897 1 8689 8690 8691
2898 1 8692 8693 8694
2899 1 8695 8696 8697
2900 1 8698 8699 8700
2901 1 8701 8702 8703
2902 1 8704 8705 8706
2903 1 8707 8708 8709
2904 1 8710 8711 8712
2905 1 8713 8714 8715
2906 1 8716 8717 8718
2907 1 8719 8720 8721
2908 1 8722 8723 8724
2909 1 8725 8726 8727
2910 1 8728 8729 8730
2911 1 8731 8732 8733
2912 1 8734 8735 8736
2913 1 8737 8738 8739
2914 1 8740 8741 8742
2915 1 8743 8744 8745
2916 1 8746 8747 8748
2917 1 8749 8750 8751
2918 1 8752 8753 8754
2919 1 8755 8756 8757
2920 1 8758 8759 8760
2921 1 8761 8762 8763
2922 1 8764 8765 8766
2923 1 8767 8768 8769
2924 1 8770 8771 8772
2925 1 8773 8774 8775
2926 1 8776 8777 8778
2927 1 8779 8780 8781
2928 1 8782 8783 8784
2929 1 8785 8786 8787
2930 1 8788 8789 8790
2931 1 8791 8792 8793
2932 1 8794 8795 8796
2933 1 8797 8798 8799
2934 1 8800 8801 8802
2935 1 8803 8804 8805
2936 1 8806 8807 8808
2937 1 8809 8810 8811
2938 1 8812 8813 8814
2939 1 8815 8816 8817
2940 1 8818 8819 8820
2941 1 8821 8822 8823
2942 1 8824 8825 8826
2943 1 8827 8828 8829
2944 1 8830 8831 8832
2945 1 8833 8834 8835
2946 1 8836 8837 8838
2947 1 8839 8840 8841
2948 1 8842 8843 8844
2949 1 8845 8846 8847
2950 1 8848 8849 8850
2951 1 8851 8852 8853
2952 1 8854 8855 8856
2953 1 8857 8858 8859
2954 1 8860 8861 8862
2955 1 8863 8864 8865
2956 1 8866 8867 8868
2957 1 8869 8870 8871
2958 1 8872 8873 8874
2959 1 8875 8876 8877
2960 1 8878 8879 8880
2961 1 8881 8882 8883
2962 1 8884 8885 8886
2963 1 8887 8888 8889
2964 1 8890 8891 8892
2965 1 8893 8894 8895
2966 1 8896 8897 8898
2967 1 8899 8900 8901
2968 1 8902 8903 8904
2969 1 8905 8906 8907
2970 1 8908 8909 8910
2971 1 8911 8912 8913
2972 1 8914 8915 8916
2973 1 8917 8918 8919
2974 1 8920 8921 8922
2975 1 8923 8924 8925
2976 1 8926 8927 8928
2977 1 8929 8930 8931
2978 1 8932 8933 8934
2979 1 8935 8936 8937
2980 1 8938 8939 8940
2981 1 8941 8942 8943
2982 1 8944 8945 8946
2983 1 8947 8948 8949
2984 1 8950 8951 8952
2985 1 8953 8954 8955
2986 1 8956 8957 8958
2987 1 8959 8960 8961
2988 1 8962 8963 8964
2989 1 8965 8966 8967
2990 1 8968 8969 8970
2991 1 8971 8972 8973
2992 1 8974 8975 8976
2993 1 8977 8978 8979
2994 1 8980 8981 8982
2995 1 8983 8984 8985
2996 1 8986 8987 8988
2997 1 8989 8990 8991
2998 1 8992 8993 8994
2999 1 8995 8996 8997
3000 1 8998 8999 9000
3001 1 9001 9002 9003
3002 1 9004 9005 9006
3003 1 9007 9008 9009
3004 1 9010 9011 9012
3005 1 9013 9014 9015
3006 1 9016 9017 9018
3007 1 9019 9020 9021
3008 1 9022 9023 9024
3009 1 9025 9026 9027
3010 1 9028 9029 9030
3011 1 9031 9032 9033
3012 1 9034 9035 9036
3013 1 9037 9038 9039
3014 1 9040 9041 9042
3015 1 9043 9044 9045
3016 1 9046 9047 9048
3017 1 9049 9050 9051
3018 1 9052 9053 9054
3019 1 9055 9056 9057
3020 1 9058 9059 9060
3021 1 9061 9062 9063
3022 1 9064 9065 9066
3023 1 9067 9068 9069
3024 1 9070 9071 9072
3025 1 9073 9074 9075
3026 1 9076 9077 9078
3027 1 9079 9080 9081
3028 1 9082 9083 9084
3029 1 9085 9086 9087
3030 1 9088 9089 9090
3031 1 9091 9092 9093
3032 1 9094 9095 9096
3033 1 9097 9098 9099
3034 1 9100 9101 9102
3035 1 9103 9104 9105
3036 1 9106 9107 9108
3037 1 9109 9110 9111
3038 1 9112 9113 9114
3039 1 9115 9116 9117
3040 1 9118 9119 9120
